56
Lattice="8.9857 0.0 0.0 0.0 8.9857 0.0 0.0 0.0 8.9857" Properties=species:S:1:pos:R:3:spacegroup_kinds:I:1 spacegroup="P 41 3 2" unit_cell=conventional occupancy="_JSON {\"0\": {\"Ir\": 1}, \"1\": {\"Na\": 1}, \"2\": {\"Na\": 1}, \"3\": {\"O\": 1}, \"4\": {\"O\": 1}}" pbc="T T T"
Ir       5.50499925       7.75142425       5.61606250        0
Ir       7.97355075       1.23427575       1.12321250        0
Ir       3.48070075       3.25857425       7.86248750        0
Ir       1.01214925       5.72712575       3.36963750        0
Ir       5.61606250       5.50499925       7.75142425        0
Ir       1.12321250       7.97355075       1.23427575        0
Ir       7.86248750       3.48070075       3.25857425        0
Ir       3.36963750       1.01214925       5.72712575        0
Ir       7.75142425       5.61606250       5.50499925        0
Ir       1.23427575       1.12321250       7.97355075        0
Ir       3.25857425       7.86248750       3.48070075        0
Ir       5.72712575       3.36963750       1.01214925        0
Na       7.86248750       7.86248750       7.86248750        1
Na       5.61606250       1.12321250       3.36963750        1
Na       1.12321250       3.36963750       5.61606250        1
Na       3.36963750       5.61606250       1.12321250        1
Na       2.30932490       2.30932490       2.30932490        2
Na       2.18352510       6.67637510       6.80217490        2
Na       6.67637510       6.80217490       2.18352510        2
Na       6.80217490       2.18352510       6.67637510        2
Na       0.06289990       4.55574990       8.92280010        2
Na       4.42995010       4.42995010       4.42995010        2
Na       4.55574990       8.92280010       0.06289990        2
Na       8.92280010       0.06289990       4.55574990        2
O        1.02796408       1.02796408       1.02796408        3
O        3.46488592       7.95773592       5.52081408        3
O        7.95773592       5.52081408       3.46488592        3
O        5.52081408       3.46488592       7.95773592        3
O        7.76723908       3.27438908       1.21846092        3
O        5.71131092       5.71131092       5.71131092        3
O        3.27438908       1.21846092       7.76723908        3
O        1.21846092       7.76723908       3.27438908        3
O        1.22564948       8.15092847       8.25426402        4
O        3.26720052       0.83477153       3.76141402        4
O        7.76005052       3.65807847       5.22428598        4
O        5.71849948       5.32762153       0.73143598        4
O        8.25426402       1.22564948       8.15092847        4
O        3.76141402       3.26720052       0.83477153        4
O        5.22428598       7.76005052       3.65807847        4
O        0.73143598       5.71849948       5.32762153        4
O        8.15092847       8.25426402       1.22564948        4
O        0.83477153       3.76141402       3.26720052        4
O        3.65807847       5.22428598       7.76005052        4
O        5.32762153       0.73143598       5.71849948        4
O        5.90450347       3.47207448       2.97786098        4
O        7.57404653       5.51362552       7.47071098        4
O        1.41165347       1.02077552       6.00783902        4
O        3.08119653       7.96492448       1.51498902        4
O        7.96492448       1.51498902       3.08119653        4
O        1.02077552       6.00783902       1.41165347        4
O        5.51362552       7.47071098       7.57404653        4
O        3.47207448       2.97786098       5.90450347        4
O        6.00783902       1.41165347       1.02077552        4
O        1.51498902       3.08119653       7.96492448        4
O        2.97786098       5.90450347       3.47207448        4
O        7.47071098       7.57404653       5.51362552        4
