9
Lattice="2.456195962553717 -4.254274112128462 0.0 2.456195962553717 4.254274112128462 0.0 0.0 0.0 5.403631117618177" Properties=species:S:1:pos:R:3:initial_magmoms:R:1 pbc="T T T"
Si       1.15465772      -1.99993426       1.80121037       0.00000000
Si       1.15465772       1.99993426       3.60242075       0.00000000
Si      -2.30931544      -0.00000000       0.00000000       0.00000000
O        1.67340631      -0.62325116       1.15853851       0.00000000
O       -0.29695409       1.76084406       2.95974888       0.00000000
O       -1.37645222      -1.13759290       4.76095926       0.00000000
O        1.67340631       0.62325116      -1.15853851       0.00000000
O       -0.29695409      -1.76084406       2.44388223       0.00000000
O       -1.37645222       1.13759290       0.64267186       0.00000000
