<UPF version="2.0.1">
  <PP_INFO>
    Generated using "atomic" code by A. Dal Corso  v.5.0.99 svn rev. 10869
    Author: Lorenzo Paulatto
    Generation date: 10Apr2014
    Pseudopotential type: PAW
    Element:  H
    Functional:  SLA  PW   PSX  PSC

    Suggested minimum cutoff for wavefunctions:  46. Ry
    Suggested minimum cutoff for charge density: 221. Ry
    The Pseudo was generated with a Scalar-Relativistic Calculation
    L component and cutoff radius for Local Potential:  1   0.7500
    Pseudopotential contains additional information for GIPAW reconstruction.

    Valence configuration: 
    nl pn  l   occ       Rcut    Rcut US       E pseu
    1S  1  0  1.00      0.900      1.000    -0.465394
    Generation configuration:
    1S  1  0  1.00      0.900      1.000    -0.465391
    1S  1  0  0.00      0.900      1.000     0.050000
    2P  2  1 -1.00      0.750      0.750     0.050000

    Pseudization used: troullier-martins
<PP_INPUTFILE>
 &input
   title='H',
   zed=1,
   rel=1,
   config='1s1 2p-1',
   iswitch=3,
   dft='PBESOL'
 /
 &inputp
   lpaw=.true.,
   pseudotype=3,
   file_pseudopw='H.pbesol-kjpaw_psl.0.1.UPF',
   author='Lorenzo Paulatto',
   lloc=1,
   which_augfun='PSQ',
   rmatch_augfun=0.8,
   tm=.true.
   lgipaw_reconstruction=.true.
   use_paw_as_gipaw=.true.
 /
3
1S  1  0  1.00  0.00  0.90  1.00  0.0
1S  1  0  0.00  0.05  0.90  1.00  0.0
2P  2  1 -1.00  0.05  0.75  0.75  0.0
</PP_INPUTFILE>
  </PP_INFO>
  <!--                               -->
  <!-- END OF HUMAN READABLE SECTION -->
  <!--                               -->
  <PP_HEADER generated='Generated using "atomic" code by A. Dal Corso  v.5.0.99 svn rev. 10869'
             author="Lorenzo Paulatto"
             date="10Apr2014"
             comment=""
             element=" H"
             pseudo_type="PAW"
             relativistic="scalar"
             is_ultrasoft="T"
             is_paw="T"
             is_coulomb="F"
             has_so="F"
             has_wfc="T"
             has_gipaw="T"
             paw_as_gipaw="T"
             core_correction="F"
             functional=" SLA  PW   PSX  PSC"
             z_valence="1.000000000000000E+000"
             total_psenergy="-8.999981752521733E-001"
             wfc_cutoff="4.554601921203025E+001"
             rho_cutoff="2.211002350642103E+002"
             l_max="0"
             l_max_rho="0"
             l_local="1"
             mesh_size="929"
             number_of_wfc="1"
             number_of_proj="2"/>
  <PP_MESH dx="1.250000000000000E-002" mesh="929" xmin="-7.000000000000000E+000" rmax="1.000000000000000E+002"
zmesh="1.000000000000000E+000">
    <PP_R type="real" size="929" columns="4">
 9.118819655545162E-004  9.233520286690222E-004  9.349663674165822E-004  9.467267965612540E-004 
 9.586351536940199E-004  9.706932995199089E-004  9.829031181487387E-004  9.952665173895113E-004 
 1.007785429048510E-003  1.020461809231155E-003  1.033297638647637E-003  1.046294922922419E-003 
 1.059455692907610E-003  1.072782005000297E-003  1.086275941463858E-003  1.099939610753318E-003 
 1.113775147844803E-003  1.127784714569132E-003  1.141970499949608E-003  1.156334720544058E-003 
 1.170879620791174E-003  1.185607473361213E-003  1.200520579511101E-003  1.215621269444015E-003 
 1.230911902673481E-003  1.246394868392050E-003  1.262072585844615E-003  1.277947504706424E-003 
 1.294022105465848E-003  1.310298899811960E-003  1.326780431026992E-003  1.343469274383727E-003 
 1.360368037547894E-003  1.377479360985617E-003  1.394805918375999E-003  1.412350417028882E-003 
 1.430115598307874E-003  1.448104238058696E-003  1.466319147042903E-003  1.484763171377087E-003 
 1.503439192977572E-003  1.522350130010732E-003  1.541498937348950E-003  1.560888607032332E-003 
 1.580522168736217E-003  1.600402690244564E-003  1.620533277929307E-003  1.640917077235726E-003 
 1.661557273173934E-003  1.682457090816541E-003  1.703619795802574E-003  1.725048694847742E-003 
 1.746747136261120E-003  1.768718510468321E-003  1.790966250541270E-003  1.813493832734615E-003 
 1.836304777028907E-003  1.859402647680601E-003  1.882791053778977E-003  1.906473649810077E-003 
 1.930454136227709E-003  1.954736260031667E-003  1.979323815353197E-003  2.004220644047839E-003 
 2.029430636295734E-003  2.054957731209459E-003  2.080805917449529E-003  2.106979233847634E-003 
 2.133481770037708E-003  2.160317667094955E-003  2.187491118182885E-003  2.215006369208517E-003 
 2.242867719485803E-003  2.271079522407407E-003  2.299646186124936E-003  2.328572174237714E-003 
 2.357862006490233E-003  2.387520259478373E-003  2.417551567364503E-003  2.447960622601583E-003 
 2.478752176666358E-003  2.509931040801799E-003  2.541502086768858E-003  2.573470247607700E-003 
 2.605840518408498E-003  2.638617957091922E-003  2.671807685199451E-003  2.705414888693627E-003 
 2.739444818768368E-003  2.773902792669489E-003  2.808794194525513E-003  2.844124476188968E-003 
 2.879899158088243E-003  2.916123830090168E-003  2.952804152373447E-003  2.989945856313060E-003 
 3.027554745375815E-003  3.065636696027143E-003  3.104197658649309E-003  3.143243658471180E-003 
 3.182780796509667E-003  3.222815250523026E-003  3.263353275976148E-003  3.304401207017982E-003 
 3.345965457471272E-003  3.388052521834712E-003  3.430668976297734E-003  3.473821479768054E-003 
 3.517516774912128E-003  3.561761689208730E-003  3.606563136015730E-003  3.651928115650344E-003 
 3.697863716482932E-003  3.744377116044580E-003  3.791475582148608E-003  3.839166474026164E-003 
 3.887457243476130E-003  3.936355436029483E-003  3.985868692128290E-003  4.036004748319558E-003 
 4.086771438464067E-003  4.138176694960437E-003  4.190228549984579E-003  4.242935136744740E-003 
 4.296304690752340E-003  4.350345551108769E-003  4.405066161808406E-003  4.460475073058002E-003 
 4.516580942612666E-003  4.573392537128673E-003  4.630918733533246E-003  4.689168520411611E-003 
 4.748150999411478E-003  4.807875386665186E-003  4.868351014229763E-003  4.929587331545052E-003 
 4.991593906910217E-003  5.054380428978814E-003  5.117956708272651E-003  5.182332678714725E-003 
 5.247518399181385E-003  5.313524055074076E-003  5.380359959910820E-003  5.448036556937725E-003 
 5.516564420760772E-003  5.585954258998100E-003  5.656216913953108E-003  5.727363364308585E-003 
 5.799404726842141E-003  5.872352258163252E-003  5.946217356472094E-003  6.021011563340559E-003 
 6.096746565515638E-003  6.173434196745501E-003  6.251086439628561E-003  6.329715427485747E-003 
 6.409333446256383E-003  6.489952936417887E-003  6.571586494929613E-003  6.654246877201174E-003 
 6.737946999085467E-003  6.822699938896828E-003  6.908518939454532E-003  6.995417410152011E-003 
 7.083408929052125E-003  7.172507245008699E-003  7.262726279814891E-003  7.354080130378436E-003 
 7.446583070924338E-003  7.540249555225276E-003  7.635094218859962E-003  7.731131881500070E-003 
 7.828377549225773E-003  7.926846416870494E-003  8.026553870395161E-003  8.127515489292211E-003 
 8.229747049020030E-003  8.333264523467809E-003  8.438084087451531E-003  8.544222119241347E-003 
 8.651695203120634E-003  8.760520131977428E-003  8.870713909928258E-003  8.982293754975116E-003 
 9.095277101695824E-003  9.209681603968140E-003  9.325525137728326E-003  9.442825803764212E-003 
 9.561601930543505E-003  9.681872077077693E-003  9.803655035821828E-003  9.926969835611012E-003 
 1.005183574463359E-002  1.017827227344187E-002  1.030629917800075E-002  1.043593646277450E-002 
 1.056720438385265E-002  1.070012345211493E-002  1.083471443643615E-002  1.097099836693149E-002 
 1.110899653824231E-002  1.124873051286366E-002  1.139022212451338E-002  1.153349348154362E-002 
 1.167856697039545E-002  1.182546525909662E-002  1.197421130080362E-002  1.212482833738810E-002 
 1.227733990306844E-002  1.243176982808709E-002  1.258814224243400E-002  1.274648157961707E-002 
 1.290681258047987E-002  1.306916029706748E-002  1.323355009654094E-002  1.340000766514083E-002 
 1.356855901220093E-002  1.373923047421214E-002  1.391204871893762E-002  1.408704074957974E-002 
 1.426423390899926E-002  1.444365588398788E-002  1.462533470959422E-002  1.480929877350440E-002 
 1.499557682047772E-002  1.518419795683795E-002  1.537519165502143E-002  1.556858775818209E-002 
 1.576441648485449E-002  1.596270843367562E-002  1.616349458816587E-002  1.636680632157043E-002 
 1.657267540176125E-002  1.678113399620096E-002  1.699221467696908E-002  1.720595042585138E-002 
 1.742237463949351E-002  1.764152113461916E-002  1.786342415331403E-002  1.808811836837631E-002 
 1.831563888873418E-002  1.854602126493188E-002  1.877930149468441E-002  1.901551602850226E-002 
 1.925470177538693E-002  1.949689610859799E-002  1.974213687149278E-002  1.999046238343943E-002 
 2.024191144580439E-002  2.049652334801526E-002  2.075433787369974E-002  2.101539530690203E-002 
 2.127973643837718E-002  2.154740257196477E-002  2.181843553104277E-002  2.209287766506244E-002 
 2.237077185616560E-002  2.265216152588497E-002  2.293709064192893E-002  2.322560372505158E-002 
 2.351774585600911E-002  2.381356268260388E-002  2.411310042681688E-002  2.441640589203004E-002 
 2.472352647033940E-002  2.503451014996015E-002  2.534940552272495E-002  2.566826179167643E-002 
 2.599112877875535E-002  2.631805693258531E-002  2.664909733635549E-002  2.698430171580249E-002 
 2.732372244729257E-002  2.766741256600558E-002  2.801542577422182E-002  2.836781644971310E-002 
 2.872463965423943E-002  2.908595114215248E-002  2.945180736910729E-002  2.982226550088371E-002 
 3.019738342231850E-002  3.057721974635010E-002  3.096183382317689E-002  3.135128574953089E-002 
 3.174563637806795E-002  3.214494732687607E-002  3.254928098910343E-002  3.295870054270737E-002 
 3.337326996032608E-002  3.379305401927456E-002  3.421811831166603E-002  3.464852925466103E-002 
 3.508435410084504E-002  3.552566094873696E-002  3.597251875342967E-002  3.642499733736423E-002 
 3.688316740124001E-002  3.734710053506162E-002  3.781686922932508E-002  3.829254688634466E-002 
 3.877420783172201E-002  3.926192732595982E-002  3.975578157622132E-002  4.025584774823785E-002 
 4.076220397836623E-002  4.127492938579755E-002  4.179410408491992E-002  4.231980919783632E-002 
 4.285212686704019E-002  4.339114026825037E-002  4.393693362340742E-002  4.448959221383352E-002 
 4.504920239355782E-002  4.561585160280941E-002  4.618962838168012E-002  4.677062238395898E-002 
 4.735892439114093E-002  4.795462632661147E-002  4.855782127000997E-002  4.916860347177358E-002 
 4.978706836786394E-002  5.041331259467938E-002  5.104743400415442E-002  5.168953167904941E-002 
 5.233970594843238E-002  5.299805840335580E-002  5.366469191273014E-002  5.433971063939749E-002 
 5.502322005640726E-002  5.571532696349640E-002  5.641613950377735E-002  5.712576718063529E-002 
 5.784432087483848E-002  5.857191286186356E-002  5.930865682943872E-002  6.005466789530794E-002 
 6.081006262521797E-002  6.157495905113224E-002  6.234947668967346E-002  6.313373656079838E-002 
 6.392786120670757E-002  6.473197471099255E-002  6.554620271802436E-002  6.637067245258564E-002 
 6.720551273974976E-002  6.805085402501020E-002  6.890682839466258E-002  6.977356959644367E-002 
 7.065121306042962E-002  7.153989592019722E-002  7.243975703425146E-002  7.335093700772213E-002 
 7.427357821433390E-002  7.520782481865243E-002  7.615382279861033E-002  7.711171996831671E-002 
 7.808166600115317E-002  7.906381245316069E-002  8.005831278672058E-002  8.106532239453323E-002 
 8.208499862389880E-002  8.311750080130256E-002  8.416299025731040E-002  8.522163035177688E-002 
 8.629358649937049E-002  8.737902619542039E-002  8.847811904208731E-002  8.959103677486471E-002 
 9.071795328941255E-002  9.185904466872889E-002  9.301448921066349E-002  9.418446745577669E-002 
 9.536916221554965E-002  9.656875860094886E-002  9.778344405135005E-002  9.901340836382630E-002 
 1.002588437228037E-001  1.015199447300911E-001  1.027969084352864E-001  1.040899343665666E-001 
 1.053992245618643E-001  1.067249836004362E-001  1.080674186348293E-001  1.094267394232490E-001 
 1.108031583623340E-001  1.121968905203437E-001  1.136081536707638E-001  1.150371683263324E-001 
 1.164841577734970E-001  1.179493481073026E-001  1.194329682667196E-001  1.209352500704167E-001 
 1.224564282529819E-001  1.239967405016013E-001  1.255564274931973E-001  1.271357329320356E-001 
 1.287349035878042E-001  1.303541893341717E-001  1.319938431878303E-001  1.336541213480305E-001 
 1.353352832366127E-001  1.370375915385425E-001  1.387613122429553E-001  1.405067146847182E-001 
 1.422740715865137E-001  1.440636591014533E-001  1.458757568562274E-001  1.477106479947969E-001 
 1.495686192226351E-001  1.514499608515267E-001  1.533549668449285E-001  1.552839348639030E-001 
 1.572371663136277E-001  1.592149663904903E-001  1.612176441297769E-001  1.632455124539584E-001 
 1.652988882215866E-001  1.673780922768026E-001  1.694834494994702E-001  1.716152888559389E-001 
 1.737739434504451E-001  1.759597505771615E-001  1.781730517728985E-001  1.804141928704709E-001 
 1.826835240527348E-001  1.849813999073043E-001  1.873081794819570E-001  1.896642263407353E-001 
 1.920499086207542E-001  1.944655990897237E-001  1.969116752041941E-001  1.993885191685352E-001 
 2.018965179946555E-001  2.044360635624741E-001  2.070075526811528E-001  2.096113871510978E-001 
 2.122479738267431E-001  2.149177246801207E-001  2.176210568652330E-001  2.203583927832340E-001 
 2.231301601484298E-001  2.259367920551109E-001  2.287787270452225E-001  2.316564091768889E-001 
 2.345702880937978E-001  2.375208190954581E-001  2.405084632083422E-001  2.435336872579208E-001 
 2.465969639416066E-001  2.496987719026137E-001  2.528395958047465E-001  2.560199264081301E-001 
 2.592402606458916E-001  2.625011017018074E-001  2.658029590889268E-001  2.691463487291839E-001 
 2.725317930340126E-001  2.759598209859732E-001  2.794309682214074E-001  2.829457771141330E-001 
 2.865047968601901E-001  2.901085835636554E-001  2.937577003235329E-001  2.974527173217407E-001 
 3.011942119122023E-001  3.049827687110593E-001  3.088189796880199E-001  3.127034442588539E-001 
 3.166367693790534E-001  3.206195696386709E-001  3.246524673583497E-001  3.287360926865642E-001 
 3.328710836980797E-001  3.370580864936545E-001  3.412977553009939E-001  3.455907525769745E-001 
 3.499377491111554E-001  3.543394241305888E-001  3.587964654059518E-001  3.633095693590115E-001 
 3.678794411714423E-001  3.725067948950130E-001  3.771923535631571E-001  3.819368493039491E-001 
 3.867410234545015E-001  3.916056266767990E-001  3.965314190749930E-001  4.015191703141668E-001 
 4.065696597405993E-001  4.116836765035388E-001  4.168620196785084E-001  4.221054983921655E-001 
 4.274149319487268E-001  4.327911499579875E-001  4.382349924649496E-001  4.437473100810799E-001 
 4.493289641172217E-001  4.549808267181737E-001  4.607037809989661E-001  4.664987211828487E-001 
 4.723665527410147E-001  4.783081925340841E-001  4.843245689553626E-001  4.904166220759064E-001 
 4.965853037914099E-001  5.028315779709409E-001  5.091564206075493E-001  5.155608199707643E-001 
 5.220457767610164E-001  5.286123042659977E-001  5.352614285189903E-001  5.419941884591872E-001 
 5.488116360940266E-001  5.557148366635717E-001  5.627048688069561E-001  5.697828247309230E-001 
 5.769498103804868E-001  5.842069456117360E-001  5.915553643668154E-001  5.989962148511058E-001 
 6.065306597126334E-001  6.141598762237379E-001  6.218850564650203E-001  6.297074075116104E-001 
 6.376281516217738E-001  6.456485264278921E-001  6.537697851298474E-001  6.619931966908342E-001 
 6.703200460356397E-001  6.787516342514148E-001  6.872892787909722E-001  6.959343136786421E-001 
 7.046880897187137E-001  7.135519747065029E-001  7.225273536420727E-001  7.316156289466418E-001 
 7.408182206817180E-001  7.501365667709821E-001  7.595721232249689E-001  7.691263643685711E-001 
 7.788007830714049E-001  7.885968909810768E-001  7.985162187593773E-001  8.085603163214529E-001 
 8.187307530779825E-001  8.290291181804004E-001  8.394570207692075E-001  8.500160902253985E-001 
 8.607079764250583E-001  8.715343499971585E-001  8.824969025845955E-001  8.935973471085158E-001 
 9.048374180359599E-001  9.162188716508781E-001  9.277434863285535E-001  9.394130628134758E-001 
 9.512294245007141E-001  9.631944177208221E-001  9.753099120283332E-001  9.875778004938821E-001 
 1.000000000000000E+000  1.012578451540635E+000  1.025315120524429E+000  1.038211997081826E+000 
 1.051271096376025E+000  1.064494458917859E+000  1.077884150884632E+000  1.091442264442952E+000 
 1.105170918075648E+000  1.119072256912781E+000  1.133148453066826E+000  1.147401705972072E+000 
 1.161834242728284E+000  1.176448318448691E+000  1.191246216612359E+000  1.206230249420981E+000 
 1.221402758160170E+000  1.236766113565285E+000  1.252322716191865E+000  1.268074996790720E+000 
 1.284025416687741E+000  1.300176468168491E+000  1.316530674867622E+000  1.333090592163203E+000 
 1.349858807576004E+000  1.366837941173796E+000  1.384030645980752E+000  1.401439608391974E+000 
 1.419067548593258E+000  1.436917220986125E+000  1.454991414618201E+000  1.473292953619016E+000 
 1.491824697641271E+000  1.510589542307673E+000  1.529590419663380E+000  1.548830298634133E+000 
 1.568312185490169E+000  1.588039124315944E+000  1.608014197485784E+000  1.628240526145511E+000 
 1.648721270700128E+000  1.669459631307643E+000  1.690458848379092E+000  1.711722203084865E+000 
 1.733253017867396E+000  1.755054656960298E+000  1.777130526914039E+000  1.799484077128209E+000 
 1.822118800390510E+000  1.845038233422501E+000  1.868245957432222E+000  1.891745598673770E+000 
 1.915540829013897E+000  1.939635366505755E+000  1.964032975969848E+000  1.988737469582292E+000 
 2.013752707470477E+000  2.039082598316216E+000  2.064731099966488E+000  2.090702220051857E+000 
 2.117000016612675E+000  2.143628598733160E+000  2.170592127183443E+000  2.197894815069703E+000 
 2.225540928492469E+000  2.253534787213209E+000  2.281880765329304E+000  2.310583291957505E+000 
 2.339646851925992E+000  2.369075986475142E+000  2.398875293967098E+000  2.429049430604289E+000 
 2.459603111156951E+000  2.490541109699832E+000  2.521868260358150E+000  2.553589458062927E+000 
 2.585709659315847E+000  2.618233882963702E+000  2.651167210982608E+000  2.684514789272072E+000 
 2.718281828459045E+000  2.752473604712107E+000  2.787095460565852E+000  2.822152805755699E+000 
 2.857651118063166E+000  2.893595944171761E+000  2.929992900533705E+000  2.966847674247469E+000 
 3.004166023946432E+000  3.041953780698666E+000  3.080216848918031E+000  3.118961207286795E+000 
 3.158192909689769E+000  3.197918086160275E+000  3.238142943837963E+000  3.278873767938673E+000 
 3.320116922736551E+000  3.361878852558430E+000  3.404166082790818E+000  3.446985220899477E+000 
 3.490342957461841E+000  3.534246067212473E+000  3.578701410101580E+000  3.623715932366941E+000 
 3.669296667619247E+000  3.715450737941104E+000  3.762185354999914E+000  3.809507821174662E+000 
 3.857425530696973E+000  3.905945970806455E+000  3.955076722920577E+000  4.004825463819329E+000 
 4.055199966844676E+000  4.106208103115211E+000  4.157857842756011E+000  4.210157256143960E+000 
 4.263114515168822E+000  4.316737894510045E+000  4.371035772929757E+000  4.426016634581938E+000 
 4.481689070338065E+000  4.538061779129507E+000  4.595143569306690E+000  4.652943360015469E+000 
 4.711470182590745E+000  4.770733181967603E+000  4.830741618110284E+000  4.891504867459006E+000 
 4.953032424395113E+000  5.015333902724563E+000  5.078419037180081E+000  5.142297684942291E+000 
 5.206979827179850E+000  5.272475570609090E+000  5.338795149073180E+000  5.405948925141167E+000 
 5.473947391727205E+000  5.542801173730024E+000  5.612521029693155E+000  5.683117853485948E+000 
 5.754602676005731E+000  5.826986666901480E+000  5.900281136319018E+000  5.974497536668322E+000 
 6.049647464412950E+000  6.125742661881986E+000  6.202795019104872E+000  6.280816575669166E+000 
 6.359819522601829E+000  6.439816204274064E+000  6.520819120330112E+000  6.602840927640434E+000 
 6.685894442279272E+000  6.769992641527273E+000  6.855148665899183E+000  6.941375821197036E+000 
 7.028687580589301E+000  7.117097586715997E+000  7.206619653820465E+000  7.297267769907837E+000 
 7.389056098930650E+000  7.481998983002086E+000  7.576110944636849E+000  7.671406689020428E+000 
 7.767901106306778E+000  7.865609273944892E+000  7.964546459034780E+000  8.064728120712875E+000 
 8.166169912567646E+000  8.268887685085474E+000  8.372897488127265E+000  8.478215573436382E+000 
 8.584858397177896E+000  8.692842622510002E+000  8.802185122187613E+000  8.912902981198737E+000 
 9.025013499434131E+000  9.138534194390328E+000  9.253482803906889E+000  9.369877288937936E+000 
 9.487735836358526E+000  9.607076861806512E+000  9.727919012559887E+000  9.850281170450581E+000 
 9.974182454814727E+000  1.009964222548005E+001  1.022668008579101E+001  1.035531588567170E+001 
 1.048556972472757E+001  1.061746195538601E+001  1.075101318607635E+001  1.088624428445015E+001 
 1.102317638064160E+001  1.116183087056936E+001  1.130222941927959E+001  1.144439396433112E+001 
 1.158834671922340E+001  1.173411017686721E+001  1.188170711309940E+001  1.203116059024154E+001 
 1.218249396070347E+001  1.233573087063227E+001  1.249089526360681E+001  1.264801138437922E+001 
 1.280710378266304E+001  1.296819731696913E+001  1.313131715849003E+001  1.329648879503279E+001 
 1.346373803500171E+001  1.363309101143076E+001  1.380457418606709E+001  1.397821435350565E+001 
 1.415403864537581E+001  1.433207453458095E+001  1.451234983959093E+001  1.469489272878894E+001 
 1.487973172487285E+001  1.506689570931179E+001  1.525641392685918E+001  1.544831599012203E+001 
 1.564263188418817E+001  1.583939197131143E+001  1.603862699565568E+001  1.624036808809886E+001 
 1.644464677109706E+001  1.665149496361014E+001  1.686094498608905E+001  1.707302956552586E+001 
 1.728778184056766E+001  1.750523536669429E+001  1.772542412146164E+001  1.794838250981066E+001 
 1.817414536944307E+001  1.840274797626507E+001  1.863422604989902E+001  1.886861575926488E+001 
 1.910595372823167E+001  1.934627704133982E+001  1.958962324959602E+001  1.983603037634033E+001 
 2.008553692318767E+001  2.033818187604363E+001  2.059400471119604E+001  2.085304540148343E+001 
 2.111534442254063E+001  2.138094275912334E+001  2.164988191151208E+001  2.192220390199647E+001 
 2.219795128144166E+001  2.247716713593663E+001  2.275989509352673E+001  2.304617933103060E+001 
 2.333606458094272E+001  2.362959613842325E+001  2.392681986837515E+001  2.422778221261098E+001 
 2.453253019710937E+001  2.484111143936285E+001  2.515357415581840E+001  2.546996716941110E+001 
 2.579033991719306E+001  2.611474245805799E+001  2.644322548056280E+001  2.677584031084816E+001 
 2.711263892065791E+001  2.745367393546010E+001  2.779899864266969E+001  2.814866699997465E+001 
 2.850273364376732E+001  2.886125389768103E+001  2.922428378123494E+001  2.959188001858698E+001 
 2.996410004739703E+001  3.034100202780196E+001  3.072264485150293E+001  3.110908815096766E+001 
 3.150039230874797E+001  3.189661846691450E+001  3.229782853661072E+001  3.270408520772617E+001 
 3.311545195869231E+001  3.353199306640096E+001  3.395377361624755E+001  3.438085951230123E+001 
 3.481331748760205E+001  3.525121511458854E+001  3.569462081565591E+001  3.614360387384693E+001 
 3.659823444367804E+001  3.705858356210059E+001  3.752472315960100E+001  3.799672607143980E+001 
 3.847466604903214E+001  3.895861777147202E+001  3.944865685720055E+001  3.994485987582193E+001 
 4.044730436006743E+001  4.095606881790980E+001  4.147123274483081E+001  4.199287663624201E+001 
 4.252108200006278E+001  4.305593136945596E+001  4.359750831572351E+001  4.414589746136529E+001 
 4.470118449330086E+001  4.526345617625876E+001  4.583280036633352E+001  4.640930602471298E+001 
 4.699306323157935E+001  4.758416320018370E+001  4.818269829109882E+001  4.878876202665046E+001 
 4.940244910553019E+001  5.002385541759281E+001  5.065307805883867E+001  5.129021534658570E+001 
 5.193536683483149E+001  5.258863332980845E+001  5.325011690573569E+001  5.391992092076757E+001 
 5.459815003314424E+001  5.528491021754449E+001  5.598030878164415E+001  5.668445438288387E+001 
 5.739745704544624E+001  5.811942817744799E+001  5.885048058834746E+001  5.959072850657099E+001 
 6.034028759736206E+001  6.109927498085337E+001  6.186780925036788E+001  6.264601049094892E+001 
 6.343400029812334E+001  6.423190179690195E+001  6.503983966101701E+001  6.585794013240370E+001 
 6.668633104092521E+001  6.752514182434615E+001  6.837450354855822E+001  6.923454892805864E+001 
 7.010541234668786E+001  7.098722987862693E+001  7.188013930965907E+001  7.278428015869974E+001 
 7.369979369959584E+001  7.462682298320091E+001  7.556551285972668E+001  7.651601000137589E+001 
 7.747846292526097E+001  7.845302201660915E+001  7.943983955226133E+001  8.043906972446531E+001 
 8.145086866496814E+001  8.247539446941312E+001  8.351280722204127E+001  8.456326902070600E+001 
 8.562694400220066E+001  8.670399836790490E+001  8.779460040975492E+001  8.889892053653833E+001 
 9.001713130052181E+001  9.114940742441244E+001  9.229592582865789E+001  9.345686565909175E+001 
 9.463240831492415E+001  9.582273747708687E+001  9.702803913693344E+001  9.824850162530007E+001 
 9.948431564193395E+001
    </PP_R>
    <PP_RAB type="real" size="929" columns="4">
 1.139852456943145E-005  1.154190035836278E-005  1.168707959270728E-005  1.183408495701567E-005 
 1.198293942117525E-005  1.213366624399886E-005  1.228628897685923E-005  1.244083146736889E-005 
 1.259731786310638E-005  1.275577261538943E-005  1.291622048309546E-005  1.307868653653023E-005 
 1.324319616134513E-005  1.340977506250371E-005  1.357844926829822E-005  1.374924513441648E-005 
 1.392218934806004E-005  1.409730893211415E-005  1.427463124937009E-005  1.445418400680072E-005 
 1.463599525988968E-005  1.482009341701516E-005  1.500650724388876E-005  1.519526586805018E-005 
 1.538639878341851E-005  1.557993585490062E-005  1.577590732305768E-005  1.597434380883031E-005 
 1.617527631832310E-005  1.637873624764950E-005  1.658475538783739E-005  1.679336592979659E-005 
 1.700460046934867E-005  1.721849201232022E-005  1.743507397969999E-005  1.765438021286102E-005 
 1.787644497884843E-005  1.810130297573370E-005  1.832898933803629E-005  1.855953964221359E-005 
 1.879298991221966E-005  1.902937662513415E-005  1.926873671686188E-005  1.951110758790416E-005 
 1.975652710920271E-005  2.000503362805705E-005  2.025666597411634E-005  2.051146346544658E-005 
 2.076946591467418E-005  2.103071363520677E-005  2.129524744753218E-005  2.156310868559678E-005 
 2.183433920326400E-005  2.210898138085401E-005  2.238707813176587E-005  2.266867290918269E-005 
 2.295380971286134E-005  2.324253309600752E-005  2.353488817223722E-005  2.383092062262596E-005 
 2.413067670284637E-005  2.443420325039584E-005  2.474154769191496E-005  2.505275805059799E-005 
 2.536788295369668E-005  2.568697164011824E-005  2.601007396811912E-005  2.633724042309543E-005 
 2.666852212547135E-005  2.700397083868693E-005  2.734363897728607E-005  2.768757961510646E-005 
 2.803584649357254E-005  2.838849403009259E-005  2.874557732656170E-005  2.910715217797142E-005 
 2.947327508112791E-005  2.984400324347967E-005  3.021939459205630E-005  3.059950778251979E-005 
 3.098440220832948E-005  3.137413801002249E-005  3.176877608461073E-005  3.216837809509625E-005 
 3.257300648010623E-005  3.298272446364902E-005  3.339759606499313E-005  3.381768610867034E-005 
 3.424306023460461E-005  3.467378490836861E-005  3.510992743156891E-005  3.555155595236209E-005 
 3.599873947610304E-005  3.645154787612710E-005  3.691005190466809E-005  3.737432320391326E-005 
 3.784443431719770E-005  3.832045870033929E-005  3.880247073311636E-005  3.929054573088976E-005 
 3.978475995637084E-005  4.028519063153783E-005  4.079191594970186E-005  4.130501508772478E-005 
 4.182456821839090E-005  4.235065652293390E-005  4.288336220372168E-005  4.342276849710067E-005 
 4.396895968640161E-005  4.452202111510912E-005  4.508203920019664E-005  4.564910144562930E-005 
 4.622329645603665E-005  4.680471395055726E-005  4.739344477685760E-005  4.798958092532705E-005 
 4.859321554345163E-005  4.920444295036854E-005  4.982335865160364E-005  5.045005935399448E-005 
 5.108464298080083E-005  5.172720868700546E-005  5.237785687480724E-005  5.303668920930926E-005 
 5.370380863440425E-005  5.437931938885961E-005  5.506332702260508E-005  5.575593841322503E-005 
 5.645726178265833E-005  5.716740671410841E-005  5.788648416916558E-005  5.861460650514514E-005 
 5.935188749264347E-005  6.009844233331483E-005  6.085438767787204E-005  6.161984164431316E-005 
 6.239492383637772E-005  6.317975536223518E-005  6.397445885340814E-005  6.477915848393406E-005 
 6.559397998976731E-005  6.641905068842595E-005  6.725449949888526E-005  6.810045696172157E-005 
 6.895705525950965E-005  6.982442823747624E-005  7.070271142441385E-005  7.159204205385732E-005 
 7.249255908552677E-005  7.340440322704066E-005  7.432771695590118E-005  7.526264454175699E-005 
 7.620933206894548E-005  7.716792745931876E-005  7.813858049535703E-005  7.912144284357185E-005 
 8.011666807820479E-005  8.112441170522359E-005  8.214483118662016E-005  8.317808596501467E-005 
 8.422433748856834E-005  8.528374923621036E-005  8.635648674318166E-005  8.744271762690015E-005 
 8.854261161315157E-005  8.965634056260874E-005  9.078407849768615E-005  9.192600162973046E-005 
 9.308228838655423E-005  9.425311944031596E-005  9.543867773574952E-005  9.663914851875088E-005 
 9.785471936532217E-005  9.908558021088119E-005  1.003319233799395E-004  1.015939436161526E-004 
 1.028718381127504E-004  1.041658065433476E-004  1.054760510931441E-004  1.068027764905168E-004 
 1.081461900390079E-004  1.095065016497179E-004  1.108839238741032E-004  1.122786719371890E-004 
 1.136909637711978E-004  1.151210200496018E-004  1.165690642216041E-004  1.180353225470527E-004 
 1.195200241317938E-004  1.210234009634712E-004  1.225456879477729E-004  1.240871229451377E-004 
 1.256479468079198E-004  1.272284034180234E-004  1.288287397250094E-004  1.304492057846813E-004 
 1.320900547981582E-004  1.337515431514366E-004  1.354339304554519E-004  1.371374795866436E-004 
 1.388624567280288E-004  1.406091314107958E-004  1.423777765564172E-004  1.441686685192953E-004 
 1.459820871299432E-004  1.478183157387077E-004  1.496776412600453E-004  1.515603542173512E-004 
 1.534667487883555E-004  1.553971228510887E-004  1.573517780304250E-004  1.593310197452134E-004 
 1.613351572559984E-004  1.633645037133435E-004  1.654193762067618E-004  1.675000958142604E-004 
 1.696069876525117E-004  1.717403809276518E-004  1.739006089867203E-004  1.760880093697467E-004 
 1.783029238624907E-004  1.805456985498485E-004  1.828166838699278E-004  1.851162346688050E-004 
 1.874447102559715E-004  1.898024744604743E-004  1.921898956877679E-004  1.946073469772761E-004 
 1.970552060606811E-004  1.995338554209453E-004  2.020436823520734E-004  2.045850790196304E-004 
 2.071584425220157E-004  2.097641749525120E-004  2.124026834621136E-004  2.150743803231423E-004 
 2.177796829936689E-004  2.205190141827396E-004  2.232928019164255E-004  2.261014796047039E-004 
 2.289454861091773E-004  2.318252658116486E-004  2.347412686835551E-004  2.376939503562782E-004 
 2.406837721923367E-004  2.437112013574749E-004  2.467767108936598E-004  2.498807797929929E-004 
 2.530238930725549E-004  2.562065418501907E-004  2.594292234212468E-004  2.626924413362754E-004 
 2.659967054797147E-004  2.693425321495597E-004  2.727304441380347E-004  2.761609708132805E-004 
 2.796346482020700E-004  2.831520190735622E-004  2.867136330241117E-004  2.903200465631447E-004 
 2.939718232001138E-004  2.976695335325485E-004  3.014137553352110E-004  3.052050736503755E-004 
 3.090440808792425E-004  3.129313768745019E-004  3.168675690340618E-004  3.208532723959555E-004 
 3.248891097344419E-004  3.289757116573164E-004  3.331137167044436E-004  3.373037714475311E-004 
 3.415465305911571E-004  3.458426570750698E-004  3.501928221777728E-004  3.545977056214138E-004 
 3.590579956779929E-004  3.635743892769060E-004  3.681475921138411E-004  3.727783187610464E-004 
 3.774672927789813E-004  3.822152468293762E-004  3.870229227897112E-004  3.918910718691361E-004 
 3.968204547258494E-004  4.018118415859508E-004  4.068660123637929E-004  4.119837567838421E-004 
 4.171658745040760E-004  4.224131752409320E-004  4.277264788958254E-004  4.331066156832628E-004 
 4.385544262605630E-004  4.440707618592121E-004  4.496564844178709E-004  4.553124667170530E-004 
 4.610395925155002E-004  4.668387566882703E-004  4.727108653665636E-004  4.786568360793083E-004 
 4.846775978965251E-004  4.907740915744977E-004  4.969472697027665E-004  5.031980968529732E-004 
 5.095275497295778E-004  5.159366173224693E-004  5.224263010614990E-004  5.289976149729540E-004 
 5.356515858380024E-004  5.423892533531297E-004  5.492116702925928E-004  5.561199026729190E-004 
 5.631150299194728E-004  5.701981450351175E-004  5.773703547710015E-004  5.846327797994873E-004 
 5.919865548892617E-004  5.994328290826435E-004  6.069727658751247E-004  6.146075433971698E-004 
 6.223383545982993E-004  6.301664074334923E-004  6.380929250519303E-004  6.461191459881177E-004 
 6.542463243554048E-004  6.624757300419475E-004  6.708086489091267E-004  6.792463829924687E-004 
 6.877902507050908E-004  6.964415870437050E-004  7.052017437972169E-004  7.140720897579412E-004 
 7.230540109354811E-004  7.321489107732945E-004  7.413582103679840E-004  7.506833486913494E-004 
 7.601257828152247E-004  7.696869881391530E-004  7.793684586209183E-004  7.891717070099797E-004 
 7.990982650838447E-004  8.091496838874070E-004  8.193275339753045E-004  8.296334056573205E-004 
 8.400689092468720E-004  8.506356753126275E-004  8.613353549332824E-004  8.721696199555459E-004 
 8.831401632553703E-004  8.942486990024652E-004  9.054969629281432E-004  9.168867125965267E-004 
 9.284197276791739E-004  9.400978102331554E-004  9.519227849826291E-004  9.638964996039590E-004 
 9.760208250144146E-004  9.882976556645085E-004  1.000728909834007E-003  1.013316529931665E-003 
 1.026062482798735E-003  1.038968760016282E-003  1.052037378216380E-003  1.065270379397211E-003 
 1.078669831242131E-003  1.092237827442755E-003  1.105976488026091E-003  1.119887959685809E-003 
 1.133974416117657E-003  1.148238058359111E-003  1.162681115133294E-003  1.177305843197209E-003 
 1.192114527694371E-003  1.207109482511861E-003  1.222293050641876E-003  1.237667604547829E-003 
 1.253235546535047E-003  1.268999309126139E-003  1.284961355441080E-003  1.301124179582083E-003 
 1.317490307023304E-003  1.334062295005453E-003  1.350842732935367E-003  1.367834242790612E-003 
 1.385039479529175E-003  1.402461131504297E-003  1.420101920884547E-003  1.437964604079156E-003 
 1.456051972168713E-003  1.474366851341282E-003  1.492912103333995E-003  1.511690625880209E-003 
 1.530705353162274E-003  1.549959256270016E-003  1.569455343664966E-003  1.589196661650445E-003 
 1.609186294847553E-003  1.629427366677146E-003  1.649923039847879E-003  1.670676516850381E-003 
 1.691691040457659E-003  1.712969894231781E-003  1.734516403036941E-003  1.756333933558977E-003 
 1.778425894831421E-003  1.800795738768166E-003  1.823446960702843E-003  1.846383099934961E-003 
 1.869607740282939E-003  1.893124510644084E-003  1.916937085561606E-003  1.941049185798788E-003 
 1.965464578920346E-003  1.990187079881130E-003  2.015220551622211E-003  2.040568905674480E-003 
 2.066236102769832E-003  2.092226153460032E-003  2.118543118743378E-003  2.145191110699236E-003 
 2.172174293130564E-003  2.199496882214519E-003  2.227163147161231E-003  2.255177410880886E-003 
 2.283544050659185E-003  2.312267498841304E-003  2.341352243524463E-003  2.370802829259192E-003 
 2.400623857759428E-003  2.430819988621546E-003  2.461395940052426E-003  2.492356489606690E-003 
 2.523706474933194E-003  2.555450794530926E-003  2.587594408514410E-003  2.620142339388723E-003 
 2.653099672834289E-003  2.686471558501508E-003  2.720263210815413E-003  2.754479909790425E-003 
 2.789127001855373E-003  2.824209900688886E-003  2.859734088065282E-003  2.895705114711111E-003 
 2.932128601172473E-003  2.969010238693227E-003  3.006355790104278E-003  3.044171090724010E-003 
 3.082462049270083E-003  3.121234648782672E-003  3.160494947559331E-003  3.200249080101626E-003 
 3.240503258073645E-003  3.281263771272593E-003  3.322536988611585E-003  3.364329359114798E-003 
 3.406647412925158E-003  3.449497762324665E-003  3.492887102767593E-003  3.536822213926663E-003 
 3.581309960752376E-003  3.626357294545692E-003  3.671971254044162E-003  3.718158966521759E-003 
 3.764927648902529E-003  3.812284608888241E-003  3.860237246100249E-003  3.908793053235673E-003 
 3.957959617238167E-003  4.007744620483387E-003  4.058155841979372E-003  4.109201158582053E-003 
 4.160888546225996E-003  4.213226081170681E-003  4.266221941262425E-003  4.319884407212182E-003 
 4.374221863889443E-003  4.429242801632360E-003  4.484955817574398E-003  4.541369616987644E-003 
 4.598493014643029E-003  4.656334936187663E-003  4.714904419539464E-003  4.774210616299364E-003 
 4.834262793181270E-003  4.895070333459988E-003  4.956642738437413E-003  5.018989628927086E-003 
 5.082120746757492E-003  5.146045956294235E-003  5.210775245981355E-003  5.276318729902070E-003 
 5.342686649359086E-003  5.409889374474845E-003  5.477937405811870E-003  5.546841376013498E-003 
 5.616612051465271E-003  5.687260333977172E-003  5.758797262487077E-003  5.831234014785609E-003 
 5.904581909262684E-003  5.978852406676052E-003  6.054057111942034E-003  6.130207775948830E-003 
 6.207316297392624E-003  6.285394724636762E-003  6.364455257594367E-003  6.444510249634554E-003 
 6.525572209512705E-003  6.607653803324971E-003  6.690767856487379E-003  6.774927355739840E-003 
 6.860145451175333E-003  6.946435458294646E-003  7.033810860086952E-003  7.122285309136538E-003 
 7.211872629756085E-003  7.302586820146700E-003  7.394442054585193E-003  7.487452685638822E-003 
 7.581633246407918E-003  7.676998452796725E-003  7.773563205812755E-003  7.871342593895129E-003 
 7.970351895272173E-003  8.070606580348650E-003  8.172122314123093E-003  8.274914958635428E-003 
 8.379000575445496E-003  8.484395428142685E-003  8.591115984887153E-003  8.699178920983026E-003 
 8.808601121483921E-003  8.919399683831286E-003  9.031591920525909E-003  9.145195361833022E-003 
 9.260227758521476E-003  9.376707084637276E-003  9.494651540312113E-003  9.614079554607139E-003 
 9.735009788392562E-003  9.857461137263461E-003  9.981452734492217E-003  1.010700395401816E-002 
 1.023413441347478E-002  1.036286397725501E-002  1.049321275961509E-002  1.062520112781748E-002 
 1.075884970531323E-002  1.089417937496448E-002  1.103121128230744E-002  1.116996683885645E-002 
 1.131046772544950E-002  1.145273589563598E-002  1.159679357910692E-002  1.174266328516845E-002 
 1.189036780625893E-002  1.203993022151028E-002  1.219137390035416E-002  1.234472250617353E-002 
 1.250000000000000E-002  1.265723064425793E-002  1.281643900655537E-002  1.297764996352282E-002 
 1.314088870470031E-002  1.330618073647324E-002  1.347355188605790E-002  1.364302830553690E-002 
 1.381463647594560E-002  1.398840321140977E-002  1.416435566333533E-002  1.434252132465091E-002 
 1.452292803410354E-002  1.470560398060864E-002  1.489057770765449E-002  1.507787811776226E-002 
 1.526753447700213E-002  1.545957641956607E-002  1.565403395239831E-002  1.585093745988400E-002 
 1.605031770859677E-002  1.625220585210614E-002  1.645663343584527E-002  1.666363240204004E-002 
 1.687323509470005E-002  1.708547426467245E-002  1.730038307475940E-002  1.751799510489967E-002 
 1.773834435741573E-002  1.796146526232657E-002  1.818739268272752E-002  1.841616192023770E-002 
 1.864780872051588E-002  1.888236927884592E-002  1.911988024579225E-002  1.936037873292666E-002 
 1.960390231862712E-002  1.985048905394930E-002  2.010017746857230E-002  2.035300657681889E-002 
 2.060901588375160E-002  2.086824539134554E-002  2.113073560473865E-002  2.139652753856082E-002 
 2.166566272334246E-002  2.193818321200373E-002  2.221413158642549E-002  2.249355096410262E-002 
 2.277648500488138E-002  2.306297791778127E-002  2.335307446790278E-002  2.364681998342213E-002 
 2.394426036267371E-002  2.424544208132194E-002  2.455041219962311E-002  2.485921836977865E-002 
 2.517190884338097E-002  2.548853247895270E-002  2.580913874958110E-002  2.613377775064821E-002 
 2.646250020765844E-002  2.679535748416450E-002  2.713240158979304E-002  2.747368518837129E-002 
 2.781926160615587E-002  2.816918484016511E-002  2.852350956661630E-002  2.888229114946881E-002 
 2.924558564907490E-002  2.961344983093927E-002  2.998594117458873E-002  3.036311788255361E-002 
 3.074503888946188E-002  3.113176387124790E-002  3.152335325447687E-002  3.191986822578659E-002 
 3.232137074144809E-002  3.272792353704627E-002  3.313959013728260E-002  3.355643486590090E-002 
 3.397852285573807E-002  3.440592005890134E-002  3.483869325707314E-002  3.527691007194624E-002 
 3.572063897578957E-002  3.616994930214702E-002  3.662491125667131E-002  3.708559592809336E-002 
 3.755207529933040E-002  3.802442225873332E-002  3.850271061147539E-002  3.898701509108495E-002 
 3.947741137112212E-002  3.997397607700343E-002  4.047678679797454E-002  4.098592209923342E-002 
 4.150146153420689E-002  4.202348565698039E-002  4.255207603488523E-002  4.308731526124347E-002 
 4.362928696827302E-002  4.417807584015592E-002  4.473376762626976E-002  4.529644915458676E-002 
 4.586620834524058E-002  4.644313422426380E-002  4.702731693749893E-002  4.761884776468328E-002 
 4.821781913371217E-002  4.882432463508068E-002  4.943845903650722E-002  5.006031829774162E-002 
 5.068999958555846E-002  5.132760128894014E-002  5.197322303445014E-002  5.262696570179951E-002 
 5.328893143961028E-002  5.395922368137556E-002  5.463794716162196E-002  5.532520793227422E-002 
 5.602111337922581E-002  5.672577223911884E-002  5.743929461633362E-002  5.816179200019336E-002 
 5.889337728238431E-002  5.963416477459504E-002  6.038427022637854E-002  6.114381084323758E-002 
 6.191290530493892E-002  6.269167378405703E-002  6.348023796475102E-002  6.427872106177865E-002 
 6.508724783974813E-002  6.590594463261362E-002  6.673493936341475E-002  6.757436156426459E-002 
 6.842434239659007E-002  6.928501467162530E-002  7.015651287116444E-002  7.103897316857435E-002 
 7.193253345007164E-002  7.283733333626850E-002  7.375351420398772E-002  7.468121920835402E-002 
 7.562059330516188E-002  7.657178327352483E-002  7.753493773881090E-002  7.851020719586459E-002 
 7.949774403252287E-002  8.049770255342581E-002  8.151023900412641E-002  8.253551159550543E-002 
 8.357368052849090E-002  8.462490801909092E-002  8.568935832373979E-002  8.676719776496294E-002 
 8.785859475736627E-002  8.896371983394996E-002  9.008274567275582E-002  9.121584712384796E-002 
 9.236320123663314E-002  9.352498728752608E-002  9.470138680796061E-002  9.589258361275535E-002 
 9.709876382883473E-002  9.832011592431115E-002  9.955683073793475E-002  1.008091015089109E-001 
 1.020771239070956E-001  1.033610960635684E-001  1.046612186015908E-001  1.059776946679548E-001 
 1.073107299647237E-001  1.086605327813750E-001  1.100273140273452E-001  1.114112872649842E-001 
 1.128126687429266E-001  1.142316774298791E-001  1.156685350488361E-001  1.171234661117242E-001 
 1.185966979544816E-001  1.200884607725814E-001  1.215989876569986E-001  1.231285146306323E-001 
 1.246772806851841E-001  1.262455278185007E-001  1.278335010723876E-001  1.294414485708962E-001 
 1.310696215590946E-001  1.327182744423251E-001  1.343876648259544E-001  1.360780535556269E-001 
 1.377897047580201E-001  1.395228858821171E-001  1.412778677409949E-001  1.430549245541390E-001 
 1.448543339902925E-001  1.466763772108402E-001  1.485213389137424E-001  1.503895073780193E-001 
 1.522811745087934E-001  1.541966358829033E-001  1.561361907950852E-001  1.581001423047403E-001 
 1.600887972832880E-001  1.621024664621142E-001  1.641414644811254E-001  1.662061099379099E-001 
 1.682967254375214E-001  1.704136376428846E-001  1.725571773258387E-001  1.747276794188206E-001 
 1.769254830671976E-001  1.791509316822619E-001  1.814043729948866E-001  1.836861591098618E-001 
 1.859966465609106E-001  1.883361963663974E-001  1.907051740857398E-001  1.931039498765253E-001 
 1.955328985523521E-001  1.979923996413929E-001  2.004828374456959E-001  2.030046011012357E-001 
 2.055580846387133E-001  2.081436870451268E-001  2.107618123261131E-001  2.134128695690733E-001 
 2.160972730070958E-001  2.188154420836786E-001  2.215678015182705E-001  2.243547813726332E-001 
 2.271768171180384E-001  2.300343497033134E-001  2.329278256237377E-001  2.358576969908110E-001 
 2.388244216028959E-001  2.418284630167477E-001  2.448702906199502E-001  2.479503797042542E-001 
 2.510692115398458E-001  2.542272734505454E-001  2.574250588899504E-001  2.606630675185430E-001 
 2.639418052817579E-001  2.672617844890418E-001  2.706235238939009E-001  2.740275487749559E-001 
 2.774743910180208E-001  2.809645891992078E-001  2.844986886690841E-001  2.880772416378825E-001 
 2.917008072617840E-001  2.953699517302906E-001  2.990852483546894E-001  3.028472776576372E-001 
 3.066566274638672E-001  3.105138929920356E-001  3.144196769477300E-001  3.183745896176387E-001 
 3.223792489649133E-001  3.264342807257249E-001  3.305403185070350E-001  3.346980038856020E-001 
 3.389079865082238E-001  3.431709241932512E-001  3.474874830333712E-001  3.518583374996832E-001 
 3.562841705470915E-001  3.607656737210130E-001  3.653035472654368E-001  3.698985002323373E-001 
 3.745512505924629E-001  3.792625253475245E-001  3.840330606437867E-001  3.888636018870958E-001 
 3.937549038593496E-001  3.987077308364313E-001  4.037228567076341E-001  4.088010650965772E-001 
 4.139431494836539E-001  4.191499133300121E-001  4.244221702030944E-001  4.297607439037654E-001 
 4.351664685950256E-001  4.406401889323568E-001  4.461827601956989E-001  4.517950484230867E-001 
 4.574779305459755E-001  4.632322945262575E-001  4.690590394950125E-001  4.749590758929976E-001 
 4.809333256129018E-001  4.869827221434003E-001  4.931082107150069E-001  4.993107484477742E-001 
 5.055913045008430E-001  5.119508602238726E-001  5.183904093103852E-001  5.249109579530251E-001 
 5.315135250007849E-001  5.381991421181995E-001  5.449688539465439E-001  5.518237182670661E-001 
 5.587648061662608E-001  5.657932022032346E-001  5.729100045791690E-001  5.801163253089122E-001 
 5.874132903947419E-001  5.948020400022963E-001  6.022837286387352E-001  6.098595253331308E-001 
 6.175306138191274E-001  6.252981927199102E-001  6.331634757354834E-001  6.411276918323213E-001 
 6.491920854353936E-001  6.573579166226057E-001  6.656264613216962E-001  6.739990115095946E-001 
 6.824768754143030E-001  6.910613777193061E-001  6.997538597705519E-001  7.085556797860484E-001 
 7.174682130680781E-001  7.264928522180999E-001  7.356310073543433E-001  7.448841063321374E-001 
 7.542535949670257E-001  7.637409372606672E-001  7.733476156295986E-001  7.830751311368616E-001 
 7.929250037265418E-001  8.028987724612744E-001  8.129979957627127E-001  8.232242516550463E-001 
 8.335791380115651E-001  8.440642728043269E-001  8.546812943569778E-001  8.654318616007330E-001 
 8.763176543335982E-001  8.873403734828367E-001  8.985017413707385E-001  9.098035019837468E-001 
 9.212474212449481E-001  9.328352872900114E-001  9.445689107465836E-001  9.564501250171986E-001 
 9.684807865657622E-001  9.806627752076145E-001  9.929979944032667E-001  1.005488371555816E+000 
 1.018135858312102E+000  1.030942430867664E+000  1.043910090275516E+000  1.057040862758825E+000 
 1.070336800027508E+000  1.083799979598811E+000  1.097432505121936E+000  1.111236506706729E+000 
 1.125214141256523E+000  1.139367592805156E+000  1.153699072858224E+000  1.168210820738647E+000 
 1.182905103936552E+000  1.197784218463586E+000  1.212850489211668E+000  1.228106270316251E+000 
 1.243553945524174E+000
    </PP_RAB>
  </PP_MESH>
  <PP_LOCAL type="real" size="929" columns="4">
-7.377729328031199E+000 -7.377729204049251E+000 -7.377729087140538E+000 -7.377728974253339E+000 
-7.377728865411426E+000 -7.377728757023574E+000 -7.377728640536369E+000 -7.377728524306489E+000 
-7.377728403281424E+000 -7.377728276755567E+000 -7.377728150936548E+000 -7.377728023945895E+000 
-7.377727889620386E+000 -7.377727750854220E+000 -7.377727612717231E+000 -7.377727468530951E+000 
-7.377727317966587E+000 -7.377727169413726E+000 -7.377727017096131E+000 -7.377726855408632E+000 
-7.377726692654655E+000 -7.377726526468156E+000 -7.377726353512728E+000 -7.377726178176170E+000 
-7.377725999199813E+000 -7.377725814251034E+000 -7.377725625429762E+000 -7.377725430929619E+000 
-7.377725230983668E+000 -7.377725028635248E+000 -7.377724820184687E+000 -7.377724604092589E+000 
-7.377724383260798E+000 -7.377724159247638E+000 -7.377723928605857E+000 -7.377723689879258E+000 
-7.377723446834484E+000 -7.377723200448660E+000 -7.377722943553826E+000 -7.377722679578426E+000 
-7.377722412821139E+000 -7.377722138342798E+000 -7.377721855606838E+000 -7.377721564892235E+000 
-7.377721267369598E+000 -7.377720964203184E+000 -7.377720653164609E+000 -7.377720332934960E+000 
-7.377720005286410E+000 -7.377719667091784E+000 -7.377719321830347E+000 -7.377718970452960E+000 
-7.377718606856769E+000 -7.377718234658278E+000 -7.377717853975096E+000 -7.377717463012845E+000 
-7.377717062982971E+000 -7.377716652628892E+000 -7.377716231103704E+000 -7.377715797473311E+000 
-7.377715354304978E+000 -7.377714902788891E+000 -7.377714437597465E+000 -7.377713958453835E+000 
-7.377713469379282E+000 -7.377712968454971E+000 -7.377712453172151E+000 -7.377711924755551E+000 
-7.377711384664923E+000 -7.377710831145404E+000 -7.377710261684528E+000 -7.377709678415492E+000 
-7.377709081076966E+000 -7.377708468031633E+000 -7.377707839809534E+000 -7.377707195166543E+000 
-7.377706534368593E+000 -7.377705857593050E+000 -7.377705162865237E+000 -7.377704450225947E+000 
-7.377703720354574E+000 -7.377702972106498E+000 -7.377702204252985E+000 -7.377701417245914E+000 
-7.377700610787352E+000 -7.377699783328493E+000 -7.377698934375963E+000 -7.377698064108429E+000 
-7.377697173023390E+000 -7.377696259440775E+000 -7.377695321011220E+000 -7.377694359536224E+000 
-7.377693374665979E+000 -7.377692363484714E+000 -7.377691327013761E+000 -7.377690264876930E+000 
-7.377689175793325E+000 -7.377688059172645E+000 -7.377686913641451E+000 -7.377685739203523E+000 
-7.377684535555134E+000 -7.377683301152151E+000 -7.377682035099539E+000 -7.377680737704130E+000 
-7.377679407663416E+000 -7.377678043217712E+000 -7.377676643904127E+000 -7.377675209707709E+000 
-7.377673739507904E+000 -7.377672231547698E+000 -7.377670685632328E+000 -7.377669100706957E+000 
-7.377667475345219E+000 -7.377665808706907E+000 -7.377664100102862E+000 -7.377662348698611E+000 
-7.377660552397313E+000 -7.377658710165209E+000 -7.377656821799931E+000 -7.377654885747176E+000 
-7.377652900635386E+000 -7.377650865191033E+000 -7.377648777956463E+000 -7.377646638064443E+000 
-7.377644444020156E+000 -7.377642194193532E+000 -7.377639887496212E+000 -7.377637522564421E+000 
-7.377635097523544E+000 -7.377632610916962E+000 -7.377630061640061E+000 -7.377627447807798E+000 
-7.377624767432424E+000 -7.377622019307925E+000 -7.377619201808100E+000 -7.377616312664092E+000 
-7.377613350390649E+000 -7.377610313238740E+000 -7.377607198983626E+000 -7.377604005791867E+000 
-7.377600731715379E+000 -7.377597374952809E+000 -7.377593933105898E+000 -7.377590403703469E+000 
-7.377586785062668E+000 -7.377583074973126E+000 -7.377579270659249E+000 -7.377575369866539E+000 
-7.377571370484612E+000 -7.377567269693514E+000 -7.377563064960563E+000 -7.377558753839713E+000 
-7.377554333241784E+000 -7.377549800575557E+000 -7.377545153283146E+000 -7.377540388223063E+000 
-7.377535502329371E+000 -7.377530492635376E+000 -7.377525355995604E+000 -7.377520089066536E+000 
-7.377514688660217E+000 -7.377509151566489E+000 -7.377503474098718E+000 -7.377497652609422E+000 
-7.377491683576405E+000 -7.377485563270042E+000 -7.377479287853107E+000 -7.377472853331261E+000 
-7.377466255656410E+000 -7.377459490750178E+000 -7.377452554432406E+000 -7.377445442143834E+000 
-7.377438149502717E+000 -7.377430672077621E+000 -7.377423004974660E+000 -7.377415143404047E+000 
-7.377407082583174E+000 -7.377398817353749E+000 -7.377390342435060E+000 -7.377381652612222E+000 
-7.377372742359477E+000 -7.377363606165062E+000 -7.377354238284037E+000 -7.377344632668968E+000 
-7.377334783337089E+000 -7.377324684219156E+000 -7.377314328925602E+000 -7.377303710828166E+000 
-7.377292823303788E+000 -7.377281659544317E+000 -7.377270212516949E+000 -7.377258474996294E+000 
-7.377246439529646E+000 -7.377234098588260E+000 -7.377221444442262E+000 -7.377208469047265E+000 
-7.377195164252381E+000 -7.377181521736144E+000 -7.377167532823618E+000 -7.377153188662747E+000 
-7.377138480277657E+000 -7.377123398347124E+000 -7.377107933397140E+000 -7.377092075680030E+000 
-7.377075815086055E+000 -7.377059141409699E+000 -7.377042044168433E+000 -7.377024512462300E+000 
-7.377006535246105E+000 -7.376988101237245E+000 -7.376969198670580E+000 -7.376949815620019E+000 
-7.376929939857274E+000 -7.376909558758207E+000 -7.376888659471780E+000 -7.376867228720887E+000 
-7.376845252911748E+000 -7.376822718171111E+000 -7.376799610204737E+000 -7.376775914330833E+000 
-7.376751615511663E+000 -7.376726698338745E+000 -7.376701147005420E+000 -7.376674945304099E+000 
-7.376648076539319E+000 -7.376620523637449E+000 -7.376592269124897E+000 -7.376563294963149E+000 
-7.376533582725942E+000 -7.376503113546979E+000 -7.376471867974804E+000 -7.376439826073565E+000 
-7.376406967450345E+000 -7.376373271123120E+000 -7.376338715576360E+000 -7.376303278771205E+000 
-7.376266938021975E+000 -7.376229670120933E+000 -7.376191451229122E+000 -7.376152256839755E+000 
-7.376112061916516E+000 -7.376070840678008E+000 -7.376028566636402E+000 -7.375985212728834E+000 
-7.375940751117690E+000 -7.375895153186819E+000 -7.375848389636318E+000 -7.375800430389560E+000 
-7.375751244570208E+000 -7.375700800477084E+000 -7.375649065556076E+000 -7.375596006433069E+000 
-7.375541588849770E+000 -7.375485777628253E+000 -7.375428536644362E+000 -7.375369828835460E+000 
-7.375309616166868E+000 -7.375247859559670E+000 -7.375184518919472E+000 -7.375119553092729E+000 
-7.375052919809886E+000 -7.374984575682593E+000 -7.374914476152853E+000 -7.374842575481614E+000 
-7.374768826707152E+000 -7.374693181590914E+000 -7.374615590613779E+000 -7.374536002919328E+000 
-7.374454366281260E+000 -7.374370627062342E+000 -7.374284730174465E+000 -7.374196619046167E+000 
-7.374106235564140E+000 -7.374013520036456E+000 -7.373918411159634E+000 -7.373820845947765E+000 
-7.373720759695034E+000 -7.373618085939750E+000 -7.373512756387649E+000 -7.373404700872836E+000 
-7.373293847305225E+000 -7.373180121605261E+000 -7.373063447637424E+000 -7.372943747184984E+000 
-7.372820939865313E+000 -7.372694943031883E+000 -7.372565671754264E+000 -7.372433038740221E+000 
-7.372296954259165E+000 -7.372157326060025E+000 -7.372014059299548E+000 -7.371867056473809E+000 
-7.371716217317276E+000 -7.371561438736993E+000 -7.371402614719517E+000 -7.371239636234914E+000 
-7.371072391146214E+000 -7.370900764103945E+000 -7.370724636465564E+000 -7.370543886184877E+000 
-7.370358387688944E+000 -7.370168011782233E+000 -7.369972625526545E+000 -7.369772092115272E+000 
-7.369566270761267E+000 -7.369355016561063E+000 -7.369138180361724E+000 -7.368915608624894E+000 
-7.368687143273958E+000 -7.368452621557522E+000 -7.368211875895064E+000 -7.367964733699830E+000 
-7.367711017230565E+000 -7.367450543414894E+000 -7.367183123660998E+000 -7.366908563678296E+000 
-7.366626663279392E+000 -7.366337216190455E+000 -7.366040009828922E+000 -7.365734825085648E+000 
-7.365421436111995E+000 -7.365099610071575E+000 -7.364769106901120E+000 -7.364429679059424E+000 
-7.364081071256187E+000 -7.363723020180453E+000 -7.363355254214049E+000 -7.362977493132512E+000 
-7.362589447792763E+000 -7.362190819813371E+000 -7.361781301238269E+000 -7.361360574178113E+000 
-7.360928310448749E+000 -7.360484171196124E+000 -7.360027806491176E+000 -7.359558854914500E+000 
-7.359076943131462E+000 -7.358581685436040E+000 -7.358072683282426E+000 -7.357549524797028E+000 
-7.357011784261259E+000 -7.356459021581849E+000 -7.355890781734972E+000 -7.355306594180275E+000 
-7.354705972255786E+000 -7.354088412543408E+000 -7.353453394205886E+000 -7.352800378296587E+000 
-7.352128807034802E+000 -7.351438103050898E+000 -7.350727668599220E+000 -7.349996884732150E+000 
-7.349245110436887E+000 -7.348471681736809E+000 -7.347675910750290E+000 -7.346857084705460E+000 
-7.346014464910037E+000 -7.345147285677184E+000 -7.344254753200468E+000 -7.343336044374984E+000 
-7.342390305569323E+000 -7.341416651338252E+000 -7.340414163075955E+000 -7.339381887609352E+000 
-7.338318835726293E+000 -7.337223980634658E+000 -7.336096256351711E+000 -7.334934556021814E+000 
-7.333737730152681E+000 -7.332504584772903E+000 -7.331233879506390E+000 -7.329924325555895E+000 
-7.328574583596295E+000 -7.327183261571308E+000 -7.325748912389461E+000 -7.324270031515993E+000 
-7.322745054455115E+000 -7.321172354118688E+000 -7.319550238076414E+000 -7.317876945682572E+000 
-7.316150645074218E+000 -7.314369430035709E+000 -7.312531316724397E+000 -7.310634240251623E+000 
-7.308676051114148E+000 -7.306654511469740E+000 -7.304567291251385E+000 -7.302411964114677E+000 
-7.300186003211326E+000 -7.297886776783893E+000 -7.295511543576182E+000 -7.293057448051673E+000 
-7.290521515414156E+000 -7.287900646426434E+000 -7.285191612020231E+000 -7.282391047689511E+000 
-7.279495447663783E+000 -7.276501158855940E+000 -7.273404374578091E+000 -7.270201128019981E+000 
-7.266887285487178E+000 -7.263458539393100E+000 -7.259910401000978E+000 -7.256238192912991E+000 
-7.252437041302475E+000 -7.248501867890472E+000 -7.244427381659978E+000 -7.240208070310316E+000 
-7.235838191453420E+000 -7.231311763550405E+000 -7.226622556593431E+000 -7.221764082534312E+000 
-7.216729585468382E+000 -7.211512031580583E+000 -7.206104098857788E+000 -7.200498166584351E+000 
-7.194686304633014E+000 -7.188660262560283E+000 -7.182411458532201E+000 -7.175930968098379E+000 
-7.169209512834719E+000 -7.162237448886403E+000 -7.155004755439061E+000 -7.147501023153123E+000 
-7.139715442599574E+000 -7.131636792741284E+000 -7.123253429504286E+000 -7.114553274492295E+000 
-7.105523803907213E+000 -7.096152037733283E+000 -7.086424529254632E+000 -7.076327354987973E+000 
-7.065846105110493E+000 -7.054965874469564E+000 -7.043671254278234E+000 -7.031946324602884E+000 
-7.019774647752307E+000 -7.007139262696164E+000 -6.994022680646061E+000 -6.980406881941648E+000 
-6.966273314396283E+000 -6.951602893260389E+000 -6.936376002986274E+000 -6.920572500978047E+000 
-6.904171723517392E+000 -6.887152494085981E+000 -6.869493134302241E+000 -6.851171477703288E+000 
-6.832164886627986E+000 -6.812450272455649E+000 -6.792004119472350E+000 -6.770802512653974E+000 
-6.748821169660506E+000 -6.726035477353122E+000 -6.702420533151547E+000 -6.677951191566543E+000 
-6.652602116245664E+000 -6.626347837880943E+000 -6.599162818339810E+000 -6.571021521373771E+000 
-6.541898490274241E+000 -6.511768432842584E+000 -6.480606314036097E+000 -6.448387456648629E+000 
-6.415087650380086E+000 -6.380683269630024E+000 -6.345151400335030E+000 -6.308469976152288E+000 
-6.270617924250933E+000 -6.231575320946857E+000 -6.191323557371748E+000 -6.149845515311956E+000 
-6.107125753291079E+000 -6.063150702901313E+000 -6.017908875307386E+000 -5.971391077742059E+000 
-5.923590639711867E+000 -5.874503648502700E+000 -5.824129193432779E+000 -5.772469618144180E+000 
-5.719530780042869E+000 -5.665322315801631E+000 -5.609857911616351E+000 -5.553155576661982E+000 
-5.495237917924856E+000 -5.436132414292747E+000 -5.375871687456798E+000 -5.314493766827164E+000 
-5.252042345282611E+000 -5.188567022155745E+000 -5.124123529409077E+000 -5.058773936483986E+000 
-4.992586828792174E+000 -4.925637454278626E+000 -4.858007831924649E+000 -4.789786815465971E+000 
-4.721070104992853E+000 -4.651960198479177E+000 -4.582566274659635E+000 -4.513003998064147E+000 
-4.443395236425612E+000 -4.373867680126535E+000 -4.304554352881064E+000 -4.235593002465935E+000 
-4.167125360079805E+000 -4.099296256867913E+000 -4.032252586340481E+000 -3.966142101939240E+000 
-3.901112039933854E+000 -3.837307559265657E+000 -3.774869992035983E+000 -3.713934901199358E+000 
-3.654629945849480E+000 -3.597072559487755E+000 -3.541367453077488E+000 -3.487603962806240E+000 
-3.435853272628185E+000 -3.386165554221621E+000 -3.338567082423920E+000 -3.293057403001357E+000 
-3.249606652371678E+000 -3.208153156294132E+000 -3.168601467365302E+000 -3.130821040305614E+000 
-3.094645790524559E+000 -3.059874836523900E+000 -3.026274791717879E+000 -2.993584047824296E+000 
-2.961519581991280E+000 -2.929786925449812E+000 -2.898094055262153E+000 -2.866170115655029E+000 
-2.833790044951863E+000 -2.800806382310915E+000 -2.767189760036555E+000 -2.733079857568920E+000 
-2.698848908510105E+000 -2.665020787899386E+000 -2.631731188759199E+000 -2.598988800440572E+000 
-2.566800430189419E+000 -2.535170445266825E+000 -2.504069871972856E+000 -2.473331951076462E+000 
-2.442778836669394E+000 -2.412460511566769E+000 -2.382492445769504E+000 -2.352896649282418E+000 
-2.323668497702856E+000 -2.294803424073477E+000 -2.266296918168641E+000 -2.238144525789600E+000 
-2.210341848068482E+000 -2.182884540781010E+000 -2.155768313667784E+000 -2.128988929763707E+000 
-2.102542204736190E+000 -2.076424006231169E+000 -2.050630253227304E+000 -2.025156915398629E+000 
-2.000000012484532E+000 -1.975155613667904E+000 -1.950619836960951E+000 -1.926388848598527E+000 
-1.902458862439244E+000 -1.878826139373710E+000 -1.855486986740320E+000 -1.832437757748361E+000 
-1.809674850908051E+000 -1.787194709467819E+000 -1.764993820858554E+000 -1.743068716144731E+000 
-1.721415969482415E+000 -1.700032197583955E+000 -1.678914059189233E+000 -1.658058254543669E+000 
-1.637461524882613E+000 -1.617120651922075E+000 -1.597032457355925E+000 -1.577193802359288E+000 
-1.557601587098128E+000 -1.538252750244750E+000 -1.519144268499611E+000 -1.500273156118961E+000 
-1.481636464448237E+000 -1.463231281461516E+000 -1.445054731306356E+000 -1.427103973854609E+000 
-1.409376204258826E+000 -1.391868652513856E+000 -1.374578583024195E+000 -1.357503294176713E+000 
-1.340640117918546E+000 -1.323986419340338E+000 -1.307539596264758E+000 -1.291297078839910E+000 
-1.275256329137917E+000 -1.259414840758589E+000 -1.243770138437861E+000 -1.228319777661141E+000 
-1.213061344281422E+000 -1.197992454142089E+000 -1.183110752704425E+000 -1.168413914679654E+000 
-1.153899643665547E+000 -1.139565671787362E+000 -1.125409759343224E+000 -1.111429694453911E+000 
-1.097623292716758E+000 -1.083988396863865E+000 -1.070522876424528E+000 -1.057224627391641E+000 
-1.044091571892343E+000 -1.031121657862822E+000 -1.018312858727044E+000 -1.005663173079653E+000 
-9.931706243730050E-001 -9.808332606082704E-001 -9.686491540307223E-001 -9.566164008259376E-001 
-9.447331208317060E-001 -9.329974572430840E-001 -9.214075763093366E-001 -9.099616670639787E-001 
-8.986579410461185E-001 -8.874946320145987E-001 -8.764699956772930E-001 -8.655823094202479E-001 
-8.548298720397960E-001 -8.442110034773356E-001 -8.337240445565604E-001 -8.233673567229084E-001 
-8.131393217851745E-001 -8.030383416592639E-001 -7.930628381141234E-001 -7.832112525201091E-001 
-7.734820456000795E-001 -7.638736971836042E-001 -7.543847059647437E-001 -7.450135892638703E-001 
-7.357588827939623E-001 -7.266191404316986E-001 -7.175929339935578E-001 -7.086788530168977E-001 
-6.998755045458456E-001 -6.911815129215417E-001 -6.825955195760893E-001 -6.741161828294959E-001 
-6.657421776886795E-001 -6.574721956476883E-001 -6.493049444883936E-001 -6.412391480809908E-001 
-6.332735461839990E-001 -6.254068942436527E-001 -6.176379631929354E-001 -6.099655392507882E-001 
-6.023884237221971E-001 -5.949054328001018E-001 -5.875153973700532E-001 -5.802171628185440E-001 
-5.730095888457538E-001 -5.658915492832104E-001 -5.588619319166661E-001 -5.519196383141232E-001 
-5.450635836586604E-001 -5.382926965855472E-001 -5.316059190229018E-001 -5.250022060350642E-001 
-5.184805256679361E-001 -5.120398587955338E-001 -5.056791989671033E-001 -4.993975522544649E-001 
-4.931939370993634E-001 -4.870673841607124E-001 -4.810169361619402E-001 -4.750416477387163E-001 
-4.691405852873572E-001 -4.633128268143550E-001 -4.575574617874228E-001 -4.518735909884269E-001 
-4.462603263684891E-001 -4.407167909054881E-001 -4.352421184641182E-001 -4.298354536585273E-001 
-4.244959517175315E-001 -4.192227783523080E-001 -4.140151096264353E-001 -4.088721318281336E-001 
-4.037930413445105E-001 -3.987770445376542E-001 -3.938233576224099E-001 -3.889312065456932E-001 
-3.840998268672333E-001 -3.793284636416384E-001 -3.746163713017379E-001 -3.699628135431471E-001 
-3.653670632100240E-001 -3.608284021820307E-001 -3.563461212624800E-001 -3.519195200676930E-001 
-3.475479069175788E-001 -3.432305987274424E-001 -3.389669209010480E-001 -3.347562072249384E-001 
-3.305977997640266E-001 -3.264910487584607E-001 -3.224353125217571E-001 -3.184299573402122E-001 
-3.144743573735701E-001 -3.105678945569491E-001 -3.067099585040126E-001 -3.028999464113631E-001 
-2.991372629641598E-001 -2.954213202429267E-001 -2.917515376315494E-001 -2.881273417264379E-001 
-2.845481662468341E-001 -2.810134519462605E-001 -2.775226465250765E-001 -2.740752045441433E-001 
-2.706705873395701E-001 -2.673082629385274E-001 -2.639877059761215E-001 -2.607083976133008E-001 
-2.574698254557933E-001 -2.542714834740551E-001 -2.511128719242130E-001 -2.479934972699973E-001 
-2.449128721056419E-001 -2.418705150797459E-001 -2.388659508200829E-001 -2.358987098593405E-001 
-2.329683285617883E-001 -2.300743490508511E-001 -2.272163191375853E-001 -2.243937922500431E-001 
-2.216063273635094E-001 -2.188534889316114E-001 -2.161348468182764E-001 -2.134499762305376E-001 
-2.107984576521753E-001 -2.081798767781758E-001 -2.055938244500105E-001 -2.030398965917119E-001 
-2.005176941467469E-001 -1.980268230156729E-001 -1.955668939945638E-001 -1.931375227142064E-001 
-1.907383295800440E-001 -1.883689397128707E-001 -1.860289828902653E-001 -1.837180934886917E-001 
-1.814359104287126E-001 -1.791820771091540E-001 -1.769562414706520E-001 -1.747580555057389E-001 
-1.725871758566294E-001 -1.704432633180804E-001 -1.683259828989216E-001 -1.662350038500734E-001 
-1.641699992807359E-001 -1.621306466177274E-001 -1.601166272073703E-001 -1.581276263540064E-001 
-1.561633332732981E-001 -1.542234410341838E-001 -1.523076423594704E-001 -1.504156465887697E-001 
-1.485471535571934E-001 -1.467018731434328E-001 -1.448795132072519E-001 -1.430797909898416E-001 
-1.413024252808719E-001 -1.395471383633342E-001 -1.378136559700769E-001 -1.361017072409490E-001 
-1.344110246804784E-001 -1.327413441160757E-001 -1.310924046567552E-001 -1.294639486523722E-001 
-1.278557216533626E-001 -1.262674723709857E-001 -1.246989526380600E-001 -1.231499173701859E-001 
-1.216201245274515E-001 -1.201093350766126E-001 -1.186173129537435E-001 -1.171438250273525E-001 
-1.156886410619528E-001 -1.142515336820896E-001 -1.128322783368107E-001 -1.114306532645808E-001 
-1.100464394586311E-001 -1.086794206327379E-001 -1.073293831874287E-001 -1.059961161766059E-001 
-1.046794112745863E-001 -1.033790627435504E-001 -1.020948674013944E-001 -1.008266245899836E-001 
-9.957413614379838E-002 -9.833720635897061E-002 -9.711564196270520E-002 -9.590925208307959E-002 
-9.471784821922101E-002 -9.354124421185166E-002 -9.237925621420139E-002 -9.123170266328179E-002 
-9.009840425151552E-002 -8.897918389872032E-002 -8.787386672443886E-002 -8.678228002061374E-002 
-8.570425322460189E-002 -8.463961789252288E-002 -8.358820767294037E-002 -8.254985828086829E-002 
-8.152440747210145E-002 -8.051169501786495E-002 -7.951156267977717E-002 -7.852385418512577E-002 
-7.754841520244884E-002 -7.658509331742061E-002 -7.563373800903697E-002 -7.469420062609515E-002 
-7.376633436396778E-002 -7.284999424166357E-002 -7.194503707917396E-002 -7.105132147510142E-002 
-7.016870778456427E-002 -6.929705809737793E-002 -6.843623621650526E-002 -6.758610763677592E-002 
-6.674653952386991E-002 -6.591740069356132E-002 -6.509856159122117E-002 -6.428989427157372E-002 
-6.349127237870489E-002 -6.270257112631933E-002 -6.192366727824154E-002 -6.115443912916076E-002 
-6.039476648561359E-002 -5.964453064720378E-002 -5.890361438805546E-002 -5.817190193849550E-002 
-5.744927896696517E-002 -5.673563256215492E-002 -5.603085121536193E-002 -5.533482480306709E-002 
-5.464744456972723E-002 -5.396860311078254E-002 -5.329819435587392E-002 -5.263611355226930E-002 
-5.198225724849635E-002 -5.133652327817710E-002 -5.069881074406512E-002 -5.006902000227943E-002 
-4.944705264673523E-002 -4.883281149376795E-002 -4.822620056694765E-002 -4.762712508208296E-002 
-4.703549143241050E-002 -4.645120717396872E-002 -4.587418101115367E-002 -4.530432278245328E-002 
-4.474154344636008E-002 -4.418575506745777E-002 -4.363687080268126E-002 -4.309480488774766E-002 
-4.255947262375477E-002 -4.203079036394733E-002 -4.150867550064655E-002 -4.099304645234274E-002 
-4.048382265094819E-002 -3.998092452920773E-002 -3.948427350826687E-002 -3.899379198539306E-002 
-3.850940332185037E-002 -3.803103183092479E-002 -3.755860276609745E-002 -3.709204230936594E-002 
-3.663127755970964E-002 -3.617623652169889E-002 -3.572684809424583E-002 -3.528304205949429E-002 
-3.484474907184850E-002 -3.441190064713739E-002 -3.398442915191387E-002 -3.356226779288727E-002 
-3.314535060648622E-002 -3.273361244855223E-002 -3.232698898416036E-002 -3.192541667756700E-002 
-3.152883278228232E-002 -3.113717533126573E-002 -3.075038312724377E-002 -3.036839573314759E-002 
-2.999115346266964E-002 -2.961859737093776E-002 -2.925066924530454E-002 -2.888731159625190E-002 
-2.852846764840787E-002 -2.817408133167547E-002 -2.782409727247180E-002 -2.747846078507548E-002 
-2.713711786308224E-002 -2.680001517096600E-002 -2.646710003574523E-002 -2.613832043875281E-002 
-2.581362500750775E-002 -2.549296300768837E-002 -2.517628433520479E-002 -2.486353950837008E-002 
-2.455467966016886E-002 -2.424965653062139E-002 -2.394842245924317E-002 -2.365093037759766E-002 
-2.335713380194180E-002 -2.306698682596299E-002 -2.278044411360584E-002 -2.249746089198866E-002 
-2.221799294440729E-002 -2.194199660342631E-002 -2.166942874405599E-002 -2.140024677701368E-002 
-2.113440864206946E-002 -2.087187280147385E-002 -2.061259823346759E-002 -2.035654442587201E-002 
-2.010367136975863E-002
  </PP_LOCAL>
  <PP_NONLOCAL>
    <PP_BETA.1 type="real" size="929" columns="4" index="1" label="1S" angular_momentum="0" cutoff_radius_index="571"
cutoff_radius="9.000000000000000E-001" ultrasoft_cutoff_radius="1.000000000000000E+000">
-7.917680687808648E-002 -8.017238885879330E-002 -8.118048074036821E-002 -8.220123938204082E-002 
-8.317246933678746E-002 -8.453100732340602E-002 -8.533179976945604E-002 -8.653077764308392E-002 
-8.746209240469760E-002 -8.886893742689317E-002 -8.967095277308168E-002 -9.095273280281901E-002 
-9.192894706837151E-002 -9.322620929004088E-002 -9.439418707300717E-002 -9.581378657059325E-002 
-9.674660729781692E-002 -9.769223732175369E-002 -9.926288669847416E-002 -1.003831678153446E-001 
-1.013606947011318E-001 -1.030946459163093E-001 -1.043142199584750E-001 -1.055932359417788E-001 
-1.069417441852014E-001 -1.082392468526496E-001 -1.095984027369514E-001 -1.109801010424860E-001 
-1.121335298143578E-001 -1.136812901339805E-001 -1.153091347711506E-001 -1.166789306331619E-001 
-1.180804284897228E-001 -1.196490850165990E-001 -1.211243238637927E-001 -1.225958555474165E-001 
-1.243382906602086E-001 -1.257968986006013E-001 -1.271603948917814E-001 -1.287300637434079E-001 
-1.305058449824195E-001 -1.322459720240090E-001 -1.338002743138063E-001 -1.355862969943971E-001 
-1.370037385707690E-001 -1.389869589754440E-001 -1.406239518781085E-001 -1.422890078431820E-001 
-1.440517205895553E-001 -1.459452378632236E-001 -1.477840968391462E-001 -1.498462997092460E-001 
-1.516394480927055E-001 -1.534345968567727E-001 -1.555108761204913E-001 -1.572566919462659E-001 
-1.593462232095888E-001 -1.615080423454245E-001 -1.633354023398645E-001 -1.655157909926288E-001 
-1.675714717397732E-001 -1.697637633493159E-001 -1.716090082320996E-001 -1.739434019328598E-001 
-1.761955348365092E-001 -1.783302513895215E-001 -1.805712579630203E-001 -1.829144535517138E-001 
-1.850321683689984E-001 -1.875960162487047E-001 -1.897657894424292E-001 -1.922063226707280E-001 
-1.946515979291661E-001 -1.971158378122020E-001 -1.995030241247164E-001 -2.019161086374623E-001 
-2.046198322227646E-001 -2.070644307503215E-001 -2.097771527269572E-001 -2.123905760348137E-001 
-2.149827064474259E-001 -2.177767151039163E-001 -2.204719058670399E-001 -2.232465725821093E-001 
-2.259289496659953E-001 -2.288764803630308E-001 -2.316801809927433E-001 -2.345601578408427E-001 
-2.374941749048922E-001 -2.405046382491491E-001 -2.435346536230654E-001 -2.465399595324769E-001 
-2.496755896193363E-001 -2.528561990783658E-001 -2.560113488457247E-001 -2.591903202336070E-001 
-2.625701288549536E-001 -2.657936401022525E-001 -2.690073272016988E-001 -2.724297299878415E-001 
-2.758452883920128E-001 -2.793036932237385E-001 -2.827508667320586E-001 -2.863169623356967E-001 
-2.899220339218758E-001 -2.935531070791697E-001 -2.973567537219637E-001 -3.009021986876093E-001 
-3.048148844234007E-001 -3.085486088744887E-001 -3.124310938841219E-001 -3.162749711584354E-001 
-3.202528156661586E-001 -3.243205703292986E-001 -3.283048425591275E-001 -3.324096479792047E-001 
-3.366580072043561E-001 -3.408526320355989E-001 -3.450530828282794E-001 -3.492820262217720E-001 
-3.537013125347244E-001 -3.581745554293008E-001 -3.626423033932014E-001 -3.671478050367369E-001 
-3.718442243351774E-001 -3.764549316201951E-001 -3.811103717802666E-001 -3.859074309150401E-001 
-3.906258417560622E-001 -3.956116177911895E-001 -4.005378598326317E-001 -4.055556225466148E-001 
-4.105131139183555E-001 -4.156569905802314E-001 -4.208300604559483E-001 -4.260779763713600E-001 
-4.313978981676172E-001 -4.368114346718741E-001 -4.421636388155008E-001 -4.477726434142397E-001 
-4.533003337536741E-001 -4.589319950261910E-001 -4.646412322535696E-001 -4.704027632637988E-001 
-4.762477465046899E-001 -4.821514367041004E-001 -4.882085520588504E-001 -4.941456714928592E-001 
-5.003593268772732E-001 -5.065457429059563E-001 -5.128539870335516E-001 -5.192239362120432E-001 
-5.256527079660600E-001 -5.321624833822796E-001 -5.387265584774354E-001 -5.453869034993488E-001 
-5.521878548716757E-001 -5.590067786674950E-001 -5.659326874197887E-001 -5.729440385143931E-001 
-5.799734740998872E-001 -5.871423135031080E-001 -5.943980117544356E-001 -6.017857774917985E-001 
-6.091923741346221E-001 -6.166962251533050E-001 -6.242744628737427E-001 -6.319600634237901E-001 
-6.397079285126352E-001 -6.475975386924802E-001 -6.555982412643004E-001 -6.636186977075198E-001 
-6.717515281274444E-001 -6.800139489646710E-001 -6.883757751816830E-001 -6.967949851448765E-001 
-7.053412995187358E-001 -7.139632716446869E-001 -7.226459185079221E-001 -7.315645256944379E-001 
-7.403911528704015E-001 -7.495361187457803E-001 -7.585940857536428E-001 -7.678574524523611E-001 
-7.772051331902645E-001 -7.866467120599765E-001 -7.962181185917530E-001 -8.058740802222673E-001 
-8.156774831298463E-001 -8.255362550619196E-001 -8.355230023725824E-001 -8.456283540073883E-001 
-8.558347029933486E-001 -8.661266727187638E-001 -8.766367059368889E-001 -8.871465102706964E-001 
-8.978448685262777E-001 -9.086359481755011E-001 -9.195478624473736E-001 -9.305271520707095E-001 
-9.416921437712347E-001 -9.529682472821719E-001 -9.643088116007164E-001 -9.758092684497512E-001 
-9.874228861163772E-001 -9.991426199287616E-001 -1.011006430303809E+000 -1.022993475313740E+000 
-1.035083673963499E+000 -1.047308486163502E+000 -1.059651188373181E+000 -1.072118229909847E+000 
-1.084746698822585E+000 -1.097446387252546E+000 -1.110280905560359E+000 -1.123256995681430E+000 
-1.136336892107607E+000 -1.149575058995936E+000 -1.162908817786501E+000 -1.176409077048561E+000 
-1.189957853185916E+000 -1.203709234806269E+000 -1.217565423114166E+000 -1.231515812996491E+000 
-1.245622888218634E+000 -1.259824874721687E+000 -1.274180811084079E+000 -1.288631570518390E+000 
-1.303213660285820E+000 -1.317927874386157E+000 -1.332800469471039E+000 -1.347712610008330E+000 
-1.362803091551598E+000 -1.377980123688587E+000 -1.393284344004456E+000 -1.408710428279392E+000 
-1.424251487096200E+000 -1.439910457037143E+000 -1.455646845438935E+000 -1.471512925551679E+000 
-1.487494256355291E+000 -1.503569476526764E+000 -1.519741234629691E+000 -1.536014442716464E+000 
-1.552409974426439E+000 -1.568860007048329E+000 -1.585418368972711E+000 -1.602080856055238E+000 
-1.618820068601508E+000 -1.635609329914189E+000 -1.652503355880015E+000 -1.669473055472707E+000 
-1.686482803020311E+000 -1.703588231013612E+000 -1.720742147514500E+000 -1.737931849254949E+000 
-1.755207902642098E+000 -1.772501227022019E+000 -1.789826985481568E+000 -1.807173426950101E+000 
-1.824568575936496E+000 -1.841965593939619E+000 -1.859369171318008E+000 -1.876778145143703E+000 
-1.894178350844015E+000 -1.911563145644152E+000 -1.928925778515691E+000 -1.946263073896716E+000 
-1.963522096212671E+000 -1.980745092952645E+000 -1.997905728795160E+000 -2.014986511153268E+000 
-2.031966677926562E+000 -2.048864164833276E+000 -2.065638131259561E+000 -2.082283682437378E+000 
-2.098765824891473E+000 -2.115114035282090E+000 -2.131283174914017E+000 -2.147254019500508E+000 
-2.163020444912718E+000 -2.178558022931327E+000 -2.193860853756348E+000 -2.208875946093315E+000 
-2.223631434924016E+000 -2.238079171509355E+000 -2.252177516037193E+000 -2.265943255741149E+000 
-2.279334728775098E+000 -2.292317397606723E+000 -2.304879171141579E+000 -2.316974023525063E+000 
-2.328592360643029E+000 -2.339705959531841E+000 -2.350269498280795E+000 -2.360263365560002E+000 
-2.369648578526551E+000 -2.378382392853439E+000 -2.386441510184000E+000 -2.393782334547780E+000 
-2.400371039608217E+000 -2.406158947308938E+000 -2.411099037145732E+000 -2.415164209151101E+000 
-2.418287910260460E+000 -2.420441254280149E+000 -2.421573226163048E+000 -2.421619743469478E+000 
-2.420523737162114E+000 -2.418249773271896E+000 -2.414719217935726E+000 -2.409891373701839E+000 
-2.403690175247903E+000 -2.396055485840179E+000 -2.386913247097482E+000 -2.376200229272627E+000 
-2.363850175141579E+000 -2.349772722166676E+000 -2.333901184859542E+000 -2.316142568294708E+000 
-2.296425452115159E+000 -2.274662122807058E+000 -2.250741152514365E+000 -2.224600099756458E+000 
-2.196121500512163E+000 -2.165210128964418E+000 -2.131750507243055E+000 -2.095646461861520E+000 
-2.056784965928955E+000 -2.015046560539531E+000 -1.970310340994615E+000 -1.922451752895313E+000 
-1.871336307703814E+000 -1.816836841613622E+000 -1.758810743755816E+000 -1.697114579215850E+000 
-1.631601158102399E+000 -1.562108626906820E+000 -1.488495653059431E+000 -1.410576503118136E+000 
-1.328197656828365E+000 -1.241162593635181E+000 -1.149306466695862E+000 -1.052444286076934E+000 
-9.503590116053147E-001 -8.428701760882404E-001 -7.297592323766366E-001 -6.108113937225426E-001 
-4.858051391848903E-001 -3.545220984092339E-001 -2.166996871818583E-001 -7.212631883771792E-002 
 7.947501787316469E-002  2.383497893983986E-001  4.047687289162241E-001  5.790238144377327E-001 
 7.613683394528152E-001  9.521328487553546E-001  1.151589123382109E+000  1.360069522652338E+000 
 1.577883929817290E+000  1.805360482663446E+000  2.042849066833242E+000  2.290687662929486E+000 
 2.549250239780349E+000  2.818887101570908E+000  3.099994087635196E+000  3.392952220893903E+000 
 3.698163230329101E+000  4.016042213747369E+000  4.347002012456187E+000  4.691478952722946E+000 
 5.049920941803521E+000  5.422768861080840E+000  5.810496468242491E+000  6.213584328806519E+000 
 6.632501346225126E+000  7.067759908710741E+000  7.519854902986253E+000  7.989314892213542E+000 
 8.476664596181990E+000  8.982437642501736E+000  9.507184946470943E+000  1.005147116283501E+001 
 1.061585634709422E+001  1.120092242100100E+001  1.180725416463497E+001  1.243544109824416E+001 
 1.308609167642635E+001  1.375980976844949E+001  1.445721336670886E+001  1.517892247758414E+001 
 1.592556348405515E+001  1.669776776220715E+001  1.749616021202564E+001  1.832139136878322E+001 
 1.917408209280461E+001  2.005487445074709E+001  2.096440063211458E+001  2.190328997032543E+001 
 2.287216704341131E+001  2.387164324349237E+001  2.490233688241506E+001  2.596483860913281E+001 
 2.705973250934721E+001  2.818758224497992E+001  2.934894362589193E+001  3.054433899722881E+001 
 3.177426665163148E+001  3.303920799779871E+001  3.433960152530381E+001  3.567585553215895E+001 
 3.704833480728485E+001  3.845736963612899E+001  3.990323207103529E+001  4.138614159339295E+001 
 4.290627256117341E+001  4.446371612372150E+001  4.605851186285554E+001  4.769060917013530E+001 
 4.935988368308927E+001  5.106612124958656E+001  5.280901050849798E+001  5.458813562634032E+001 
 5.640296642190606E+001  5.825286078955605E+001  6.013703692030367E+001  6.205458417736645E+001 
 6.400443716287873E+001  6.598537635707180E+001  6.799601133594479E+001  7.003477280634206E+001 
 7.209989983766673E+001  7.418943190760865E+001  7.630118855089358E+001  7.843276319120105E+001 
 8.058151087742135E+001  8.274452964960756E+001  8.491865270461903E+001  8.710042301914973E+001 
 8.928609758892708E+001  9.147161578628675E+001  9.365258754192973E+001  9.582429064233884E+001 
 9.798163870596773E+001  1.001191777745862E+002  1.022310708641389E+002  1.043110677485242E+002 
 1.063525094710935E+002  1.083483126734418E+002  1.102909391502367E+002  1.121724030526161E+002 
 1.139842426730165E+002  1.157175211092804E+002  1.173628103865458E+002  1.189101815166509E+002 
 1.203492059252185E+002  1.216689434558002E+002  1.228579423167985E+002  1.239042393927289E+002 
 1.247953660014873E+002  1.255183480541573E+002  1.260597267837720E+002  1.264055556068156E+002 
 1.265414500175179E+002  1.264525746942709E+002  1.261236967291052E+002  1.255392268960386E+002 
 1.246832333196480E+002  1.235395295007615E+002  1.220917060116976E+002  1.203232075673609E+002 
 1.182174090425447E+002  1.157577001198092E+002  1.129275938908484E+002  1.097108187723472E+002 
 1.060914531107210E+002  1.020540573503897E+002  9.758382851745137E+001  9.266674775050274E+001 
 8.728977975571934E+001  8.144105253848977E+001  7.511007524184618E+001  6.828796276660680E+001 
 6.096768180386805E+001  5.314431490484327E+001  4.481533035647055E+001  3.598088520875001E+001 
 2.664413200635170E+001  1.681154447046129E+001  6.493253699138677E+000 -4.296597497898119E+000 
-1.553950098046789E+001 -2.721221666631209E+001 -3.928640678598549E+001 -5.172826957873622E+001 
-6.449819019354118E+001 -7.755039204777358E+001 -9.083262551634107E+001 -1.042858737380038E+002 
-1.178441124642459E+002 -1.314341130587709E+002 -1.449753203954497E+002 -1.583798026951235E+002 
-1.715523135347403E+002 -1.843904533147479E+002 -1.967849815030413E+002 -2.086202846499882E+002 
-2.197750229425210E+002 -2.301229888679291E+002 -2.395342012029250E+002 -2.478762548227796E+002 
-2.550159571929071E+002 -2.608212840385695E+002 -2.651636521083065E+002 -2.679205605721208E+002 
-2.689785721625276E+002 -2.682366693274098E+002 -2.656099412148742E+002 -2.610335876413374E+002 
-2.544671687060854E+002 -2.458990129017584E+002 -2.353506418229190E+002 -2.228810266288210E+002 
-2.085904114053837E+002 -1.926233547386128E+002 -1.751705408905636E+002 -1.564687531066375E+002 
-1.367982692435553E+002 -1.164766867465460E+002 -9.584798378038795E+001 -7.526526438612473E+001 
-5.506528664530924E+001 -3.553239606270427E+001 -1.684893243747229E+001  9.715144897809296E-001 
 1.817244076505767E+001  3.518939528567580E+001  5.204616384811425E+001  6.861982544084640E+001 
 8.477683474684591E+001  1.003725065604713E+002  1.152504917711422E+002  1.292422594232939E+002 
 1.421665869968098E+002  1.538290579305632E+002  1.640215783365667E+002  1.725219163597803E+002 
 1.790932640838428E+002  1.834838429284486E+002  1.854265434617482E+002  1.846386228457020E+002 
 1.808214577151027E+002  1.736603723345651E+002  1.628245526248527E+002  1.479669655441213E+002 
 1.287252862228107E+002  1.047141747713302E+002  7.560290316494621E+001  4.036526414139021E+001 
 4.572512837023726E+000 -3.416131511863250E-001  1.425385043553862E-001  9.151288578116634E-002 
 9.357681031992356E-002  9.040815521332325E-002  8.778945904375068E-002  8.514839154083170E-002 
 8.254171977072131E-002  7.996440249826911E-002  7.741799971219773E-002  7.490230912609447E-002 
 7.241770947349407E-002  6.996512248535458E-002  6.754446761055645E-002  6.515630855502273E-002 
 6.280103362391579E-002  6.047869023696528E-002  5.818986647110648E-002  5.593464162889621E-002 
 5.371347895605855E-002  5.152654961465646E-002  4.937395957387984E-002  4.725629207057118E-002 
 4.517319022823159E-002  4.312540237605667E-002  4.111260267169382E-002  3.913536287863659E-002 
 3.719360521219183E-002  3.528739113309734E-002  0.000000000000000E+000  0.000000000000000E+000 
 0.000000000000000E+000  0.000000000000000E+000  0.000000000000000E+000  0.000000000000000E+000 
 0.000000000000000E+000  0.000000000000000E+000  0.000000000000000E+000  0.000000000000000E+000 
 0.000000000000000E+000  0.000000000000000E+000  0.000000000000000E+000  0.000000000000000E+000 
 0.000000000000000E+000  0.000000000000000E+000  0.000000000000000E+000  0.000000000000000E+000 
 0.000000000000000E+000  0.000000000000000E+000  0.000000000000000E+000  0.000000000000000E+000 
 0.000000000000000E+000  0.000000000000000E+000  0.000000000000000E+000  0.000000000000000E+000 
 0.000000000000000E+000  0.000000000000000E+000  0.000000000000000E+000  0.000000000000000E+000 
 0.000000000000000E+000  0.000000000000000E+000  0.000000000000000E+000  0.000000000000000E+000 
 0.000000000000000E+000  0.000000000000000E+000  0.000000000000000E+000  0.000000000000000E+000 
 0.000000000000000E+000  0.000000000000000E+000  0.000000000000000E+000  0.000000000000000E+000 
 0.000000000000000E+000  0.000000000000000E+000  0.000000000000000E+000  0.000000000000000E+000 
 0.000000000000000E+000  0.000000000000000E+000  0.000000000000000E+000  0.000000000000000E+000 
 0.000000000000000E+000  0.000000000000000E+000  0.000000000000000E+000  0.000000000000000E+000 
 0.000000000000000E+000  0.000000000000000E+000  0.000000000000000E+000  0.000000000000000E+000 
 0.000000000000000E+000  0.000000000000000E+000  0.000000000000000E+000  0.000000000000000E+000 
 0.000000000000000E+000  0.000000000000000E+000  0.000000000000000E+000  0.000000000000000E+000 
 0.000000000000000E+000  0.000000000000000E+000  0.000000000000000E+000  0.000000000000000E+000 
 0.000000000000000E+000  0.000000000000000E+000  0.000000000000000E+000  0.000000000000000E+000 
 0.000000000000000E+000  0.000000000000000E+000  0.000000000000000E+000  0.000000000000000E+000 
 0.000000000000000E+000  0.000000000000000E+000  0.000000000000000E+000  0.000000000000000E+000 
 0.000000000000000E+000  0.000000000000000E+000  0.000000000000000E+000  0.000000000000000E+000 
 0.000000000000000E+000  0.000000000000000E+000  0.000000000000000E+000  0.000000000000000E+000 
 0.000000000000000E+000  0.000000000000000E+000  0.000000000000000E+000  0.000000000000000E+000 
 0.000000000000000E+000  0.000000000000000E+000  0.000000000000000E+000  0.000000000000000E+000 
 0.000000000000000E+000  0.000000000000000E+000  0.000000000000000E+000  0.000000000000000E+000 
 0.000000000000000E+000  0.000000000000000E+000  0.000000000000000E+000  0.000000000000000E+000 
 0.000000000000000E+000  0.000000000000000E+000  0.000000000000000E+000  0.000000000000000E+000 
 0.000000000000000E+000  0.000000000000000E+000  0.000000000000000E+000  0.000000000000000E+000 
 0.000000000000000E+000  0.000000000000000E+000  0.000000000000000E+000  0.000000000000000E+000 
 0.000000000000000E+000  0.000000000000000E+000  0.000000000000000E+000  0.000000000000000E+000 
 0.000000000000000E+000  0.000000000000000E+000  0.000000000000000E+000  0.000000000000000E+000 
 0.000000000000000E+000  0.000000000000000E+000  0.000000000000000E+000  0.000000000000000E+000 
 0.000000000000000E+000  0.000000000000000E+000  0.000000000000000E+000  0.000000000000000E+000 
 0.000000000000000E+000  0.000000000000000E+000  0.000000000000000E+000  0.000000000000000E+000 
 0.000000000000000E+000  0.000000000000000E+000  0.000000000000000E+000  0.000000000000000E+000 
 0.000000000000000E+000  0.000000000000000E+000  0.000000000000000E+000  0.000000000000000E+000 
 0.000000000000000E+000  0.000000000000000E+000  0.000000000000000E+000  0.000000000000000E+000 
 0.000000000000000E+000  0.000000000000000E+000  0.000000000000000E+000  0.000000000000000E+000 
 0.000000000000000E+000  0.000000000000000E+000  0.000000000000000E+000  0.000000000000000E+000 
 0.000000000000000E+000  0.000000000000000E+000  0.000000000000000E+000  0.000000000000000E+000 
 0.000000000000000E+000  0.000000000000000E+000  0.000000000000000E+000  0.000000000000000E+000 
 0.000000000000000E+000  0.000000000000000E+000  0.000000000000000E+000  0.000000000000000E+000 
 0.000000000000000E+000  0.000000000000000E+000  0.000000000000000E+000  0.000000000000000E+000 
 0.000000000000000E+000  0.000000000000000E+000  0.000000000000000E+000  0.000000000000000E+000 
 0.000000000000000E+000  0.000000000000000E+000  0.000000000000000E+000  0.000000000000000E+000 
 0.000000000000000E+000  0.000000000000000E+000  0.000000000000000E+000  0.000000000000000E+000 
 0.000000000000000E+000  0.000000000000000E+000  0.000000000000000E+000  0.000000000000000E+000 
 0.000000000000000E+000  0.000000000000000E+000  0.000000000000000E+000  0.000000000000000E+000 
 0.000000000000000E+000  0.000000000000000E+000  0.000000000000000E+000  0.000000000000000E+000 
 0.000000000000000E+000  0.000000000000000E+000  0.000000000000000E+000  0.000000000000000E+000 
 0.000000000000000E+000  0.000000000000000E+000  0.000000000000000E+000  0.000000000000000E+000 
 0.000000000000000E+000  0.000000000000000E+000  0.000000000000000E+000  0.000000000000000E+000 
 0.000000000000000E+000  0.000000000000000E+000  0.000000000000000E+000  0.000000000000000E+000 
 0.000000000000000E+000  0.000000000000000E+000  0.000000000000000E+000  0.000000000000000E+000 
 0.000000000000000E+000  0.000000000000000E+000  0.000000000000000E+000  0.000000000000000E+000 
 0.000000000000000E+000  0.000000000000000E+000  0.000000000000000E+000  0.000000000000000E+000 
 0.000000000000000E+000  0.000000000000000E+000  0.000000000000000E+000  0.000000000000000E+000 
 0.000000000000000E+000  0.000000000000000E+000  0.000000000000000E+000  0.000000000000000E+000 
 0.000000000000000E+000  0.000000000000000E+000  0.000000000000000E+000  0.000000000000000E+000 
 0.000000000000000E+000  0.000000000000000E+000  0.000000000000000E+000  0.000000000000000E+000 
 0.000000000000000E+000  0.000000000000000E+000  0.000000000000000E+000  0.000000000000000E+000 
 0.000000000000000E+000  0.000000000000000E+000  0.000000000000000E+000  0.000000000000000E+000 
 0.000000000000000E+000  0.000000000000000E+000  0.000000000000000E+000  0.000000000000000E+000 
 0.000000000000000E+000  0.000000000000000E+000  0.000000000000000E+000  0.000000000000000E+000 
 0.000000000000000E+000  0.000000000000000E+000  0.000000000000000E+000  0.000000000000000E+000 
 0.000000000000000E+000  0.000000000000000E+000  0.000000000000000E+000  0.000000000000000E+000 
 0.000000000000000E+000  0.000000000000000E+000  0.000000000000000E+000  0.000000000000000E+000 
 0.000000000000000E+000  0.000000000000000E+000  0.000000000000000E+000  0.000000000000000E+000 
 0.000000000000000E+000  0.000000000000000E+000  0.000000000000000E+000  0.000000000000000E+000 
 0.000000000000000E+000  0.000000000000000E+000  0.000000000000000E+000  0.000000000000000E+000 
 0.000000000000000E+000  0.000000000000000E+000  0.000000000000000E+000  0.000000000000000E+000 
 0.000000000000000E+000  0.000000000000000E+000  0.000000000000000E+000  0.000000000000000E+000 
 0.000000000000000E+000  0.000000000000000E+000  0.000000000000000E+000  0.000000000000000E+000 
 0.000000000000000E+000  0.000000000000000E+000  0.000000000000000E+000  0.000000000000000E+000 
 0.000000000000000E+000  0.000000000000000E+000  0.000000000000000E+000  0.000000000000000E+000 
 0.000000000000000E+000  0.000000000000000E+000  0.000000000000000E+000  0.000000000000000E+000 
 0.000000000000000E+000  0.000000000000000E+000  0.000000000000000E+000  0.000000000000000E+000 
 0.000000000000000E+000  0.000000000000000E+000  0.000000000000000E+000  0.000000000000000E+000 
 0.000000000000000E+000  0.000000000000000E+000  0.000000000000000E+000  0.000000000000000E+000 
 0.000000000000000E+000  0.000000000000000E+000  0.000000000000000E+000  0.000000000000000E+000 
 0.000000000000000E+000  0.000000000000000E+000  0.000000000000000E+000  0.000000000000000E+000 
 0.000000000000000E+000  0.000000000000000E+000  0.000000000000000E+000  0.000000000000000E+000 
 0.000000000000000E+000  0.000000000000000E+000  0.000000000000000E+000  0.000000000000000E+000 
 0.000000000000000E+000  0.000000000000000E+000  0.000000000000000E+000  0.000000000000000E+000 
 0.000000000000000E+000
    </PP_BETA.1>
    <PP_BETA.2 type="real" size="929" columns="4" index="2" label="1S" angular_momentum="0" cutoff_radius_index="571"
cutoff_radius="9.000000000000000E-001" ultrasoft_cutoff_radius="1.000000000000000E+000">
 7.189206634010681E-002  7.279599879411336E-002  7.371128762256518E-002  7.463807514771048E-002 
 7.550954529785869E-002  7.679242474959658E-002  7.747845434810685E-002  7.858728332964482E-002 
 7.940792270813191E-002  8.073371210757152E-002  8.141296875101389E-002  8.260073922773259E-002 
 8.346088476664448E-002  8.466082936818964E-002  8.572072369299732E-002  8.704653218445024E-002 
 8.785109697813986E-002  8.866719779212495E-002  9.014648136852088E-002  9.114371786936815E-002 
 9.198636056374099E-002  9.363259063553819E-002  9.472808435817548E-002  9.588418896379203E-002 
 9.711201461681185E-002  9.828253447946800E-002  9.951631175589348E-002  1.007718646591744E-001 
 1.017804710968484E-001  1.032071622062070E-001  1.047161626997735E-001  1.059476181292354E-001 
 1.072094862342752E-001  1.086469922000077E-001  1.099818501535914E-001  1.113098632053422E-001 
 1.129233882859246E-001  1.142316374843517E-001  1.154351977126744E-001  1.168553221235342E-001 
 1.184920614459593E-001  1.200875583488745E-001  1.214819335334809E-001  1.231193926515495E-001 
 1.243612225509523E-001  1.262024903679304E-001  1.276713790012209E-001  1.291666949205670E-001 
 1.307623567336549E-001  1.324940611604681E-001  1.341640913903461E-001  1.360681683749760E-001 
 1.376820239048797E-001  1.392940594653425E-001  1.412019740457602E-001  1.427541477911980E-001 
 1.446685133117747E-001  1.466559819002704E-001  1.482830025978856E-001  1.502824550667690E-001 
 1.521446379947200E-001  1.541484472358761E-001  1.557783278721772E-001  1.579248540154410E-001 
 1.599798214332928E-001  1.619051075420153E-001  1.639392050317063E-001  1.660779457486719E-001 
 1.679718075832461E-001  1.703365007779247E-001  1.722766660215100E-001  1.745005826659494E-001 
 1.767251242328030E-001  1.789647280485909E-001  1.811174581506734E-001  1.832929131481542E-001 
 1.857730960783890E-001  1.879720385078052E-001  1.904516671990280E-001  1.928202131351746E-001 
 1.951608446344970E-001  1.977113477134473E-001  2.001513048314898E-001  2.026701887717373E-001 
 2.050854128667723E-001  2.077775685959296E-001  2.103108587966958E-001  2.129197282287763E-001 
 2.155803446977487E-001  2.183165440825618E-001  2.210676709308785E-001  2.237864290881291E-001 
 2.266380235601346E-001  2.295312058519841E-001  2.323912509236337E-001  2.352702754695102E-001 
 2.383568424711271E-001  2.412704946940849E-001  2.441669882312993E-001  2.472793417589898E-001 
 2.503775682527163E-001  2.535146314295460E-001  2.566329922840893E-001  2.598709296192823E-001 
 2.631433826024363E-001  2.664363508660230E-001  2.699059840251081E-001  2.730930849195872E-001 
 2.766640911976666E-001  2.800368627380934E-001  2.835605683861573E-001  2.870353889260713E-001 
 2.906451746039522E-001  2.943426883911826E-001  2.979433779868401E-001  3.016643392106033E-001 
 3.055300196854489E-001  3.093301055165227E-001  3.131279644295972E-001  3.169476409790661E-001 
 3.209615578194231E-001  3.250241242236314E-001  3.290720276336287E-001  3.331510831481381E-001 
 3.374246063901936E-001  3.415975112838865E-001  3.458087292676097E-001  3.501615481513483E-001 
 3.544207651744316E-001  3.589553652487112E-001  3.634166990418635E-001  3.679655983801027E-001 
 3.724401937447652E-001  3.771032397518255E-001  3.817870495160065E-001  3.865401941061322E-001 
 3.913594289662896E-001  3.962678239200628E-001  4.010998476786511E-001  4.061947104398342E-001 
 4.111916438669567E-001  4.162882262800025E-001  4.214559651645402E-001  4.266678837247184E-001 
 4.319570486532029E-001  4.372969650661815E-001  4.427883233340140E-001  4.481396513915001E-001 
 4.537733500072108E-001  4.593656052390287E-001  4.650749794279250E-001  4.708373675428703E-001 
 4.766494590037240E-001  4.825347607408617E-001  4.884646971146651E-001  4.944837414942356E-001 
 5.006389423623574E-001  5.067996029563062E-001  5.130602102123589E-001  5.193977859669161E-001 
 5.257402426858846E-001  5.322167745406290E-001  5.387712092094716E-001  5.454513759164712E-001 
 5.521366969842063E-001  5.589102435022681E-001  5.657476848558929E-001  5.726838265944281E-001 
 5.796704696630997E-001  5.867921505890621E-001  5.940158895974719E-001  6.012442030408778E-001 
 6.085756179770101E-001  6.160281320462673E-001  6.235695881887864E-001  6.311547667272350E-001 
 6.388578761041401E-001  6.466237856413244E-001  6.544363671457347E-001  6.624821775657779E-001 
 6.704114004521244E-001  6.786612222097403E-001  6.867993482938033E-001  6.951371312489272E-001 
 7.035453717530658E-001  7.120339150977912E-001  7.206408417299883E-001  7.293177082472937E-001 
 7.381311754753881E-001  7.469829733657889E-001  7.559500269817505E-001  7.650223008824781E-001 
 7.741806244432325E-001  7.834082902059976E-001  7.928463106420338E-001  8.022615823326760E-001 
 8.118551660316200E-001  8.215245496211878E-001  8.312993598236460E-001  8.411224474559162E-001 
 8.511194776488082E-001  8.612107151600981E-001  8.713461376069631E-001  8.816270587878137E-001 
 8.920034195709832E-001  9.024673536112857E-001  9.130589748186821E-001  9.237557751810925E-001 
 9.345359203241230E-001  9.454327190233585E-001  9.564278740839427E-001  9.675279699640384E-001 
 9.787721281832376E-001  9.900638575752509E-001  1.001470639678246E+000  1.012999161003847E+000 
 1.024608871005739E+000  1.036357423851712E+000  1.048177535598910E+000  1.060144530405807E+000 
 1.072132100630029E+000  1.084304142582965E+000  1.096555991592567E+000  1.108875894051295E+000 
 1.121330066335645E+000  1.133852179172095E+000  1.146504715501521E+000  1.159224259986189E+000 
 1.172049156084512E+000  1.184979915365517E+000  1.198043925370257E+000  1.211114134843058E+000 
 1.224337987987099E+000  1.237617087525109E+000  1.250994327105246E+000  1.264463436657223E+000 
 1.278016629721776E+000  1.291656509922262E+000  1.305339301970179E+000  1.319120297519675E+000 
 1.332983435329965E+000  1.346905480286637E+000  1.360888642766440E+000  1.374937593276542E+000 
 1.389073985248871E+000  1.403224942319270E+000  1.417447234289057E+000  1.431735770984176E+000 
 1.446060681921125E+000  1.460392984663883E+000  1.474790253093090E+000  1.489220891546893E+000 
 1.503646254711725E+000  1.518124914270970E+000  1.532605945540240E+000  1.547075071948143E+000 
 1.561585471336514E+000  1.576062820306333E+000  1.590522511922984E+000  1.604951314206289E+000 
 1.619378277277917E+000  1.633752750422616E+000  1.648078933249280E+000  1.662354760799246E+000 
 1.676564367352285E+000  1.690699793498368E+000  1.704753023007697E+000  1.718719823072831E+000 
 1.732542870040902E+000  1.746266325589090E+000  1.759861196067334E+000  1.773307925768620E+000 
 1.786583443708366E+000  1.799705902926576E+000  1.812630814386182E+000  1.825351949403284E+000 
 1.837831021572299E+000  1.850098401428511E+000  1.862104941168468E+000  1.873829078860751E+000 
 1.885263175568355E+000  1.896380130942418E+000  1.907172500116133E+000  1.917582644504648E+000 
 1.927639392801950E+000  1.937290224634580E+000  1.946489540528773E+000  1.955253980820714E+000 
 1.963537875868724E+000  1.971303138524377E+000  1.978535535447406E+000  1.985184689152163E+000 
 1.991238992634067E+000  1.996666959641573E+000  2.001418873532202E+000  2.005472353715390E+000 
 2.008784395094494E+000  2.011307901956968E+000  2.013016497220349E+000  2.013862154053811E+000 
 2.013807173787882E+000  2.012798071113878E+000  2.010783032282518E+000  2.007731445829961E+000 
 2.003570659137495E+000  1.998268077466264E+000  1.991767511074158E+000  1.983998805345209E+000 
 1.974899220759085E+000  1.964429056823064E+000  1.952502520854637E+000  1.939074216772383E+000 
 1.924060996744174E+000  1.907396658164657E+000  1.889000116604052E+000  1.868801776283476E+000 
 1.846728757342703E+000  1.822682473488271E+000  1.796589475857445E+000  1.768348273346078E+000 
 1.737880282949845E+000  1.705089517010720E+000  1.669854666898345E+000  1.632106552506002E+000 
 1.591717324841397E+000  1.548582768777237E+000  1.502577014535518E+000  1.453594722468438E+000 
 1.401512528972262E+000  1.346200123470680E+000  1.287525652121872E+000  1.225353242695746E+000 
 1.159536408938948E+000  1.089936401206842E+000  1.016397921180783E+000  9.387647421010570E-001 
 8.568765532064617E-001  7.705573555186902E-001  6.796529375873206E-001  5.839617051927917E-001 
 4.833163153265332E-001  3.775035208751660E-001  2.663437696579649E-001  1.496359495409934E-001 
 2.714471779165706E-002 -1.013263568041793E-001 -2.360143786629578E-001 -3.771525174296357E-001 
-5.249811953641483E-001 -6.797375663803678E-001 -8.417059612261255E-001 -1.011116462820269E+000 
-1.188268945958384E+000 -1.373429734516435E+000 -1.566892179403453E+000 -1.768972321257706E+000 
-1.979945068931102E+000 -2.200167719709725E+000 -2.429935023025109E+000 -2.669606357798330E+000 
-2.919517200189148E+000 -3.180022568699769E+000 -3.451500704346245E+000 -3.734317216478303E+000 
-4.028876131917059E+000 -4.335556293947093E+000 -4.654785129375796E+000 -4.986974302544695E+000 
-5.332557586281155E+000 -5.691983019778945E+000 -6.065696256217961E+000 -6.454167998007506E+000 
-6.857881274209149E+000 -7.277311634902617E+000 -7.712969643160022E+000 -8.165373077136564E+000 
-8.635027267628857E+000 -9.122483810467656E+000 -9.628275590274825E+000 -1.015297130845715E+001 
-1.069713544053161E+001 -1.126134186437093E+001 -1.184618272488251E+001 -1.245226465485962E+001 
-1.308018920139625E+001 -1.373058101519950E+001 -1.440406754832657E+001 -1.510128105651370E+001 
-1.582287367353752E+001 -1.656949233234332E+001 -1.734179866099316E+001 -1.814045603893669E+001 
-1.896613421429424E+001 -1.981950777945576E+001 -2.070124391841455E+001 -2.161203656999078E+001 
-2.255254743944647E+001 -2.352346015863077E+001 -2.452544713143311E+001 -2.555917692555545E+001 
-2.662531221320137E+001 -2.772450069628894E+001 -2.885739648415029E+001 -3.002462315232788E+001 
-3.122679615041989E+001 -3.246450796504587E+001 -3.373834140048757E+001 -3.504884222745795E+001 
-3.639652909265760E+001 -3.778190105747944E+001 -3.920540977532528E+001 -4.066747290059175E+001 
-4.216845981735059E+001 -4.370870109676207E+001 -4.528846308702032E+001 -4.690795381130101E+001 
-4.856733076178671E+001 -5.026666018627702E+001 -5.200595063478931E+001 -5.378511166014687E+001 
-5.560397116320428E+001 -5.746225813787805E+001 -5.935959459417154E+001 -6.129548763467528E+001 
-6.326931874527418E+001 -6.528034619578511E+001 -6.732767522423228E+001 -6.941026944433270E+001 
-7.152692299222417E+001 -7.367626100687039E+001 -7.585672152523921E+001 -7.806654678592531E+001 
-8.030376940381757E+001 -8.256620366368043E+001 -8.485142363712657E+001 -8.715675636099786E+001 
-8.947926856740150E+001 -9.181574661450759E+001 -9.416268791296352E+001 -9.651627368824393E+001 
-9.887237329662867E+001 -1.012265103200407E+002 -1.035738497864177E+002 -1.059091951435275E+002 
-1.082269539705094E+002 -1.105211342238413E+002 -1.127853276740452E+002 -1.150126776180091E+002 
-1.171958836451349E+002 -1.193271849081593E+002 -1.213983277151201E+002 -1.234005732471282E+002 
-1.253246676150584E+002 -1.271608427119927E+002 -1.288987995141460E+002 -1.305276977603094E+002 
-1.320361578198026E+002 -1.334122483194324E+002 -1.346434865976325E+002 -1.357168396091188E+002 
-1.366187307555260E+002 -1.373350408182196E+002 -1.378511309665864E+002 -1.381518404033782E+002 
-1.382215406751234E+002 -1.380441232114499E+002 -1.376030574426914E+002 -1.368814363524239E+002 
-1.358619927550776E+002 -1.345271949849675E+002 -1.328592827219086E+002 -1.308403513681151E+002 
-1.284524354635037E+002 -1.256776015106111E+002 -1.224980665061628E+002 -1.188962988961739E+002 
-1.148551652209630E+002 -1.103580743656455E+002 -1.053891457818438E+002 -9.993337050627588E+001 
-9.397682767993433E+001 -8.750688024476403E+001 -8.051241139822605E+001 -7.298406842302586E+001 
-6.491452945862724E+001 -5.629878959094992E+001 -4.713445318779668E+001 -3.742206159371869E+001 
-2.716542475013352E+001 -1.637197293584040E+001 -5.053119586017374E+000  6.775356760793784E+000 
 1.909293156239528E+001  3.187393988523536E+001  4.508718340764017E+001  5.869553739337834E+001 
 7.265557668941483E+001  8.691720303018928E+001  1.014233130884049E+002  1.161094858743536E+002 
 1.309037290060005E+002  1.457262724206412E+002  1.604894435340420E+002  1.750976208929351E+002 
 1.894473093947927E+002  2.034273237138668E+002  2.169191348453542E+002  2.297973852546720E+002 
 2.419305970998403E+002  2.531821094559491E+002  2.634112694140813E+002  2.724748989919863E+002 
 2.802290707901302E+002  2.865312269819206E+002  2.912426393068326E+002  2.942312647505241E+002 
 2.953749657446160E+002  2.945651319214239E+002  2.917106555651071E+002  2.867422449747073E+002 
 2.796169983630443E+002  2.703231436947381E+002  2.588847910608856E+002  2.453664978933648E+002 
 2.298773614162528E+002  2.125742626437213E+002  1.936637788779644E+002  1.734021113323124E+002 
 1.520922322825199E+002  1.300771849463454E+002  1.077282543247993E+002  8.542634281141181E+001 
 6.353451041882818E+001  4.235912882814046E+001  2.209650523732398E+001  2.761090080324720E+000 
-1.590949020789549E+001 -3.438414577620551E+001 -5.268804794080097E+001 -7.068834537378098E+001 
-8.824076082664624E+001 -1.051890428562162E+002 -1.213644092710574E+002 -1.365849978372207E+002 
-1.506553265887729E+002 -1.633657627818787E+002 -1.744920132923992E+002 -1.837946402197037E+002 
-1.910186016597609E+002 -1.958928400540819E+002 -1.981299085067737E+002 -1.974256598961296E+002 
-1.934589965010719E+002 -1.858917013569044E+002 -1.743683627589195E+002 -1.585163054650666E+002 
-1.379466037414438E+002 -1.122458172321872E+002 -8.105927137207766E+001 -4.328655508928227E+001 
-4.903714611212614E+000  3.669955455136420E-001 -1.523092781829167E-001 -9.760023599026509E-002 
-9.983299672578633E-002 -9.645316443227329E-002 -9.366290363682456E-002 -9.084834929756899E-002 
-8.807039252432186E-002 -8.532362615273356E-002 -8.260972087072591E-002 -7.992846446792159E-002 
-7.728026448459221E-002 -7.466610716122381E-002 -7.208591044555462E-002 -6.954027855669700E-002 
-6.702962907462853E-002 -6.455401585482390E-002 -6.211406911564973E-002 -5.970987682358420E-002 
-5.734193567393372E-002 -5.501043152485165E-002 -5.271548000320983E-002 -5.045770586590073E-002 
-4.823673160629087E-002 -4.605335736994806E-002 -4.390723881688036E-002 -4.179898765468165E-002 
-3.972852351696488E-002 -3.769591430662704E-002  0.000000000000000E+000  0.000000000000000E+000 
 0.000000000000000E+000  0.000000000000000E+000  0.000000000000000E+000  0.000000000000000E+000 
 0.000000000000000E+000  0.000000000000000E+000  0.000000000000000E+000  0.000000000000000E+000 
 0.000000000000000E+000  0.000000000000000E+000  0.000000000000000E+000  0.000000000000000E+000 
 0.000000000000000E+000  0.000000000000000E+000  0.000000000000000E+000  0.000000000000000E+000 
 0.000000000000000E+000  0.000000000000000E+000  0.000000000000000E+000  0.000000000000000E+000 
 0.000000000000000E+000  0.000000000000000E+000  0.000000000000000E+000  0.000000000000000E+000 
 0.000000000000000E+000  0.000000000000000E+000  0.000000000000000E+000  0.000000000000000E+000 
 0.000000000000000E+000  0.000000000000000E+000  0.000000000000000E+000  0.000000000000000E+000 
 0.000000000000000E+000  0.000000000000000E+000  0.000000000000000E+000  0.000000000000000E+000 
 0.000000000000000E+000  0.000000000000000E+000  0.000000000000000E+000  0.000000000000000E+000 
 0.000000000000000E+000  0.000000000000000E+000  0.000000000000000E+000  0.000000000000000E+000 
 0.000000000000000E+000  0.000000000000000E+000  0.000000000000000E+000  0.000000000000000E+000 
 0.000000000000000E+000  0.000000000000000E+000  0.000000000000000E+000  0.000000000000000E+000 
 0.000000000000000E+000  0.000000000000000E+000  0.000000000000000E+000  0.000000000000000E+000 
 0.000000000000000E+000  0.000000000000000E+000  0.000000000000000E+000  0.000000000000000E+000 
 0.000000000000000E+000  0.000000000000000E+000  0.000000000000000E+000  0.000000000000000E+000 
 0.000000000000000E+000  0.000000000000000E+000  0.000000000000000E+000  0.000000000000000E+000 
 0.000000000000000E+000  0.000000000000000E+000  0.000000000000000E+000  0.000000000000000E+000 
 0.000000000000000E+000  0.000000000000000E+000  0.000000000000000E+000  0.000000000000000E+000 
 0.000000000000000E+000  0.000000000000000E+000  0.000000000000000E+000  0.000000000000000E+000 
 0.000000000000000E+000  0.000000000000000E+000  0.000000000000000E+000  0.000000000000000E+000 
 0.000000000000000E+000  0.000000000000000E+000  0.000000000000000E+000  0.000000000000000E+000 
 0.000000000000000E+000  0.000000000000000E+000  0.000000000000000E+000  0.000000000000000E+000 
 0.000000000000000E+000  0.000000000000000E+000  0.000000000000000E+000  0.000000000000000E+000 
 0.000000000000000E+000  0.000000000000000E+000  0.000000000000000E+000  0.000000000000000E+000 
 0.000000000000000E+000  0.000000000000000E+000  0.000000000000000E+000  0.000000000000000E+000 
 0.000000000000000E+000  0.000000000000000E+000  0.000000000000000E+000  0.000000000000000E+000 
 0.000000000000000E+000  0.000000000000000E+000  0.000000000000000E+000  0.000000000000000E+000 
 0.000000000000000E+000  0.000000000000000E+000  0.000000000000000E+000  0.000000000000000E+000 
 0.000000000000000E+000  0.000000000000000E+000  0.000000000000000E+000  0.000000000000000E+000 
 0.000000000000000E+000  0.000000000000000E+000  0.000000000000000E+000  0.000000000000000E+000 
 0.000000000000000E+000  0.000000000000000E+000  0.000000000000000E+000  0.000000000000000E+000 
 0.000000000000000E+000  0.000000000000000E+000  0.000000000000000E+000  0.000000000000000E+000 
 0.000000000000000E+000  0.000000000000000E+000  0.000000000000000E+000  0.000000000000000E+000 
 0.000000000000000E+000  0.000000000000000E+000  0.000000000000000E+000  0.000000000000000E+000 
 0.000000000000000E+000  0.000000000000000E+000  0.000000000000000E+000  0.000000000000000E+000 
 0.000000000000000E+000  0.000000000000000E+000  0.000000000000000E+000  0.000000000000000E+000 
 0.000000000000000E+000  0.000000000000000E+000  0.000000000000000E+000  0.000000000000000E+000 
 0.000000000000000E+000  0.000000000000000E+000  0.000000000000000E+000  0.000000000000000E+000 
 0.000000000000000E+000  0.000000000000000E+000  0.000000000000000E+000  0.000000000000000E+000 
 0.000000000000000E+000  0.000000000000000E+000  0.000000000000000E+000  0.000000000000000E+000 
 0.000000000000000E+000  0.000000000000000E+000  0.000000000000000E+000  0.000000000000000E+000 
 0.000000000000000E+000  0.000000000000000E+000  0.000000000000000E+000  0.000000000000000E+000 
 0.000000000000000E+000  0.000000000000000E+000  0.000000000000000E+000  0.000000000000000E+000 
 0.000000000000000E+000  0.000000000000000E+000  0.000000000000000E+000  0.000000000000000E+000 
 0.000000000000000E+000  0.000000000000000E+000  0.000000000000000E+000  0.000000000000000E+000 
 0.000000000000000E+000  0.000000000000000E+000  0.000000000000000E+000  0.000000000000000E+000 
 0.000000000000000E+000  0.000000000000000E+000  0.000000000000000E+000  0.000000000000000E+000 
 0.000000000000000E+000  0.000000000000000E+000  0.000000000000000E+000  0.000000000000000E+000 
 0.000000000000000E+000  0.000000000000000E+000  0.000000000000000E+000  0.000000000000000E+000 
 0.000000000000000E+000  0.000000000000000E+000  0.000000000000000E+000  0.000000000000000E+000 
 0.000000000000000E+000  0.000000000000000E+000  0.000000000000000E+000  0.000000000000000E+000 
 0.000000000000000E+000  0.000000000000000E+000  0.000000000000000E+000  0.000000000000000E+000 
 0.000000000000000E+000  0.000000000000000E+000  0.000000000000000E+000  0.000000000000000E+000 
 0.000000000000000E+000  0.000000000000000E+000  0.000000000000000E+000  0.000000000000000E+000 
 0.000000000000000E+000  0.000000000000000E+000  0.000000000000000E+000  0.000000000000000E+000 
 0.000000000000000E+000  0.000000000000000E+000  0.000000000000000E+000  0.000000000000000E+000 
 0.000000000000000E+000  0.000000000000000E+000  0.000000000000000E+000  0.000000000000000E+000 
 0.000000000000000E+000  0.000000000000000E+000  0.000000000000000E+000  0.000000000000000E+000 
 0.000000000000000E+000  0.000000000000000E+000  0.000000000000000E+000  0.000000000000000E+000 
 0.000000000000000E+000  0.000000000000000E+000  0.000000000000000E+000  0.000000000000000E+000 
 0.000000000000000E+000  0.000000000000000E+000  0.000000000000000E+000  0.000000000000000E+000 
 0.000000000000000E+000  0.000000000000000E+000  0.000000000000000E+000  0.000000000000000E+000 
 0.000000000000000E+000  0.000000000000000E+000  0.000000000000000E+000  0.000000000000000E+000 
 0.000000000000000E+000  0.000000000000000E+000  0.000000000000000E+000  0.000000000000000E+000 
 0.000000000000000E+000  0.000000000000000E+000  0.000000000000000E+000  0.000000000000000E+000 
 0.000000000000000E+000  0.000000000000000E+000  0.000000000000000E+000  0.000000000000000E+000 
 0.000000000000000E+000  0.000000000000000E+000  0.000000000000000E+000  0.000000000000000E+000 
 0.000000000000000E+000  0.000000000000000E+000  0.000000000000000E+000  0.000000000000000E+000 
 0.000000000000000E+000  0.000000000000000E+000  0.000000000000000E+000  0.000000000000000E+000 
 0.000000000000000E+000  0.000000000000000E+000  0.000000000000000E+000  0.000000000000000E+000 
 0.000000000000000E+000  0.000000000000000E+000  0.000000000000000E+000  0.000000000000000E+000 
 0.000000000000000E+000  0.000000000000000E+000  0.000000000000000E+000  0.000000000000000E+000 
 0.000000000000000E+000  0.000000000000000E+000  0.000000000000000E+000  0.000000000000000E+000 
 0.000000000000000E+000  0.000000000000000E+000  0.000000000000000E+000  0.000000000000000E+000 
 0.000000000000000E+000  0.000000000000000E+000  0.000000000000000E+000  0.000000000000000E+000 
 0.000000000000000E+000  0.000000000000000E+000  0.000000000000000E+000  0.000000000000000E+000 
 0.000000000000000E+000  0.000000000000000E+000  0.000000000000000E+000  0.000000000000000E+000 
 0.000000000000000E+000  0.000000000000000E+000  0.000000000000000E+000  0.000000000000000E+000 
 0.000000000000000E+000  0.000000000000000E+000  0.000000000000000E+000  0.000000000000000E+000 
 0.000000000000000E+000  0.000000000000000E+000  0.000000000000000E+000  0.000000000000000E+000 
 0.000000000000000E+000  0.000000000000000E+000  0.000000000000000E+000  0.000000000000000E+000 
 0.000000000000000E+000  0.000000000000000E+000  0.000000000000000E+000  0.000000000000000E+000 
 0.000000000000000E+000  0.000000000000000E+000  0.000000000000000E+000  0.000000000000000E+000 
 0.000000000000000E+000
    </PP_BETA.2>
    <PP_DIJ type="real" size="4" columns="4">
-1.019864741874033E-002 -7.031255647655721E-003 -7.031255647655721E-003 -3.764840798324842E-003
    </PP_DIJ>
    <PP_AUGMENTATION q_with_l="T" nqf="0" nqlc="1" shape="PSQ" cutoff_r="8.000000000000000E-001" cutoff_r_index="579"
augmentation_epsilon="1.000000000000000E-012" l_max_aug="0">
      <PP_Q type="real" size="4" columns="4">
 8.746792054804848E-003  8.793415851124888E-003  8.793415851124888E-003  8.823638320500152E-003
      </PP_Q>
      <!-- augmentation charge multipoles (only for PAW) -->
      <PP_MULTIPOLES type="real" size="4" columns="4">
 8.746792054804848E-003  8.793415851124888E-003  8.793415851124888E-003  8.823638320500152E-003
      </PP_MULTIPOLES>
      <PP_QIJL.1.1.0 type="real" size="929" columns="4" first_index="1" second_index="1" composite_index="1" angular_momentum="0">
 5.472016144214135E-007  5.610539872667595E-007  5.752570293718876E-007  5.898196177033102E-007 
 6.047508539352766E-007  6.200600701375656E-007  6.357568346072382E-007  6.518509578479820E-007 
 6.683524987007786E-007  6.852717706297394E-007  7.026193481670062E-007  7.204060735207747E-007 
 7.386430633505443E-007  7.573417157138344E-007  7.765137171887088E-007  7.961710501765381E-007 
 8.163260003895865E-007  8.369911645280787E-007  8.581794581515460E-007  8.799041237493752E-007 
 9.021787390155770E-007  9.250172253329684E-007  9.484338564720460E-007  9.724432675099902E-007 
 9.970604639753690E-007  1.022300831224235E-006  1.048180144053500E-006  1.074714576557553E-006 
 1.101920712234301E-006  1.129815554346939E-006  1.158416536547879E-006  1.187741533771537E-006 
 1.217808873402713E-006  1.248637346727573E-006  1.280246220674368E-006  1.312655249851203E-006 
 1.345884688888398E-006  1.379955305093120E-006  1.414888391424188E-006  1.450705779795159E-006 
 1.487429854713963E-006  1.525083567267648E-006  1.563690449460904E-006  1.603274628917362E-006 
 1.643860843952812E-006  1.685474459029723E-006  1.728141480602764E-006  1.771888573365155E-006 
 1.816743076906005E-006  1.862733022789034E-006  1.909887152063290E-006  1.958234933216842E-006 
 2.007806580584596E-006  2.058633073221724E-006  2.110746174254500E-006  2.164178450720553E-006 
 2.218963293910963E-006  2.275134940226855E-006  2.332728492563477E-006  2.391779942235145E-006 
 2.452326191454620E-006  2.514405076381055E-006  2.578055390750768E-006  2.643316910105613E-006 
 2.710230416634069E-006  2.778837724640435E-006  2.849181706658112E-006  2.921306320223154E-006 
 2.995256635324792E-006  3.071078862550061E-006  3.148820381939969E-006  3.228529772575276E-006 
 3.310256842910255E-006  3.394052661873303E-006  3.479969590753836E-006  3.568061315895188E-006 
 3.658382882214013E-006  3.750990727566939E-006  3.845942717985902E-006  3.943298183804103E-006 
 4.043117956694975E-006  4.145464407647329E-006  4.250401485900188E-006  4.357994758861582E-006 
 4.468311453036115E-006  4.581420495986701E-006  4.697392559356650E-006  4.816300102978750E-006 
 4.938217420098815E-006  5.063220683741797E-006  5.191387994249199E-006  5.322799428017425E-006 
 5.457537087467273E-006  5.595685152275586E-006  5.737329931900969E-006  5.882559919435990E-006 
 6.031465846819523E-006  6.184140741443311E-006  6.340679984187960E-006  6.501181368924384E-006 
 6.665745163517452E-006  6.834474172369906E-006  7.007473800545122E-006  7.184852119508546E-006 
 7.366719934528597E-006  7.553190853778591E-006  7.744381359182778E-006  7.940410879050146E-006 
 8.141401862541040E-006  8.347479856012750E-006  8.558773581291122E-006  8.775415015916876E-006 
 8.997539475416064E-006  9.225285697645636E-006  9.458795929266255E-006  9.698216014395684E-006 
 9.943695485497721E-006  1.019538765656266E-005  1.045344971863687E-005  1.071804283776047E-005 
 1.098933225537346E-005  1.126748739125242E-005  1.155268194904100E-005  1.184509402443949E-005 
 1.214490621612009E-005  1.245230573943598E-005  1.276748454299457E-005  1.309063942816642E-005 
 1.342197217160346E-005  1.376168965084197E-005  1.411000397306719E-005  1.446713260711913E-005 
 1.483329851882043E-005  1.520873030970936E-005  1.559366235926324E-005  1.598833497069926E-005 
 1.639299452044239E-005  1.680789361135190E-005  1.723329122980019E-005  1.766945290670035E-005 
 1.811665088258061E-005  1.857516427680712E-005  1.904527926105808E-005  1.952728923715538E-005 
 2.002149501936238E-005  2.052820502125867E-005  2.104773544730633E-005  2.158041048922406E-005 
 2.212656252728865E-005  2.268653233668683E-005  2.326066929904223E-005  2.384933161924667E-005 
 2.445288654772714E-005  2.507171060828324E-005  2.570618983163373E-005  2.635671999481271E-005 
 2.702370686656163E-005  2.770756645886448E-005  2.840872528477872E-005  2.912762062271770E-005 
 2.986470078734334E-005  3.062042540723339E-005  3.139526570948947E-005  3.218970481145782E-005 
 3.300423801973790E-005  3.383937313665744E-005  3.469563077440001E-005  3.557354467697036E-005 
 3.647366205019260E-005  3.739654389993752E-005  3.834276537878016E-005  3.931291614129682E-005 
 4.030760070820977E-005  4.132743883959920E-005  4.237306591740285E-005  4.344513333742919E-005 
 4.454430891111964E-005  4.567127727729326E-005  4.682674032412065E-005  4.801141762157463E-005 
 4.922604686461121E-005  5.047138432734471E-005  5.174820532847961E-005  5.305730470827526E-005 
 5.439949731732124E-005  5.577561851740746E-005  5.718652469478494E-005  5.863309378611108E-005 
 6.011622581738858E-005  6.163684345620956E-005  6.319589257762216E-005  6.479434284395114E-005 
 6.643318829890050E-005  6.811344797628495E-005  6.983616652373663E-005  7.160241484174316E-005 
 7.341329073838596E-005  7.526991960014620E-005  7.717345507916352E-005  7.912507979733642E-005 
 8.112600606765831E-005  8.317747663320286E-005  8.528076542416591E-005  8.743717833339403E-005 
 8.964805401083093E-005  9.191476467732151E-005  9.423871695823164E-005  9.662135273733718E-005 
 9.906415003145907E-005  1.015686238863229E-004  1.041363272941311E-004  1.067688521333541E-004 
 1.094678301312444E-004  1.122349338495995E-004  1.150718776943035E-004  1.179804189491863E-004 
 1.209623588347610E-004  1.240195435923922E-004  1.271538655944784E-004  1.303672644812300E-004 
 1.336617283246372E-004  1.370392948202420E-004  1.405020525073244E-004  1.440521420181403E-004 
 1.476917573568502E-004  1.514231472087872E-004  1.552486162807402E-004  1.591705266729142E-004 
 1.631912992832671E-004  1.673134152449173E-004  1.715394173973307E-004  1.758719117920180E-004 
 1.803135692334652E-004  1.848671268560528E-004  1.895353897377171E-004  1.943212325511163E-004 
 1.992276012530960E-004  2.042575148132262E-004  2.094140669822273E-004  2.147004281010909E-004 
 2.201198469517143E-004  2.256756526498969E-004  2.313712565815236E-004  2.372101543828040E-004 
 2.431959279654236E-004  2.493322475874782E-004  2.556228739710786E-004  2.620716604675069E-004 
 2.686825552708274E-004  2.754596036808569E-004  2.824069504163969E-004  2.895288419796576E-004 
 2.968296290727834E-004  3.043137690674154E-004  3.119858285282187E-004  3.198504857913051E-004 
 3.279125335984924E-004  3.361768817883297E-004  3.446485600448307E-004  3.533327207048474E-004 
 3.622346416250108E-004  3.713597291091781E-004  3.807135208972935E-004  3.903016892165917E-004 
 4.001300438960420E-004  4.102045355449270E-004  4.205312587964484E-004  4.311164556172158E-004 
 4.419665186834813E-004  4.530879948249450E-004  4.644875885369432E-004  4.761721655618123E-004 
 4.881487565401767E-004  5.004245607328997E-004  5.130069498143932E-004  5.259034717379372E-004 
 5.391218546736420E-004  5.526700110196163E-004  5.665560414868783E-004  5.807882392584857E-004 
 5.953750942232917E-004  6.103252972847064E-004  6.256477447447332E-004  6.413515427635165E-004 
 6.574460118945374E-004  6.739406916955124E-004  6.908453454149799E-004  7.081699647544279E-004 
 7.259247747057551E-004  7.441202384637154E-004  7.627670624128825E-004  7.818762011885735E-004 
 8.014588628109836E-004  8.215265138916943E-004  8.420908849115323E-004  8.631639755685852E-004 
 8.847580601950498E-004  9.068856932413417E-004  9.295597148257595E-004  9.527932563477412E-004 
 9.765997461625448E-004  1.000992915314968E-003  1.025986803329429E-003  1.051595764053513E-003 
 1.077834471551775E-003  1.104717926046293E-003  1.132261459900189E-003  1.160480743639941E-003 
 1.189391792012015E-003  1.219010970068944E-003  1.249354999279576E-003  1.280440963657857E-003 
 1.312286315903987E-003  1.344908883551420E-003  1.378326875112623E-003  1.412558886216022E-003 
 1.447623905726045E-003  1.483541321837545E-003  1.520330928135358E-003  1.558012929609070E-003 
 1.596607948612408E-003  1.636137030756018E-003  1.676621650721596E-003  1.718083717984630E-003 
 1.760545582432150E-003  1.804030039861095E-003  1.848560337341935E-003  1.894160178431350E-003 
 1.940853728216710E-003  1.988665618174121E-003  2.037620950820717E-003  2.087745304140715E-003 
 2.139064735763665E-003  2.191605786872003E-003  2.245395485813761E-003  2.300461351394988E-003 
 2.356831395824901E-003  2.414534127285507E-003  2.473598552095719E-003  2.534054176438496E-003 
 2.595931007617860E-003  2.659259554810814E-003  2.724070829277529E-003  2.790396343991126E-003 
 2.858268112646509E-003  2.927718648005631E-003  2.998780959534403E-003  3.071488550284376E-003 
 3.145875412969874E-003  3.221976025188986E-003  3.299825343734339E-003  3.379458797936917E-003 
 3.460912281983728E-003  3.544222146147205E-003  3.629425186861454E-003  3.716558635577576E-003 
 3.805660146327160E-003  3.896767781920036E-003  3.989919998699081E-003  4.085155629771567E-003 
 4.182513866633216E-003  4.282034239097414E-003  4.383756593438760E-003  4.487721068656153E-003 
 4.593968070756984E-003  4.702538244960182E-003  4.813472445711753E-003  4.926811704402722E-003 
 5.042597194674996E-003  5.160870195196766E-003  5.281672049784769E-003  5.405044124746392E-003 
 5.531027763310561E-003  5.659664237011783E-003  5.790994693887544E-003  5.925060103344908E-003 
 6.061901197547742E-003  6.201558409171932E-003  6.344071805371490E-003  6.489481017794424E-003 
 6.637825168483182E-003  6.789142791490364E-003  6.943471750036918E-003  7.100849149036048E-003 
 7.261311242802919E-003  7.424893337766900E-003  7.591629690000422E-003  7.761553397375575E-003 
 7.934696286157951E-003  8.111088791844962E-003  8.290759834054895E-003  8.473736685272182E-003 
 8.660044833254030E-003  8.849707836904450E-003  9.042747175422639E-003  9.239182090534969E-003 
 9.439029421622837E-003  9.642303433562361E-003  9.849015637097423E-003  1.005917460157343E-002 
 1.027278575986689E-002  1.048985120535494E-002  1.071036948077928E-002  1.093433535887131E-002 
 1.116173961461932E-002  1.139256878907412E-002  1.162680494460808E-002  1.186442541156226E-002 
 1.210540252623951E-002  1.234970336022639E-002  1.259728944105508E-002  1.284811646424736E-002 
 1.310213399681706E-002  1.335928517234517E-002  1.361950637778268E-002  1.388272693218180E-002 
 1.414886875760477E-002  1.441784604251315E-002  1.468956489799856E-002  1.496392300727796E-002 
 1.524080926894481E-002  1.552010343453987E-002  1.580167574108397E-002  1.608538653929930E-002 
 1.637108591833556E-002  1.665861332791355E-002  1.694779719890173E-002  1.723845456344995E-002 
 1.753039067592107E-002  1.782339863598375E-002  1.811725901535996E-002  1.841173948985781E-002 
 1.870659447846479E-002  1.900156479142837E-002  1.929637728941005E-002  1.959074455596474E-002 
 1.988436458577125E-002  2.017692049121919E-002  2.046808023014504E-002  2.075749635770211E-002 
 2.104480580554851E-002  2.132962969174029E-002  2.161157316492509E-002  2.189022528664335E-002 
 2.216515895575757E-002  2.243593087924574E-002  2.270208159381011E-002  2.296313554296547E-002 
 2.321860121448192E-002  2.346797134326085E-002  2.371072318491999E-002  2.394631886554992E-002 
 2.417420581327726E-002  2.439381727742787E-002  2.460457294121954E-002  2.480587963402864E-002 
 2.499713214936091E-002  2.517771417471074E-002  2.534699933951074E-002  2.550435238734789E-002 
 2.564913047854958E-002  2.578068462911566E-002  2.589836129178496E-002  2.600150408476973E-002 
 2.608945567336216E-002  2.616155980920498E-002  2.621716353151730E-002  2.625561953396635E-002 
 2.627628870017024E-002  2.627854280999474E-002  2.626176741786299E-002  2.622536490321878E-002 
 2.616875769206664E-002  2.609139164714456E-002  2.599273962276128E-002  2.587230517864206E-002 
 2.572962644526879E-002  2.556428013116573E-002  2.537588566036834E-002  2.516410942591612E-002 
 2.492866914263089E-002  2.466933827968127E-002  2.438595055049607E-002  2.407840443448184E-002 
 2.374666770173380E-002  2.339078190851931E-002  2.301086682777837E-002  2.260712477525237E-002 
 2.217984478814776E-002  2.172940660950556E-002  2.125628442772039E-002  2.076105031698734E-002 
 2.024437732090926E-002  1.970704211813634E-002  1.914992720581403E-002  1.857402253386650E-002 
 1.798042652083696E-002  1.737034638025154E-002  1.674509768537834E-002  1.610610309995127E-002 
 1.545489020304604E-002  1.479308833797994E-002  1.412242441800900E-002  1.344471762586735E-002 
 1.276187295000372E-002  1.207587350787252E-002  1.138877161600102E-002  1.070267857793366E-002 
 1.001975317469732E-002  9.342188858274040E-003  8.672199666822474E-003  8.012004901142391E-003 
 7.363812625183764E-003  6.729802079267494E-003  6.112105123070116E-003  5.512786856216288E-003 
 4.933825597341911E-003  4.377092437465575E-003  3.844330620063005E-003  3.337135037899857E-003 
 2.856932174824112E-003  2.404960858604456E-003  1.982254227616968E-003  1.589623348662313E-003 
 1.227642954196946E-003  8.966397933630665E-004  5.966841107944059E-004  3.275847784772338E-004 
 8.888860698830475E-005 -1.201156488990973E-004 -3.003881012187673E-004 -4.531229103663607E-004 
-5.797274535271433E-004 -6.817951805150237E-004 -7.610719659559128E-004 -8.194159015050533E-004 
-8.587506348092713E-004 -8.810125547181295E-004 -8.880923457674651E-004 -8.817716894398663E-004 
-8.636561744824571E-004 -8.351057918496163E-004 -7.971647285196122E-004 -7.504925338282023E-004 
-6.956366694885752E-004 -6.341825161974013E-004 -5.680427343887628E-004 -4.991399159439136E-004 
-4.293754545450224E-004 -3.605944465580602E-004 -2.945464390639585E-004 -2.328418572506985E-004 
-1.769039634192948E-004 -1.279162249963606E-004 -8.676499996601583E-005 -5.397748591107199E-005 
-2.965492435347272E-005 -1.340110644582060E-005 -4.246290474407832E-006 -5.667174753365423E-007 
-1.665334536937735E-016  0.000000000000000E+000  0.000000000000000E+000  0.000000000000000E+000 
 0.000000000000000E+000  0.000000000000000E+000  0.000000000000000E+000  0.000000000000000E+000 
 0.000000000000000E+000  0.000000000000000E+000  0.000000000000000E+000  0.000000000000000E+000 
 0.000000000000000E+000  0.000000000000000E+000  0.000000000000000E+000  0.000000000000000E+000 
 0.000000000000000E+000  0.000000000000000E+000  0.000000000000000E+000  0.000000000000000E+000 
 0.000000000000000E+000  0.000000000000000E+000  0.000000000000000E+000  0.000000000000000E+000 
 0.000000000000000E+000  0.000000000000000E+000  0.000000000000000E+000  0.000000000000000E+000 
 0.000000000000000E+000  0.000000000000000E+000  0.000000000000000E+000  0.000000000000000E+000 
 0.000000000000000E+000  0.000000000000000E+000  0.000000000000000E+000  0.000000000000000E+000 
 0.000000000000000E+000  0.000000000000000E+000  0.000000000000000E+000  0.000000000000000E+000 
 0.000000000000000E+000  0.000000000000000E+000  0.000000000000000E+000  0.000000000000000E+000 
 0.000000000000000E+000  0.000000000000000E+000  0.000000000000000E+000  0.000000000000000E+000 
 0.000000000000000E+000  0.000000000000000E+000  0.000000000000000E+000  0.000000000000000E+000 
 0.000000000000000E+000  0.000000000000000E+000  0.000000000000000E+000  0.000000000000000E+000 
 0.000000000000000E+000  0.000000000000000E+000  0.000000000000000E+000  0.000000000000000E+000 
 0.000000000000000E+000  0.000000000000000E+000  0.000000000000000E+000  0.000000000000000E+000 
 0.000000000000000E+000  0.000000000000000E+000  0.000000000000000E+000  0.000000000000000E+000 
 0.000000000000000E+000  0.000000000000000E+000  0.000000000000000E+000  0.000000000000000E+000 
 0.000000000000000E+000  0.000000000000000E+000  0.000000000000000E+000  0.000000000000000E+000 
 0.000000000000000E+000  0.000000000000000E+000  0.000000000000000E+000  0.000000000000000E+000 
 0.000000000000000E+000  0.000000000000000E+000  0.000000000000000E+000  0.000000000000000E+000 
 0.000000000000000E+000  0.000000000000000E+000  0.000000000000000E+000  0.000000000000000E+000 
 0.000000000000000E+000  0.000000000000000E+000  0.000000000000000E+000  0.000000000000000E+000 
 0.000000000000000E+000  0.000000000000000E+000  0.000000000000000E+000  0.000000000000000E+000 
 0.000000000000000E+000  0.000000000000000E+000  0.000000000000000E+000  0.000000000000000E+000 
 0.000000000000000E+000  0.000000000000000E+000  0.000000000000000E+000  0.000000000000000E+000 
 0.000000000000000E+000  0.000000000000000E+000  0.000000000000000E+000  0.000000000000000E+000 
 0.000000000000000E+000  0.000000000000000E+000  0.000000000000000E+000  0.000000000000000E+000 
 0.000000000000000E+000  0.000000000000000E+000  0.000000000000000E+000  0.000000000000000E+000 
 0.000000000000000E+000  0.000000000000000E+000  0.000000000000000E+000  0.000000000000000E+000 
 0.000000000000000E+000  0.000000000000000E+000  0.000000000000000E+000  0.000000000000000E+000 
 0.000000000000000E+000  0.000000000000000E+000  0.000000000000000E+000  0.000000000000000E+000 
 0.000000000000000E+000  0.000000000000000E+000  0.000000000000000E+000  0.000000000000000E+000 
 0.000000000000000E+000  0.000000000000000E+000  0.000000000000000E+000  0.000000000000000E+000 
 0.000000000000000E+000  0.000000000000000E+000  0.000000000000000E+000  0.000000000000000E+000 
 0.000000000000000E+000  0.000000000000000E+000  0.000000000000000E+000  0.000000000000000E+000 
 0.000000000000000E+000  0.000000000000000E+000  0.000000000000000E+000  0.000000000000000E+000 
 0.000000000000000E+000  0.000000000000000E+000  0.000000000000000E+000  0.000000000000000E+000 
 0.000000000000000E+000  0.000000000000000E+000  0.000000000000000E+000  0.000000000000000E+000 
 0.000000000000000E+000  0.000000000000000E+000  0.000000000000000E+000  0.000000000000000E+000 
 0.000000000000000E+000  0.000000000000000E+000  0.000000000000000E+000  0.000000000000000E+000 
 0.000000000000000E+000  0.000000000000000E+000  0.000000000000000E+000  0.000000000000000E+000 
 0.000000000000000E+000  0.000000000000000E+000  0.000000000000000E+000  0.000000000000000E+000 
 0.000000000000000E+000  0.000000000000000E+000  0.000000000000000E+000  0.000000000000000E+000 
 0.000000000000000E+000  0.000000000000000E+000  0.000000000000000E+000  0.000000000000000E+000 
 0.000000000000000E+000  0.000000000000000E+000  0.000000000000000E+000  0.000000000000000E+000 
 0.000000000000000E+000  0.000000000000000E+000  0.000000000000000E+000  0.000000000000000E+000 
 0.000000000000000E+000  0.000000000000000E+000  0.000000000000000E+000  0.000000000000000E+000 
 0.000000000000000E+000  0.000000000000000E+000  0.000000000000000E+000  0.000000000000000E+000 
 0.000000000000000E+000  0.000000000000000E+000  0.000000000000000E+000  0.000000000000000E+000 
 0.000000000000000E+000  0.000000000000000E+000  0.000000000000000E+000  0.000000000000000E+000 
 0.000000000000000E+000  0.000000000000000E+000  0.000000000000000E+000  0.000000000000000E+000 
 0.000000000000000E+000  0.000000000000000E+000  0.000000000000000E+000  0.000000000000000E+000 
 0.000000000000000E+000  0.000000000000000E+000  0.000000000000000E+000  0.000000000000000E+000 
 0.000000000000000E+000  0.000000000000000E+000  0.000000000000000E+000  0.000000000000000E+000 
 0.000000000000000E+000  0.000000000000000E+000  0.000000000000000E+000  0.000000000000000E+000 
 0.000000000000000E+000  0.000000000000000E+000  0.000000000000000E+000  0.000000000000000E+000 
 0.000000000000000E+000  0.000000000000000E+000  0.000000000000000E+000  0.000000000000000E+000 
 0.000000000000000E+000  0.000000000000000E+000  0.000000000000000E+000  0.000000000000000E+000 
 0.000000000000000E+000  0.000000000000000E+000  0.000000000000000E+000  0.000000000000000E+000 
 0.000000000000000E+000  0.000000000000000E+000  0.000000000000000E+000  0.000000000000000E+000 
 0.000000000000000E+000  0.000000000000000E+000  0.000000000000000E+000  0.000000000000000E+000 
 0.000000000000000E+000  0.000000000000000E+000  0.000000000000000E+000  0.000000000000000E+000 
 0.000000000000000E+000  0.000000000000000E+000  0.000000000000000E+000  0.000000000000000E+000 
 0.000000000000000E+000  0.000000000000000E+000  0.000000000000000E+000  0.000000000000000E+000 
 0.000000000000000E+000  0.000000000000000E+000  0.000000000000000E+000  0.000000000000000E+000 
 0.000000000000000E+000  0.000000000000000E+000  0.000000000000000E+000  0.000000000000000E+000 
 0.000000000000000E+000  0.000000000000000E+000  0.000000000000000E+000  0.000000000000000E+000 
 0.000000000000000E+000  0.000000000000000E+000  0.000000000000000E+000  0.000000000000000E+000 
 0.000000000000000E+000  0.000000000000000E+000  0.000000000000000E+000  0.000000000000000E+000 
 0.000000000000000E+000  0.000000000000000E+000  0.000000000000000E+000  0.000000000000000E+000 
 0.000000000000000E+000  0.000000000000000E+000  0.000000000000000E+000  0.000000000000000E+000 
 0.000000000000000E+000  0.000000000000000E+000  0.000000000000000E+000  0.000000000000000E+000 
 0.000000000000000E+000  0.000000000000000E+000  0.000000000000000E+000  0.000000000000000E+000 
 0.000000000000000E+000  0.000000000000000E+000  0.000000000000000E+000  0.000000000000000E+000 
 0.000000000000000E+000  0.000000000000000E+000  0.000000000000000E+000  0.000000000000000E+000 
 0.000000000000000E+000  0.000000000000000E+000  0.000000000000000E+000  0.000000000000000E+000 
 0.000000000000000E+000  0.000000000000000E+000  0.000000000000000E+000  0.000000000000000E+000 
 0.000000000000000E+000  0.000000000000000E+000  0.000000000000000E+000  0.000000000000000E+000 
 0.000000000000000E+000  0.000000000000000E+000  0.000000000000000E+000  0.000000000000000E+000 
 0.000000000000000E+000  0.000000000000000E+000  0.000000000000000E+000  0.000000000000000E+000 
 0.000000000000000E+000  0.000000000000000E+000  0.000000000000000E+000  0.000000000000000E+000 
 0.000000000000000E+000  0.000000000000000E+000  0.000000000000000E+000  0.000000000000000E+000 
 0.000000000000000E+000  0.000000000000000E+000  0.000000000000000E+000  0.000000000000000E+000 
 0.000000000000000E+000  0.000000000000000E+000  0.000000000000000E+000  0.000000000000000E+000 
 0.000000000000000E+000  0.000000000000000E+000  0.000000000000000E+000  0.000000000000000E+000 
 0.000000000000000E+000  0.000000000000000E+000  0.000000000000000E+000  0.000000000000000E+000 
 0.000000000000000E+000  0.000000000000000E+000  0.000000000000000E+000  0.000000000000000E+000 
 0.000000000000000E+000  0.000000000000000E+000  0.000000000000000E+000  0.000000000000000E+000 
 0.000000000000000E+000  0.000000000000000E+000  0.000000000000000E+000  0.000000000000000E+000 
 0.000000000000000E+000  0.000000000000000E+000  0.000000000000000E+000  0.000000000000000E+000 
 0.000000000000000E+000  0.000000000000000E+000  0.000000000000000E+000  0.000000000000000E+000 
 0.000000000000000E+000
      </PP_QIJL.1.1.0>
      <PP_QIJL.1.2.0 type="real" size="929" columns="4" first_index="1" second_index="2" composite_index="2" angular_momentum="0">
 5.389445241162756E-007  5.525878700579158E-007  5.665765938376695E-007  5.809194384752039E-007 
 5.956253683073561E-007  6.107035745901107E-007  6.261634812423630E-007  6.420147507350502E-007 
 6.582672901293204E-007  6.749312572675295E-007  6.920170671209062E-007  7.095353982978741E-007 
 7.274971997170826E-007  7.459136974493134E-007  7.647964017325462E-007  7.841571141645423E-007 
 8.040079350774637E-007  8.243612710991160E-007  8.452298429055375E-007  8.666266931697891E-007 
 8.885651947118806E-007  9.110590588549532E-007  9.341223439929157E-007  9.577694643748887E-007 
 9.820151991119460E-007  1.006874701411759E-006  1.032363508046936E-006  1.058497549062945E-006 
 1.085293157731686E-006  1.112767080756941E-006  1.140936488738033E-006  1.169818986898280E-006 
 1.199432626084889E-006  1.229795914047191E-006  1.260927827000242E-006  1.292847821480993E-006 
 1.325575846504461E-006  1.359132356027459E-006  1.393538321727667E-006  1.428815246106046E-006 
 1.464985175920709E-006  1.502070715960710E-006  1.540095043168273E-006  1.579081921118320E-006 
 1.619055714864320E-006  1.660041406159682E-006  1.702064609064255E-006  1.745151585945617E-006 
 1.789329263885149E-006  1.834625251499142E-006  1.881067856185388E-006  1.928686101806060E-006 
 1.977509746817874E-006  2.027569302860846E-006  2.078896053817251E-006  2.131522075352625E-006 
 2.185480254951045E-006  2.240804312457146E-006  2.297528821137675E-006  2.355689229275751E-006 
 2.415321882311213E-006  2.476464045540947E-006  2.539153927393273E-006  2.603430703290910E-006 
 2.669334540117425E-006  2.736906621302328E-006  2.806189172540534E-006  2.877225488162155E-006 
 2.950059958169051E-006  3.024738095955031E-006  3.101306566726867E-006  3.179813216643932E-006 
 3.260307102694534E-006  3.342838523327556E-006  3.427459049858524E-006  3.514221558669548E-006 
 3.603180264223287E-006  3.694390752911430E-006  3.787910017758750E-006  3.883796494004365E-006 
 3.982110095582263E-006  4.082912252523898E-006  4.186265949306013E-006  4.292235764167604E-006 
 4.400887909420479E-006  4.512290272778374E-006  4.626512459730485E-006  4.743625836985601E-006 
 4.863703577013931E-006  4.986820703714291E-006  5.113054139234939E-006  5.242482751977287E-006 
 5.375187405812195E-006  5.511251010539451E-006  5.650758573621792E-006  5.793797253225487E-006 
 5.940456412600557E-006  6.090827675834232E-006  6.245004985012349E-006  6.403084658824101E-006 
 6.565165452646428E-006  6.731348620145481E-006  6.901737976433157E-006  7.076439962817979E-006 
 7.255563713190463E-006  7.439221122083929E-006  7.627526914453170E-006  7.820598717214005E-006 
 8.018557132588104E-006  8.221525813298484E-006  8.429631539662097E-006  8.643004298627418E-006 
 8.861777364805755E-006  9.086087383546439E-006  9.316074456107341E-006  9.551882226973120E-006 
 9.793657973375482E-006  1.004155269707048E-005  1.029572121842965E-005  1.055632227290312E-005 
 1.082351860991398E-005  1.109747709424530E-005  1.137836880998195E-005  1.166636916707158E-005 
 1.196165801057034E-005  1.226441973264048E-005  1.257484338736919E-005  1.289312280847889E-005 
 1.321945673000187E-005  1.355404890999318E-005  1.389710825735790E-005  1.424884896187089E-005 
 1.460949062746878E-005  1.497925840889604E-005  1.535838315178916E-005  1.574710153628451E-005 
 1.614565622423851E-005  1.655429601014982E-005  1.697327597587633E-005  1.740285764924165E-005 
 1.784330916662784E-005  1.829490543965443E-005  1.875792832604503E-005  1.923266680478634E-005 
 1.971941715568629E-005  2.021848314344091E-005  2.073017620632226E-005  2.125481564960251E-005 
 2.179272884383157E-005  2.234425142808968E-005  2.290972751833768E-005  2.348950992099239E-005 
 2.408396035185647E-005  2.469344966053558E-005  2.531835806047933E-005  2.595907536478466E-005 
 2.661600122790538E-005  2.728954539341353E-005  2.798012794796229E-005  2.868817958160440E-005 
 2.941414185462223E-005  3.015846747103145E-005  3.092162055892225E-005  3.170407695780717E-005 
 3.250632451314840E-005  3.332886337824048E-005  3.417220632363161E-005  3.503687905426616E-005 
 3.592342053454078E-005  3.683238332146729E-005  3.776433390614059E-005  3.871985306371780E-005 
 3.969953621211392E-005  4.070399377963007E-005  4.173385158173176E-005  4.278975120719991E-005 
 4.387235041388623E-005  4.498232353430359E-005  4.612036189129400E-005  4.728717422401859E-005 
 4.848348712451919E-005  4.971004548511173E-005  5.096761295687006E-005  5.225697241947263E-005 
 5.357892646268539E-005  5.493429787976144E-005  5.632393017304876E-005  5.774868807209561E-005 
 5.920945806455866E-005  6.070714894022059E-005  6.224269234843014E-005  6.381704336929126E-005 
 6.543118109892502E-005  6.708610924914554E-005  6.878285676189231E-005  7.052247843876930E-005 
 7.230605558605478E-005  7.413469667554392E-005  7.600953802160446E-005  7.793174447482788E-005 
 7.990251013266562E-005  8.192305906745748E-005  8.399464607225400E-005  8.611855742485717E-005 
 8.829611167050423E-005  9.052866042362875E-005  9.281758918915038E-005  9.516431820374082E-005 
 9.757030329753606E-005  1.000370367767671E-004  1.025660483277899E-004  1.051589059430156E-004 
 1.078172168692358E-004  1.105426285788638E-004  1.133368297646138E-004  1.162015513581491E-004 
 1.191385675732537E-004  1.221496969740713E-004  1.252368035689882E-004  1.284017979307342E-004 
 1.316466383432854E-004  1.349733319761795E-004  1.383839360868421E-004  1.418805592515541E-004 
 1.454653626256923E-004  1.491405612338824E-004  1.529084252907314E-004  1.567712815527944E-004 
 1.607315147024643E-004  1.647915687644720E-004  1.689539485556957E-004  1.732212211690023E-004 
 1.775960174918335E-004  1.820810337602839E-004  1.866790331494160E-004  1.913928474005646E-004 
 1.962253784864162E-004  2.011796003146273E-004  2.062585604707877E-004  2.114653820015285E-004 
 2.168032652385812E-004  2.222754896646291E-004  2.278854158217652E-004  2.336364872634180E-004 
 2.395322325505904E-004  2.455762672932749E-004  2.517722962379224E-004  2.581241154018377E-004 
 2.646356142553959E-004  2.713107779529732E-004  2.781536896134909E-004  2.851685326514891E-004 
 2.923595931596339E-004  2.997312623435871E-004  3.072880390101541E-004  3.150345321096368E-004 
 3.229754633333252E-004  3.311156697670470E-004  3.394601066017152E-004  3.480138499017955E-004 
 3.567820994326194E-004  3.657701815474706E-004  3.749835521353551E-004  3.844277996303722E-004 
 3.941086480835864E-004  4.040319602982887E-004  4.142037410295384E-004  4.246301402488396E-004 
 4.353174564748135E-004  4.462721401706963E-004  4.575007972094696E-004  4.690101924074227E-004 
 4.808072531268980E-004  4.928990729489636E-004  5.052929154167102E-004  5.179962178498386E-004 
 5.310165952311727E-004  5.443618441656728E-004  5.580399469125019E-004  5.720590754906276E-004 
 5.864275958583913E-004  6.011540721674313E-004  6.162472710912572E-004  6.317161662287308E-004 
 6.475699425826115E-004  6.638180011132549E-004  6.804699633674688E-004  6.975356761824245E-004 
 7.150252164644378E-004  7.329488960423194E-004  7.513172665948660E-004  7.701411246519785E-004 
 7.894315166687095E-004  8.091997441714548E-004  8.294573689753222E-004  8.502162184715484E-004 
 8.714883909837026E-004  8.932862611911807E-004  9.156224856183560E-004  9.385100081875105E-004 
 9.619620658334624E-004  9.859921941776030E-004  1.010614233258763E-003  1.035842333318120E-003 
 1.061690960635052E-003  1.088174903410557E-003  1.115309277694582E-003  1.143109533353221E-003 
 1.171591460071468E-003  1.200771193386787E-003  1.230665220748426E-003  1.261290387596959E-003 
 1.292663903458146E-003  1.324803348044722E-003  1.357726677359284E-003  1.391452229790894E-003 
 1.425998732197561E-003  1.461385305966127E-003  1.497631473040577E-003  1.534757161909113E-003 
 1.572782713539722E-003  1.611728887253287E-003  1.651616866522545E-003  1.692468264684486E-003 
 1.734305130552964E-003  1.777149953917498E-003  1.821025670913301E-003  1.865955669246779E-003 
 1.911963793259668E-003  1.959074348814050E-003  2.007312107979420E-003  2.056702313501837E-003 
 2.107270683034134E-003  2.159043413104848E-003  2.212047182802355E-003  2.266309157149349E-003 
 2.321856990141374E-003  2.378718827421819E-003  2.436923308564118E-003  2.496499568930463E-003 
 2.557477241074627E-003  2.619886455654801E-003  2.683757841820634E-003  2.749122527036720E-003 
 2.816012136302932E-003  2.884458790729962E-003  2.954495105426313E-003  3.026154186650927E-003 
 3.099469628183265E-003  3.174475506860394E-003  3.251206377228210E-003  3.329697265251339E-003 
 3.409983661023830E-003  3.492101510419850E-003  3.576087205620967E-003  3.661977574453679E-003 
 3.749809868467811E-003  3.839621749683485E-003  3.931451275931044E-003  4.025336884705168E-003 
 4.121317375451043E-003  4.219431890196920E-003  4.319719892444055E-003  4.422221144221182E-003 
 4.526975681207110E-003  4.634023785821206E-003  4.743405958177538E-003  4.855162884794765E-003 
 4.969335404949506E-003  5.085964474557114E-003  5.205091127459498E-003  5.326756433995387E-003 
 5.451001456724441E-003  5.577867203172019E-003  5.707394575457422E-003  5.839624316663993E-003 
 5.974596953805117E-003  6.112352737236180E-003  6.252931576358011E-003  6.396372971453427E-003 
 6.542715941494383E-003  6.691998947753128E-003  6.844259813047304E-003  6.999535636444950E-003 
 7.157862703252087E-003  7.319276390102348E-003  7.483811064965256E-003  7.651499981886803E-003 
 7.822375170274298E-003  7.996467318535009E-003  8.173805651877097E-003  8.354417804080394E-003 
 8.538329683044049E-003  8.725565329918868E-003  8.916146771632699E-003  9.110093866619505E-003 
 9.307424143565200E-003  9.508152632987082E-003  9.712291691468500E-003  9.919850818376215E-003 
 1.013083646489494E-002  1.034525183522232E-002  1.056309667977713E-002  1.078436708028579E-002 
 1.100905522662480E-002  1.123714918531264E-002  1.146863265956161E-002  1.170348474081941E-002 
 1.194167965175266E-002  1.218318648064816E-002  1.242796890723546E-002  1.267598491996369E-002 
 1.292718652479899E-002  1.318151944564527E-002  1.343892281653057E-002  1.369932886574523E-002 
 1.396266259216540E-002  1.422884143404695E-002  1.449777493063157E-002  1.476936437696675E-002 
 1.504350247240764E-002  1.532007296333928E-002  1.559895028073355E-002  1.587999917323746E-002 
 1.616307433657650E-002  1.644802004015034E-002  1.673466975179856E-002  1.702284576181950E-002 
 1.731235880743948E-002  1.760300769904842E-002  1.789457894964541E-002  1.818684640907140E-002 
 1.847957090474709E-002  1.877249989078290E-002  1.906536710748276E-002  1.935789225342662E-002 
 1.964978067248591E-002  1.994072305830252E-002  2.023039517894569E-002  2.051845762464931E-002 
 2.080455558172816E-002  2.108831863597117E-002  2.136936060901462E-002  2.164727943140679E-002 
 2.192165705628624E-002  2.219205941780878E-002  2.245803643867107E-002  2.271912209129009E-002 
 2.297483451740703E-002  2.322467621108708E-002  2.346813427028407E-002  2.370468072232542E-002 
 2.393377292884791E-002  2.415485407587467E-002  2.436735375486412E-002  2.457068864068075E-002 
 2.476426327252974E-002  2.494747094395896E-002  2.511969470805851E-002  2.528030850397327E-002 
 2.542867841078367E-002  2.556416403469759E-002  2.568612003532553E-002  2.579389779657592E-002 
 2.588684724739928E-002  2.596431883722355E-002  2.602566567044835E-002  2.607024580379654E-002 
 2.609742470964920E-002  2.610657790770468E-002  2.609709376639832E-002  2.606837647448458E-002 
 2.601984918201264E-002  2.595095730860916E-002  2.586117201551177E-002  2.574999383616513E-002 
 2.561695645839357E-002  2.546163064919201E-002  2.528362831102872E-002  2.508260665622352E-002 
 2.485827248345524E-002  2.461038653776123E-002  2.433876793252374E-002  2.404329860890100E-002 
 2.372392780496241E-002  2.338067650344295E-002  2.301364182355877E-002  2.262300131874922E-002 
 2.220901713855390E-002  2.177204000913845E-002  2.131251298328406E-002  2.083097490700618E-002 
 2.032806354642161E-002  1.980451831510517E-002  1.926118253904142E-002  1.869900519346526E-002 
 1.811904204349028E-002  1.752245611854858E-002  1.691051744941922E-002  1.628460199613224E-002 
 1.564618969542576E-002  1.499686155785040E-002  1.433829574720514E-002  1.367226257890321E-002 
 1.300061837927226E-002  1.232529815484490E-002  1.164830702956115E-002  1.097171041864094E-002 
 1.029762292084093E-002  9.628195926029808E-003  8.965603952614485E-003  8.312029749424603E-003 
 7.669648219279559E-003  7.040609246637493E-003  6.427019539439817E-003  5.830923625422277E-003 
 5.254284175609035E-003  4.698961862195658E-003  4.166694994216140E-003  3.659079211835251E-003 
 3.177547558229679E-003  2.723351286115149E-003  2.297541793180760E-003  1.900954115983235E-003 
 1.534192444045729E-003  1.197618143621041E-003  8.913408022655682E-004  6.152128192898768E-004 
 3.688280713828847E-004  1.515251751712642E-004 -3.760415306334249E-005 -1.997011781701228E-004 
-3.361202617330750E-004 -4.484026846751608E-004 -5.382439505202483E-004 -6.074544703183350E-004 
-6.579136854879090E-004 -6.915178696483195E-004 -7.101220660756212E-004 -7.154768642282736E-004 
-7.091609965173239E-004 -6.925110437621500E-004 -6.665498719301277E-004 -6.319157796703650E-004 
-5.891173662080362E-004 -5.396357422757236E-004 -4.852579478289987E-004 -4.277760289881360E-004 
-3.689580585639618E-004 -3.105157594824881E-004 -2.540686342371590E-004 -2.011045279132762E-004 
-1.529365815897687E-004 -1.106565675980664E-004 -7.508463887107020E-005 -4.671557219942946E-005 
-2.566164040745944E-005 -1.159231219594048E-005 -3.671051579723361E-006 -4.895725653208949E-007 
-1.665334536937735E-016  0.000000000000000E+000  0.000000000000000E+000  0.000000000000000E+000 
 0.000000000000000E+000  0.000000000000000E+000  0.000000000000000E+000  0.000000000000000E+000 
 0.000000000000000E+000  0.000000000000000E+000  0.000000000000000E+000  0.000000000000000E+000 
 0.000000000000000E+000  0.000000000000000E+000  0.000000000000000E+000  0.000000000000000E+000 
 0.000000000000000E+000  0.000000000000000E+000  0.000000000000000E+000  0.000000000000000E+000 
 0.000000000000000E+000  0.000000000000000E+000  0.000000000000000E+000  0.000000000000000E+000 
 0.000000000000000E+000  0.000000000000000E+000  0.000000000000000E+000  0.000000000000000E+000 
 0.000000000000000E+000  0.000000000000000E+000  0.000000000000000E+000  0.000000000000000E+000 
 0.000000000000000E+000  0.000000000000000E+000  0.000000000000000E+000  0.000000000000000E+000 
 0.000000000000000E+000  0.000000000000000E+000  0.000000000000000E+000  0.000000000000000E+000 
 0.000000000000000E+000  0.000000000000000E+000  0.000000000000000E+000  0.000000000000000E+000 
 0.000000000000000E+000  0.000000000000000E+000  0.000000000000000E+000  0.000000000000000E+000 
 0.000000000000000E+000  0.000000000000000E+000  0.000000000000000E+000  0.000000000000000E+000 
 0.000000000000000E+000  0.000000000000000E+000  0.000000000000000E+000  0.000000000000000E+000 
 0.000000000000000E+000  0.000000000000000E+000  0.000000000000000E+000  0.000000000000000E+000 
 0.000000000000000E+000  0.000000000000000E+000  0.000000000000000E+000  0.000000000000000E+000 
 0.000000000000000E+000  0.000000000000000E+000  0.000000000000000E+000  0.000000000000000E+000 
 0.000000000000000E+000  0.000000000000000E+000  0.000000000000000E+000  0.000000000000000E+000 
 0.000000000000000E+000  0.000000000000000E+000  0.000000000000000E+000  0.000000000000000E+000 
 0.000000000000000E+000  0.000000000000000E+000  0.000000000000000E+000  0.000000000000000E+000 
 0.000000000000000E+000  0.000000000000000E+000  0.000000000000000E+000  0.000000000000000E+000 
 0.000000000000000E+000  0.000000000000000E+000  0.000000000000000E+000  0.000000000000000E+000 
 0.000000000000000E+000  0.000000000000000E+000  0.000000000000000E+000  0.000000000000000E+000 
 0.000000000000000E+000  0.000000000000000E+000  0.000000000000000E+000  0.000000000000000E+000 
 0.000000000000000E+000  0.000000000000000E+000  0.000000000000000E+000  0.000000000000000E+000 
 0.000000000000000E+000  0.000000000000000E+000  0.000000000000000E+000  0.000000000000000E+000 
 0.000000000000000E+000  0.000000000000000E+000  0.000000000000000E+000  0.000000000000000E+000 
 0.000000000000000E+000  0.000000000000000E+000  0.000000000000000E+000  0.000000000000000E+000 
 0.000000000000000E+000  0.000000000000000E+000  0.000000000000000E+000  0.000000000000000E+000 
 0.000000000000000E+000  0.000000000000000E+000  0.000000000000000E+000  0.000000000000000E+000 
 0.000000000000000E+000  0.000000000000000E+000  0.000000000000000E+000  0.000000000000000E+000 
 0.000000000000000E+000  0.000000000000000E+000  0.000000000000000E+000  0.000000000000000E+000 
 0.000000000000000E+000  0.000000000000000E+000  0.000000000000000E+000  0.000000000000000E+000 
 0.000000000000000E+000  0.000000000000000E+000  0.000000000000000E+000  0.000000000000000E+000 
 0.000000000000000E+000  0.000000000000000E+000  0.000000000000000E+000  0.000000000000000E+000 
 0.000000000000000E+000  0.000000000000000E+000  0.000000000000000E+000  0.000000000000000E+000 
 0.000000000000000E+000  0.000000000000000E+000  0.000000000000000E+000  0.000000000000000E+000 
 0.000000000000000E+000  0.000000000000000E+000  0.000000000000000E+000  0.000000000000000E+000 
 0.000000000000000E+000  0.000000000000000E+000  0.000000000000000E+000  0.000000000000000E+000 
 0.000000000000000E+000  0.000000000000000E+000  0.000000000000000E+000  0.000000000000000E+000 
 0.000000000000000E+000  0.000000000000000E+000  0.000000000000000E+000  0.000000000000000E+000 
 0.000000000000000E+000  0.000000000000000E+000  0.000000000000000E+000  0.000000000000000E+000 
 0.000000000000000E+000  0.000000000000000E+000  0.000000000000000E+000  0.000000000000000E+000 
 0.000000000000000E+000  0.000000000000000E+000  0.000000000000000E+000  0.000000000000000E+000 
 0.000000000000000E+000  0.000000000000000E+000  0.000000000000000E+000  0.000000000000000E+000 
 0.000000000000000E+000  0.000000000000000E+000  0.000000000000000E+000  0.000000000000000E+000 
 0.000000000000000E+000  0.000000000000000E+000  0.000000000000000E+000  0.000000000000000E+000 
 0.000000000000000E+000  0.000000000000000E+000  0.000000000000000E+000  0.000000000000000E+000 
 0.000000000000000E+000  0.000000000000000E+000  0.000000000000000E+000  0.000000000000000E+000 
 0.000000000000000E+000  0.000000000000000E+000  0.000000000000000E+000  0.000000000000000E+000 
 0.000000000000000E+000  0.000000000000000E+000  0.000000000000000E+000  0.000000000000000E+000 
 0.000000000000000E+000  0.000000000000000E+000  0.000000000000000E+000  0.000000000000000E+000 
 0.000000000000000E+000  0.000000000000000E+000  0.000000000000000E+000  0.000000000000000E+000 
 0.000000000000000E+000  0.000000000000000E+000  0.000000000000000E+000  0.000000000000000E+000 
 0.000000000000000E+000  0.000000000000000E+000  0.000000000000000E+000  0.000000000000000E+000 
 0.000000000000000E+000  0.000000000000000E+000  0.000000000000000E+000  0.000000000000000E+000 
 0.000000000000000E+000  0.000000000000000E+000  0.000000000000000E+000  0.000000000000000E+000 
 0.000000000000000E+000  0.000000000000000E+000  0.000000000000000E+000  0.000000000000000E+000 
 0.000000000000000E+000  0.000000000000000E+000  0.000000000000000E+000  0.000000000000000E+000 
 0.000000000000000E+000  0.000000000000000E+000  0.000000000000000E+000  0.000000000000000E+000 
 0.000000000000000E+000  0.000000000000000E+000  0.000000000000000E+000  0.000000000000000E+000 
 0.000000000000000E+000  0.000000000000000E+000  0.000000000000000E+000  0.000000000000000E+000 
 0.000000000000000E+000  0.000000000000000E+000  0.000000000000000E+000  0.000000000000000E+000 
 0.000000000000000E+000  0.000000000000000E+000  0.000000000000000E+000  0.000000000000000E+000 
 0.000000000000000E+000  0.000000000000000E+000  0.000000000000000E+000  0.000000000000000E+000 
 0.000000000000000E+000  0.000000000000000E+000  0.000000000000000E+000  0.000000000000000E+000 
 0.000000000000000E+000  0.000000000000000E+000  0.000000000000000E+000  0.000000000000000E+000 
 0.000000000000000E+000  0.000000000000000E+000  0.000000000000000E+000  0.000000000000000E+000 
 0.000000000000000E+000  0.000000000000000E+000  0.000000000000000E+000  0.000000000000000E+000 
 0.000000000000000E+000  0.000000000000000E+000  0.000000000000000E+000  0.000000000000000E+000 
 0.000000000000000E+000  0.000000000000000E+000  0.000000000000000E+000  0.000000000000000E+000 
 0.000000000000000E+000  0.000000000000000E+000  0.000000000000000E+000  0.000000000000000E+000 
 0.000000000000000E+000  0.000000000000000E+000  0.000000000000000E+000  0.000000000000000E+000 
 0.000000000000000E+000  0.000000000000000E+000  0.000000000000000E+000  0.000000000000000E+000 
 0.000000000000000E+000  0.000000000000000E+000  0.000000000000000E+000  0.000000000000000E+000 
 0.000000000000000E+000  0.000000000000000E+000  0.000000000000000E+000  0.000000000000000E+000 
 0.000000000000000E+000  0.000000000000000E+000  0.000000000000000E+000  0.000000000000000E+000 
 0.000000000000000E+000  0.000000000000000E+000  0.000000000000000E+000  0.000000000000000E+000 
 0.000000000000000E+000  0.000000000000000E+000  0.000000000000000E+000  0.000000000000000E+000 
 0.000000000000000E+000  0.000000000000000E+000  0.000000000000000E+000  0.000000000000000E+000 
 0.000000000000000E+000  0.000000000000000E+000  0.000000000000000E+000  0.000000000000000E+000 
 0.000000000000000E+000  0.000000000000000E+000  0.000000000000000E+000  0.000000000000000E+000 
 0.000000000000000E+000  0.000000000000000E+000  0.000000000000000E+000  0.000000000000000E+000 
 0.000000000000000E+000  0.000000000000000E+000  0.000000000000000E+000  0.000000000000000E+000 
 0.000000000000000E+000  0.000000000000000E+000  0.000000000000000E+000  0.000000000000000E+000 
 0.000000000000000E+000  0.000000000000000E+000  0.000000000000000E+000  0.000000000000000E+000 
 0.000000000000000E+000  0.000000000000000E+000  0.000000000000000E+000  0.000000000000000E+000 
 0.000000000000000E+000  0.000000000000000E+000  0.000000000000000E+000  0.000000000000000E+000 
 0.000000000000000E+000  0.000000000000000E+000  0.000000000000000E+000  0.000000000000000E+000 
 0.000000000000000E+000  0.000000000000000E+000  0.000000000000000E+000  0.000000000000000E+000 
 0.000000000000000E+000  0.000000000000000E+000  0.000000000000000E+000  0.000000000000000E+000 
 0.000000000000000E+000  0.000000000000000E+000  0.000000000000000E+000  0.000000000000000E+000 
 0.000000000000000E+000
      </PP_QIJL.1.2.0>
      <PP_QIJL.2.2.0 type="real" size="929" columns="4" first_index="2" second_index="2" composite_index="3" angular_momentum="0">
 5.306007419670952E-007  5.440328664090943E-007  5.578050217120288E-007  5.719258155423746E-007 
 5.864040734576119E-007  6.012488444214853E-007  6.164694064588554E-007  6.320752724536673E-007 
 6.480761960936516E-007  6.644821779654872E-007  6.813034718042066E-007  6.985505909007735E-007 
 7.162343146718188E-007  7.343656953956377E-007  7.529560651186696E-007  7.720170427367433E-007 
 7.915605412555442E-007  8.115987752348164E-007  8.321442684209486E-007  8.532098615727247E-007 
 8.748087204850989E-007  8.969543442160340E-007  9.196605735215206E-007  9.429415995040506E-007 
 9.668119724799467E-007  9.912866110710671E-007  1.016380811526593E-006  1.042110257280684E-006 
 1.068491028751990E-006  1.095539613391137E-006  1.123272915982432E-006  1.151708269206258E-006 
 1.180863444468716E-006  1.210756663005297E-006  1.241406607265502E-006  1.272832432585512E-006 
 1.305053779156210E-006  1.338090784294000E-006  1.371964095022103E-006  1.406694880970177E-006 
 1.442304847600268E-006  1.478816249767429E-006  1.516251905623382E-006  1.554635210871946E-006 
 1.593990153385129E-006  1.634341328188945E-006  1.675713952828386E-006  1.718133883121071E-006 
 1.761627629309421E-006  1.806222372621444E-006  1.851945982250423E-006  1.898827032764145E-006 
 1.946894821954492E-006  1.996179389138529E-006  2.046711533922533E-006  2.098522835440587E-006 
 2.151645672079835E-006  2.206113241704608E-006  2.261959582392071E-006  2.319219593692330E-006 
 2.377929058426177E-006  2.438124665034158E-006  2.499844030490828E-006  2.563125723798468E-006 
 2.628009290074965E-006  2.694535275250765E-006  2.762745251390389E-006  2.832681842654214E-006 
 2.904388751916710E-006  2.977910788057756E-006  3.053293893943930E-006  3.130585175117308E-006 
 3.209832929209583E-006  3.291086676099797E-006  3.374397188834539E-006  3.459816525329731E-006 
 3.547398060873878E-006  3.637196521452905E-006  3.729268017917359E-006  3.823670081013259E-006 
 3.920461697298304E-006  4.019703345965899E-006  4.121457036599819E-006  4.225786347883010E-006 
 4.332756467284636E-006  4.442434231749973E-006  4.554888169418530E-006  4.670188542396276E-006 
 4.788407390608568E-006  4.909618576761074E-006  5.033897832436506E-006  5.161322805355963E-006 
 5.291973107834127E-006  5.425930366458439E-006  5.563278273023133E-006  5.704102636749639E-006 
 5.848491437825962E-006  5.996534882298060E-006  6.148325458347440E-006  6.303957993989822E-006 
 6.463529716230585E-006  6.627140311713867E-006  6.794891988902746E-006  6.966889541829135E-006 
 7.143240415452951E-006  7.324054772670846E-006  7.509445563016319E-006  7.699528593093506E-006 
 7.894422598788402E-006  8.094249319302197E-006  8.299133573052444E-006  8.509203335489201E-006 
 8.724589818874165E-006  8.945427554072153E-006  9.171854474405588E-006  9.404012001623616E-006 
 9.642045134039250E-006  9.886102536888810E-006  1.013633663496947E-005  1.039290370761224E-005 
 1.065596398604876E-005  1.092568175323231E-005  1.120222544617422E-005  1.148576776085917E-005 
 1.177648575980380E-005  1.207456098232485E-005  1.238017955758502E-005  1.269353232048592E-005 
 1.301481493047952E-005  1.334422799337124E-005  1.368197718618936E-005  1.402827338519792E-005 
 1.438333279713136E-005  1.474737709373171E-005  1.512063354967102E-005  1.550333518394322E-005 
 1.589572090481278E-005  1.629803565840847E-005  1.671053058105355E-005  1.713346315542572E-005 
 1.756709737064206E-005  1.801170388636738E-005  1.846756020104603E-005  1.893495082435996E-005 
 1.941416745401856E-005  1.990550915698788E-005  2.040928255527008E-005  2.092580201634627E-005 
 2.145538984839852E-005  2.199837650043050E-005  2.255510076740759E-005  2.312591000054211E-005 
 2.371116032285080E-005  2.431121685011576E-005  2.492645391738276E-005  2.555725531113397E-005 
 2.620401450727633E-005  2.686713491508908E-005  2.754703012727807E-005  2.824412417628824E-005 
 2.895885179702832E-005  2.969165869616700E-005  3.044300182816224E-005  3.121334967819010E-005 
 3.200318255214353E-005  3.281299287387410E-005  3.364328548985747E-005  3.449457798146226E-005 
 3.536740098501174E-005  3.626229851982893E-005  3.717982832445998E-005  3.812056220127943E-005 
 3.908508636967905E-005  4.007400182805346E-005  4.108792472479673E-005  4.212748673852906E-005 
 4.319333546778204E-005  4.428613483036942E-005  4.540656547268269E-005  4.655532518915193E-005 
 4.773312935211802E-005  4.894071135237256E-005  5.017882305062013E-005  5.144823524013159E-005 
 5.274973812085740E-005  5.408414178527764E-005  5.545227671627560E-005  5.685499429732039E-005 
 5.829316733525909E-005  5.976769059602066E-005  6.127948135354010E-005  6.282947995222472E-005 
 6.441865038328133E-005  6.604798087524088E-005  6.771848449901773E-005  6.943119978784902E-005 
 7.118719137247259E-005  7.298755063190080E-005  7.483339636016418E-005  7.672587544940276E-005 
 7.866616358968845E-005  8.065546598598005E-005  8.269501809260674E-005  8.478608636569857E-005 
 8.692996903398250E-005  8.912799688837230E-005  9.138153409079665E-005  9.369197900270774E-005 
 9.606076503373271E-005  9.848936151093435E-005  1.009792745691547E-004  1.035320480629353E-004 
 1.061492645005032E-004  1.088325460003349E-004  1.115835552708136E-004  1.144039966135049E-004 
 1.172956169505946E-004  1.202602068770288E-004  1.232996017379225E-004  1.264156827318033E-004 
 1.296103780402681E-004  1.328856639846531E-004  1.362435662103075E-004  1.396861608990957E-004 
 1.432155760107479E-004  1.468339925536923E-004  1.505436458860262E-004  1.543468270472740E-004 
 1.582458841216082E-004  1.622432236332184E-004  1.663413119745099E-004  1.705426768678540E-004 
 1.748499088615872E-004  1.792656628610014E-004  1.837926596950590E-004  1.884336877195766E-004 
 1.931916044576535E-004  1.980693382781000E-004  2.030698901126615E-004  2.081963352128291E-004 
 2.134518249470343E-004  2.188395886390580E-004  2.243629354484609E-004  2.300252562938845E-004 
 2.358300258200613E-004  2.417808044093865E-004  2.478812402389200E-004  2.541350713836824E-004 
 2.605461279671294E-004  2.671183343596911E-004  2.738557114262652E-004  2.807623788235706E-004 
 2.878425573482606E-004  2.951005713367112E-004  3.025408511173975E-004  3.101679355167745E-004 
 3.179864744195878E-004  3.260012313845302E-004  3.342170863161725E-004  3.426390381940888E-004 
 3.512722078600925E-004  3.601218408645085E-004  3.691933103723839E-004  3.784921201305530E-004 
 3.880239074964512E-004  3.977944465295642E-004  4.078096511463995E-004  4.180755783398365E-004 
 4.285984314637115E-004  4.393845635834704E-004  4.504404808936958E-004  4.617728462033106E-004 
 4.733884824892133E-004  4.852943765190914E-004  4.974976825441186E-004  5.100057260622073E-004 
 5.228260076524597E-004  5.359662068814047E-004  5.494341862815814E-004  5.632379954029700E-004 
 5.773858749377117E-004  5.918862609185264E-004  6.067477889911434E-004  6.219792987610187E-004 
 6.375898382145292E-004  6.535886682147485E-004  6.699852670718485E-004  6.867893351880470E-004 
 7.040107997769593E-004  7.216598196570867E-004  7.397467901190567E-004  7.582823478661457E-004 
 7.772773760274381E-004  7.967430092428867E-004  8.166906388193649E-004  8.371319179566478E-004 
 8.580787670421213E-004  8.795433790127990E-004  9.015382247830863E-004  9.240760587365016E-004 
 9.471699242793576E-004  9.708331594542033E-004  9.950794026105615E-004  1.019922598130264E-003 
 1.045377002204420E-003  1.071457188658751E-003  1.098178054823763E-003  1.125554827445865E-003 
 1.153603068635256E-003  1.182338681846009E-003  1.211777917883430E-003  1.241937380933379E-003 
 1.272834034607793E-003  1.304485208000255E-003  1.336908601744970E-003  1.370122294071989E-003 
 1.404144746851083E-003  1.438994811616038E-003  1.474691735560657E-003  1.511255167497086E-003 
 1.548705163766478E-003  1.587062194091368E-003  1.626347147358381E-003  1.666581337319204E-003 
 1.707786508196976E-003  1.749984840184428E-003  1.793198954819238E-003  1.837451920221252E-003 
 1.882767256175183E-003  1.929168939041503E-003  1.976681406477196E-003  2.025329561946901E-003 
 2.075138779003978E-003  2.126134905319743E-003  2.178344266437903E-003  2.231793669230014E-003 
 2.286510405026288E-003  2.342522252394869E-003  2.399857479541021E-003  2.458544846296297E-003 
 2.518613605666100E-003  2.580093504902301E-003  2.643014786066046E-003  2.707408186043829E-003 
 2.773304935978208E-003  2.840736760072494E-003  2.909735873726686E-003  2.980334980959897E-003 
 3.052567271072213E-003  3.126466414496684E-003  3.202066557789795E-003  3.279402317706218E-003 
 3.358508774301239E-003  3.439421463001461E-003  3.522176365581762E-003  3.606809899983622E-003 
 3.693358908906974E-003  3.781860647104838E-003  3.872352767306777E-003  3.964873304694052E-003 
 4.059460659846135E-003  4.156153580074677E-003  4.254991139057784E-003  4.356012714683714E-003 
 4.459257965009485E-003  4.564766802236280E-003  4.672579364599437E-003  4.782735986067307E-003 
 4.895277163738901E-003  5.010243522826509E-003  5.127675779105265E-003  5.247614698707373E-003 
 5.370101055134863E-003  5.495175583360117E-003  5.622878930879462E-003  5.753251605580791E-003 
 5.886333920281794E-003  6.022165933791454E-003  6.160787388342989E-003  6.302237643242426E-003 
 6.446555604573016E-003  6.593779650791506E-003  6.743947554048824E-003  6.897096397063756E-003 
 7.053262485374892E-003  7.212481254792805E-003  7.374787173871528E-003  7.540213641215461E-003 
 7.708792877435863E-003  7.880555811568758E-003  8.055531961764763E-003  8.233749310060323E-003 
 8.415234171039123E-003  8.600011054193030E-003  8.788102519792269E-003  8.979529028076453E-003 
 9.174308781580418E-003  9.372457560412006E-003  9.573988550303657E-003  9.778912163264800E-003 
 9.987235850668876E-003  1.019896390861691E-002  1.041409727542871E-002  1.063263332112426E-002 
 1.085456562876999E-002  1.107988376757974E-002  1.130857305767623E-002  1.154061432643770E-002 
 1.177598365637548E-002  1.201465212451126E-002  1.225658553324913E-002  1.250174413276619E-002 
 1.275008233497718E-002  1.300154841916414E-002  1.325608422939990E-002  1.351362486393681E-002 
 1.377409835677784E-002  1.403742535169697E-002  1.430351876903064E-002  1.457228346562026E-002 
 1.484361588834977E-002  1.511740372179077E-002  1.539352553054127E-002  1.567185039692411E-002 
 1.595223755479551E-002  1.623453602030542E-002  1.651858422054880E-002  1.680420962114965E-002 
 1.709122835393079E-002  1.737944484593824E-002  1.766865145121304E-002  1.795862808683437E-002 
 1.824914187489482E-002  1.853994679221439E-002  1.883078332975129E-002  1.912137816382689E-002 
 1.941144384144864E-002  1.970067848218720E-002  1.998876549924417E-002  2.027537334253251E-002 
 2.056015526678312E-002  2.084274912788883E-002  2.112277721089760E-002  2.139984609327372E-002 
 2.167354654725323E-002  2.194345348533076E-002  2.220912595312612E-002  2.247010717408903E-002 
 2.272592465070877E-002  2.297609032709853E-002  2.322010081802212E-002  2.345743770961870E-002 
 2.368756793725857E-002  2.390994424612594E-002  2.412400574027011E-002  2.432917852599020E-002 
 2.452487645551897E-002  2.471050197704060E-002  2.488544709711436E-002  2.504909446157364E-002 
 2.520081856092333E-002  2.533998706616243E-002  2.546596230080651E-002  2.557810285466947E-002 
 2.567576534468033E-002  2.575830632764908E-002  2.582508436945069E-002  2.587546227455855E-002 
 2.590880947922078E-002  2.592450461082590E-002  2.592193821514059E-002  2.590051565211239E-002 
 2.585966015980674E-002  2.579881608478084E-002  2.571745227578047E-002  2.561506563607147E-002 
 2.549118482797760E-002  2.534537412128733E-002  2.517723737510648E-002  2.498642214046954E-002 
 2.477262386857838E-002  2.453559020691211E-002  2.427512536265050E-002  2.399109450987915E-002 
 2.368342821390854E-002  2.335212684275189E-002  2.299726493238596E-002  2.261899546888650E-002 
 2.221755404691074E-002  2.179326286032918E-002  2.134653447712334E-002  2.087787534701330E-002 
 2.038788898671377E-002  1.987727878429699E-002  1.934685036094318E-002  1.879751342545675E-002 
 1.823028305441387E-002  1.764628032878129E-002  1.704673225641532E-002  1.643297090913737E-002 
 1.580643170321067E-002  1.516865075315676E-002  1.452126123109063E-002  1.386598866727737E-002 
 1.320464513257889E-002  1.253912225003028E-002  1.187138299112386E-002  1.120345222265101E-002 
 1.053740598230677E-002  9.875359475852705E-003  9.219453805582308E-003  8.571841459250232E-003 
 7.934670610589441E-003  7.310068307084951E-003  6.700122647796750E-003  6.106864083658776E-003 
 5.532246004695185E-003  4.978124812778508E-003  4.446239714597736E-003  3.938192507002352E-003 
 3.455427665306495E-003  2.999213083814990E-003  2.570621855959166E-003  2.170515518036057E-003 
 1.799529214492793E-003  1.458059272667429E-003  1.146253699387149E-003  8.640061291418236E-004 
 6.109537618191078E-004  3.864798251549985E-004  1.897210809093074E-004  1.958086197111596E-005 
-1.252519223032319E-004 -2.462774457144528E-004 -3.451530165657132E-004 -4.236543665062046E-004 
-4.836301693130658E-004 -5.269499582522281E-004 -5.554458178442610E-004 -5.708484648881875E-004 
-5.747186045457642E-004 -5.683747492775393E-004 -5.528190193813017E-004 -5.286628003312067E-004 
-4.963678678518435E-004 -4.573197784229488E-004 -4.131943250434977E-004 -3.656681754445334E-004 
-3.163918262736320E-004 -2.669596581882372E-004 -2.188770668766216E-004 -1.735246760227183E-004 
-1.321196741839725E-004 -9.567435892737786E-005 -6.495201889267221E-005 -4.042033831958003E-005 
-2.220256956259048E-005 -1.002678790329448E-005 -3.173620190810578E-006 -4.229252262288874E-007 
-1.110223024625157E-016  0.000000000000000E+000  0.000000000000000E+000  0.000000000000000E+000 
 0.000000000000000E+000  0.000000000000000E+000  0.000000000000000E+000  0.000000000000000E+000 
 0.000000000000000E+000  0.000000000000000E+000  0.000000000000000E+000  0.000000000000000E+000 
 0.000000000000000E+000  0.000000000000000E+000  0.000000000000000E+000  0.000000000000000E+000 
 0.000000000000000E+000  0.000000000000000E+000  0.000000000000000E+000  0.000000000000000E+000 
 0.000000000000000E+000  0.000000000000000E+000  0.000000000000000E+000  0.000000000000000E+000 
 0.000000000000000E+000  0.000000000000000E+000  0.000000000000000E+000  0.000000000000000E+000 
 0.000000000000000E+000  0.000000000000000E+000  0.000000000000000E+000  0.000000000000000E+000 
 0.000000000000000E+000  0.000000000000000E+000  0.000000000000000E+000  0.000000000000000E+000 
 0.000000000000000E+000  0.000000000000000E+000  0.000000000000000E+000  0.000000000000000E+000 
 0.000000000000000E+000  0.000000000000000E+000  0.000000000000000E+000  0.000000000000000E+000 
 0.000000000000000E+000  0.000000000000000E+000  0.000000000000000E+000  0.000000000000000E+000 
 0.000000000000000E+000  0.000000000000000E+000  0.000000000000000E+000  0.000000000000000E+000 
 0.000000000000000E+000  0.000000000000000E+000  0.000000000000000E+000  0.000000000000000E+000 
 0.000000000000000E+000  0.000000000000000E+000  0.000000000000000E+000  0.000000000000000E+000 
 0.000000000000000E+000  0.000000000000000E+000  0.000000000000000E+000  0.000000000000000E+000 
 0.000000000000000E+000  0.000000000000000E+000  0.000000000000000E+000  0.000000000000000E+000 
 0.000000000000000E+000  0.000000000000000E+000  0.000000000000000E+000  0.000000000000000E+000 
 0.000000000000000E+000  0.000000000000000E+000  0.000000000000000E+000  0.000000000000000E+000 
 0.000000000000000E+000  0.000000000000000E+000  0.000000000000000E+000  0.000000000000000E+000 
 0.000000000000000E+000  0.000000000000000E+000  0.000000000000000E+000  0.000000000000000E+000 
 0.000000000000000E+000  0.000000000000000E+000  0.000000000000000E+000  0.000000000000000E+000 
 0.000000000000000E+000  0.000000000000000E+000  0.000000000000000E+000  0.000000000000000E+000 
 0.000000000000000E+000  0.000000000000000E+000  0.000000000000000E+000  0.000000000000000E+000 
 0.000000000000000E+000  0.000000000000000E+000  0.000000000000000E+000  0.000000000000000E+000 
 0.000000000000000E+000  0.000000000000000E+000  0.000000000000000E+000  0.000000000000000E+000 
 0.000000000000000E+000  0.000000000000000E+000  0.000000000000000E+000  0.000000000000000E+000 
 0.000000000000000E+000  0.000000000000000E+000  0.000000000000000E+000  0.000000000000000E+000 
 0.000000000000000E+000  0.000000000000000E+000  0.000000000000000E+000  0.000000000000000E+000 
 0.000000000000000E+000  0.000000000000000E+000  0.000000000000000E+000  0.000000000000000E+000 
 0.000000000000000E+000  0.000000000000000E+000  0.000000000000000E+000  0.000000000000000E+000 
 0.000000000000000E+000  0.000000000000000E+000  0.000000000000000E+000  0.000000000000000E+000 
 0.000000000000000E+000  0.000000000000000E+000  0.000000000000000E+000  0.000000000000000E+000 
 0.000000000000000E+000  0.000000000000000E+000  0.000000000000000E+000  0.000000000000000E+000 
 0.000000000000000E+000  0.000000000000000E+000  0.000000000000000E+000  0.000000000000000E+000 
 0.000000000000000E+000  0.000000000000000E+000  0.000000000000000E+000  0.000000000000000E+000 
 0.000000000000000E+000  0.000000000000000E+000  0.000000000000000E+000  0.000000000000000E+000 
 0.000000000000000E+000  0.000000000000000E+000  0.000000000000000E+000  0.000000000000000E+000 
 0.000000000000000E+000  0.000000000000000E+000  0.000000000000000E+000  0.000000000000000E+000 
 0.000000000000000E+000  0.000000000000000E+000  0.000000000000000E+000  0.000000000000000E+000 
 0.000000000000000E+000  0.000000000000000E+000  0.000000000000000E+000  0.000000000000000E+000 
 0.000000000000000E+000  0.000000000000000E+000  0.000000000000000E+000  0.000000000000000E+000 
 0.000000000000000E+000  0.000000000000000E+000  0.000000000000000E+000  0.000000000000000E+000 
 0.000000000000000E+000  0.000000000000000E+000  0.000000000000000E+000  0.000000000000000E+000 
 0.000000000000000E+000  0.000000000000000E+000  0.000000000000000E+000  0.000000000000000E+000 
 0.000000000000000E+000  0.000000000000000E+000  0.000000000000000E+000  0.000000000000000E+000 
 0.000000000000000E+000  0.000000000000000E+000  0.000000000000000E+000  0.000000000000000E+000 
 0.000000000000000E+000  0.000000000000000E+000  0.000000000000000E+000  0.000000000000000E+000 
 0.000000000000000E+000  0.000000000000000E+000  0.000000000000000E+000  0.000000000000000E+000 
 0.000000000000000E+000  0.000000000000000E+000  0.000000000000000E+000  0.000000000000000E+000 
 0.000000000000000E+000  0.000000000000000E+000  0.000000000000000E+000  0.000000000000000E+000 
 0.000000000000000E+000  0.000000000000000E+000  0.000000000000000E+000  0.000000000000000E+000 
 0.000000000000000E+000  0.000000000000000E+000  0.000000000000000E+000  0.000000000000000E+000 
 0.000000000000000E+000  0.000000000000000E+000  0.000000000000000E+000  0.000000000000000E+000 
 0.000000000000000E+000  0.000000000000000E+000  0.000000000000000E+000  0.000000000000000E+000 
 0.000000000000000E+000  0.000000000000000E+000  0.000000000000000E+000  0.000000000000000E+000 
 0.000000000000000E+000  0.000000000000000E+000  0.000000000000000E+000  0.000000000000000E+000 
 0.000000000000000E+000  0.000000000000000E+000  0.000000000000000E+000  0.000000000000000E+000 
 0.000000000000000E+000  0.000000000000000E+000  0.000000000000000E+000  0.000000000000000E+000 
 0.000000000000000E+000  0.000000000000000E+000  0.000000000000000E+000  0.000000000000000E+000 
 0.000000000000000E+000  0.000000000000000E+000  0.000000000000000E+000  0.000000000000000E+000 
 0.000000000000000E+000  0.000000000000000E+000  0.000000000000000E+000  0.000000000000000E+000 
 0.000000000000000E+000  0.000000000000000E+000  0.000000000000000E+000  0.000000000000000E+000 
 0.000000000000000E+000  0.000000000000000E+000  0.000000000000000E+000  0.000000000000000E+000 
 0.000000000000000E+000  0.000000000000000E+000  0.000000000000000E+000  0.000000000000000E+000 
 0.000000000000000E+000  0.000000000000000E+000  0.000000000000000E+000  0.000000000000000E+000 
 0.000000000000000E+000  0.000000000000000E+000  0.000000000000000E+000  0.000000000000000E+000 
 0.000000000000000E+000  0.000000000000000E+000  0.000000000000000E+000  0.000000000000000E+000 
 0.000000000000000E+000  0.000000000000000E+000  0.000000000000000E+000  0.000000000000000E+000 
 0.000000000000000E+000  0.000000000000000E+000  0.000000000000000E+000  0.000000000000000E+000 
 0.000000000000000E+000  0.000000000000000E+000  0.000000000000000E+000  0.000000000000000E+000 
 0.000000000000000E+000  0.000000000000000E+000  0.000000000000000E+000  0.000000000000000E+000 
 0.000000000000000E+000  0.000000000000000E+000  0.000000000000000E+000  0.000000000000000E+000 
 0.000000000000000E+000  0.000000000000000E+000  0.000000000000000E+000  0.000000000000000E+000 
 0.000000000000000E+000  0.000000000000000E+000  0.000000000000000E+000  0.000000000000000E+000 
 0.000000000000000E+000  0.000000000000000E+000  0.000000000000000E+000  0.000000000000000E+000 
 0.000000000000000E+000  0.000000000000000E+000  0.000000000000000E+000  0.000000000000000E+000 
 0.000000000000000E+000  0.000000000000000E+000  0.000000000000000E+000  0.000000000000000E+000 
 0.000000000000000E+000  0.000000000000000E+000  0.000000000000000E+000  0.000000000000000E+000 
 0.000000000000000E+000  0.000000000000000E+000  0.000000000000000E+000  0.000000000000000E+000 
 0.000000000000000E+000  0.000000000000000E+000  0.000000000000000E+000  0.000000000000000E+000 
 0.000000000000000E+000  0.000000000000000E+000  0.000000000000000E+000  0.000000000000000E+000 
 0.000000000000000E+000  0.000000000000000E+000  0.000000000000000E+000  0.000000000000000E+000 
 0.000000000000000E+000  0.000000000000000E+000  0.000000000000000E+000  0.000000000000000E+000 
 0.000000000000000E+000  0.000000000000000E+000  0.000000000000000E+000  0.000000000000000E+000 
 0.000000000000000E+000  0.000000000000000E+000  0.000000000000000E+000  0.000000000000000E+000 
 0.000000000000000E+000  0.000000000000000E+000  0.000000000000000E+000  0.000000000000000E+000 
 0.000000000000000E+000  0.000000000000000E+000  0.000000000000000E+000  0.000000000000000E+000 
 0.000000000000000E+000  0.000000000000000E+000  0.000000000000000E+000  0.000000000000000E+000 
 0.000000000000000E+000  0.000000000000000E+000  0.000000000000000E+000  0.000000000000000E+000 
 0.000000000000000E+000  0.000000000000000E+000  0.000000000000000E+000  0.000000000000000E+000 
 0.000000000000000E+000  0.000000000000000E+000  0.000000000000000E+000  0.000000000000000E+000 
 0.000000000000000E+000
      </PP_QIJL.2.2.0>
    </PP_AUGMENTATION>
  </PP_NONLOCAL>
  <PP_PSWFC>
    <PP_CHI.1 type="real" size="929" columns="4" index="1" label="1S" l="0" occupation="1.000000000000000E+000" n="1"
pseudo_energy="-4.653938644250059E-001" cutoff_radius="9.000000000000000E-001" ultrasoft_cutoff_radius="1.000000000000000E+000">
 1.278350625404985E-003  1.294430270496988E-003  1.310712171620459E-003  1.327198872804682E-003 
 1.343892950077421E-003  1.360797011867360E-003  1.377913699411591E-003  1.395245687168241E-003 
 1.412795683234267E-003  1.430566429768527E-003  1.448560703420152E-003  1.466781315762310E-003 
 1.485231113731428E-003  1.503912980071927E-003  1.522829833786553E-003  1.541984630592369E-003 
 1.561380363382480E-003  1.581020062693563E-003  1.600906797179275E-003  1.621043674089609E-003 
 1.641433839756270E-003  1.662080480084176E-003  1.682986821049106E-003  1.704156129201630E-003 
 1.725591712177364E-003  1.747296919213622E-003  1.769275141672598E-003  1.791529813571088E-003 
 1.814064412116891E-003  1.836882458251960E-003  1.859987517202343E-003  1.883383199035074E-003 
 1.907073159222044E-003  1.931061099210975E-003  1.955350767003538E-003  1.979945957740780E-003 
 2.004850514295864E-003  2.030068327874289E-003  2.055603338621640E-003  2.081459536238986E-003 
 2.107640960605998E-003  2.134151702411892E-003  2.160995903794320E-003  2.188177758986274E-003 
 2.215701514971136E-003  2.243571472145926E-003  2.271791984992908E-003  2.300367462759639E-003 
 2.329302370147530E-003  2.358601228009103E-003  2.388268614053952E-003  2.418309163563622E-003 
 2.448727570115444E-003  2.479528586315466E-003  2.510717024540600E-003  2.542297757690062E-003 
 2.574275719946283E-003  2.606655907545356E-003  2.639443379557170E-003  2.672643258675346E-003 
 2.706260732017057E-003  2.740301051932945E-003  2.774769536827169E-003  2.809671571987765E-003 
 2.845012610427444E-003  2.880798173734898E-003  2.917033852936853E-003  2.953725309370920E-003 
 2.990878275569376E-003  3.028498556154101E-003  3.066592028742677E-003  3.105164644865922E-003 
 3.144222430896894E-003  3.183771488991573E-003  3.223817998041363E-003  3.264368214637520E-003 
 3.305428474047692E-003  3.347005191204710E-003  3.389104861707792E-003  3.431734062836294E-003 
 3.474899454576197E-003  3.518607780659452E-003  3.562865869616367E-003  3.607680635841186E-003 
 3.653059080671066E-003  3.699008293478536E-003  3.745535452777680E-003  3.792647827344194E-003 
 3.840352777349452E-003  3.888657755508848E-003  3.937570308244475E-003  3.987098076862402E-003 
 4.037248798744720E-003  4.088030308556484E-003  4.139450539467835E-003  4.191517524391354E-003 
 4.244239397235012E-003  4.297624394170751E-003  4.351680854918969E-003  4.406417224049127E-003 
 4.461842052296552E-003  4.517963997895845E-003  4.574791827930890E-003  4.632334419701800E-003 
 4.690600762108989E-003  4.749599957054523E-003  4.809341220861051E-003  4.869833885708453E-003 
 4.931087401088496E-003  4.993111335277640E-003  5.055915376828314E-003  5.119509336078786E-003 
 5.183903146681980E-003  5.249106867153319E-003  5.315130682438013E-003  5.381984905497843E-003 
 5.449679978917810E-003  5.518226476532872E-003  5.587635105074971E-003  5.657916705840661E-003 
 5.729082256379524E-003  5.801142872203656E-003  5.874109808518542E-003  5.947994461975480E-003 
 6.022808372445924E-003  6.098563224817881E-003  6.175270850814776E-003  6.252943230836984E-003 
 6.331592495826272E-003  6.411230929153568E-003  6.491870968530147E-003  6.573525207942671E-003 
 6.656206399612368E-003  6.739927455978565E-003  6.824701451706868E-003  6.910541625722409E-003 
 6.997461383268318E-003  7.085474297989890E-003  7.174594114044541E-003  7.264834748238120E-003 
 7.356210292187620E-003  7.448735014510915E-003  7.542423363043575E-003  7.637289967083222E-003 
 7.733349639661807E-003  7.830617379845929E-003  7.929108375065852E-003  8.028838003473267E-003 
 8.129821836328363E-003  8.232075640416364E-003  8.335615380494085E-003  8.440457221766721E-003 
 8.546617532395282E-003  8.654112886035029E-003  8.762960064405351E-003  8.873176059891297E-003 
 8.984778078177305E-003  9.097783540913446E-003  9.212210088414489E-003  9.328075582392369E-003 
 9.445398108722235E-003  9.564195980242635E-003  9.684487739590141E-003  9.806292162068858E-003 
 9.929628258555319E-003  1.005451527843889E-002  1.018097271259854E-002  1.030902029641595E-002 
 1.043867801282569E-002  1.056996609540284E-002  1.070290503148828E-002  1.083751556535246E-002 
 1.097381870139770E-002  1.111183570739980E-002  1.125158811778916E-002  1.139309773697192E-002 
 1.153638664269179E-002  1.168147718943270E-002  1.182839201186299E-002  1.197715402832145E-002 
 1.212778644434573E-002  1.228031275624383E-002  1.243475675470861E-002  1.259114252847636E-002 
 1.274949446802969E-002  1.290983726934505E-002  1.307219593768586E-002  1.323659579144117E-002 
 1.340306246601074E-002  1.357162191773703E-002  1.374230042788439E-002  1.391512460666623E-002 
 1.409012139732038E-002  1.426731808023352E-002  1.444674227711496E-002  1.462842195522024E-002 
 1.481238543162545E-002  1.499866137755229E-002  1.518727882274487E-002  1.537826715989849E-002 
 1.557165614914103E-002  1.576747592256755E-002  1.596575698882855E-002  1.616653023777261E-002 
 1.636982694514373E-002  1.657567877733394E-002  1.678411779619212E-002  1.699517646388902E-002 
 1.720888764783937E-002  1.742528462568180E-002  1.764440109031645E-002  1.786627115500186E-002 
 1.809092935851064E-002  1.831841067034521E-002  1.854875049601403E-002  1.878198468236839E-002 
 1.901814952300118E-002  1.925728176370745E-002  1.949941860800755E-002  1.974459772273391E-002 
 1.999285724368081E-002  2.024423578131926E-002  2.049877242657605E-002  2.075650675667859E-002 
 2.101747884106566E-002  2.128172924736441E-002  2.154929904743465E-002  2.182022982348050E-002 
 2.209456367423018E-002  2.237234322118451E-002  2.265361161493419E-002  2.293841254154714E-002 
 2.322679022902566E-002  2.351878945383417E-002  2.381445554749835E-002  2.411383440327546E-002 
 2.441697248289714E-002  2.472391682338422E-002  2.503471504393472E-002  2.534941535288544E-002 
 2.566806655474670E-002  2.599071805731206E-002  2.631741987884193E-002  2.664822265532253E-002 
 2.698317764780001E-002  2.732233674979013E-002  2.766575249476428E-002  2.801347806371118E-002 
 2.836556729277554E-002  2.872207468097362E-002  2.908305539798527E-002  2.944856529202379E-002 
 2.981866089778283E-002  3.019339944446122E-002  3.057283886386511E-002  3.095703779858817E-002 
 3.134605561026953E-002  3.173995238792974E-002  3.213878895638437E-002  3.254262688473583E-002 
 3.295152849494251E-002  3.336555687046583E-002  3.378477586499469E-002  3.420925011124717E-002 
 3.463904502984925E-002  3.507422683829001E-002  3.551486255995355E-002  3.596102003322627E-002 
 3.641276792068009E-002  3.687017571833031E-002  3.733331376496780E-002  3.780225325156478E-002 
 3.827706623075360E-002  3.875782562637749E-002  3.924460524311266E-002  3.973747977616063E-002 
 4.023652482100988E-002  4.074181688326550E-002  4.125343338854558E-002  4.177145269244369E-002 
 4.229595409055503E-002  4.282701782856586E-002  4.336472511240333E-002  4.390915811844520E-002 
 4.446040000378720E-002  4.501853491656539E-002  4.558364800633261E-002  4.615582543448613E-002 
 4.673515438474422E-002  4.732172307366928E-002  4.791562076123470E-002  4.851693776143300E-002 
 4.912576545292215E-002  4.974219628970678E-002  5.036632381185156E-002  5.099824265622233E-002 
 5.163804856725253E-002  5.228583840772993E-002  5.294171016960055E-002  5.360576298478540E-002 
 5.427809713600441E-002  5.495881406760505E-002  5.564801639638833E-002  5.634580792242853E-002 
 5.705229363988126E-002  5.776757974777283E-002  5.849177366076661E-002  5.922498401989890E-002 
 5.996732070327837E-002  6.071889483674232E-002  6.147981880446175E-002  6.225020625948881E-002 
 6.303017213423766E-002  6.381983265089179E-002  6.461930533172798E-002  6.542870900934855E-002 
 6.624816383681249E-002  6.707779129765561E-002  6.791771421578929E-002  6.876805676526765E-002 
 6.962894447991094E-002  7.050050426277510E-002  7.138286439545367E-002  7.227615454720107E-002 
 7.318050578386201E-002  7.409605057659553E-002  7.502292281037778E-002  7.596125779226913E-002 
 7.691119225942976E-002  7.787286438686829E-002  7.884641379490608E-002  7.983198155633862E-002 
 8.082971020327824E-002  8.183974373365675E-002  8.286222761736896E-002  8.389730880203736E-002 
 8.494513571837520E-002  8.600585828512677E-002  8.707962791356126E-002  8.816659751149587E-002 
 8.926692148682425E-002  9.038075575052303E-002  9.150825771911027E-002  9.264958631652764E-002 
 9.380490197541647E-002  9.497436663775993E-002  9.615814375485585E-002  9.735639828659175E-002 
 9.856929669998601E-002  9.979700696696063E-002  1.010396985613087E-001  1.022975424548205E-001 
 1.035707111125270E-001  1.048593784870223E-001  1.061637200118208E-001  1.074839125937070E-001 
 1.088201346040335E-001  1.101725658689168E-001  1.115413876582884E-001  1.129267826737439E-001 
 1.143289350351458E-001  1.157480302659180E-001  1.171842552769839E-001  1.186377983492855E-001 
 1.201088491148252E-001  1.215975985361708E-001  1.231042388843543E-001  1.246289637151067E-001 
 1.261719678433522E-001  1.277334473158974E-001  1.293135993822394E-001  1.309126224634189E-001 
 1.325307161188402E-001  1.341680810109775E-001  1.358249188678857E-001  1.375014324434284E-001 
 1.391978254751367E-001  1.409143026396066E-001  1.426510695053409E-001  1.444083324829401E-001 
 1.461862987725423E-001  1.479851763084064E-001  1.498051737005373E-001  1.516465001732414E-001 
 1.535093655004993E-001  1.553939799380430E-001  1.573005541520169E-001  1.592292991440992E-001 
 1.611804261729617E-001  1.631541466719352E-001  1.651506721627509E-001  1.671702141652197E-001 
 1.692129841027110E-001  1.712791932032858E-001  1.733690523963402E-001  1.754827722046054E-001 
 1.776205626313543E-001  1.797826330426524E-001  1.819691920444927E-001  1.841804473546528E-001 
 1.864166056691005E-001  1.886778725227796E-001  1.909644521445971E-001  1.932765473064349E-001 
 1.956143591660008E-001  1.979780871033346E-001  2.003679285507797E-001  2.027840788162253E-001 
 2.052267308994287E-001  2.076960753012141E-001  2.101922998253483E-001  2.127155893728946E-001 
 2.152661257288301E-001  2.178440873407260E-001  2.204496490892799E-001  2.230829820504863E-001 
 2.257442532492347E-001  2.284336254041228E-001  2.311512566632707E-001  2.338973003309234E-001 
 2.366719045846279E-001  2.394752121827720E-001  2.423073601622777E-001  2.451684795262371E-001 
 2.480586949212888E-001  2.509781243045296E-001  2.539268785997688E-001  2.569050613429248E-001 
 2.599127683163862E-001  2.629500871721517E-001  2.660170970435785E-001  2.691138681455780E-001 
 2.722404613631046E-001  2.753969278277953E-001  2.785833084826360E-001  2.817996336345348E-001 
 2.850459224947084E-001  2.883221827067944E-001  2.916284098626345E-001  2.949645870056810E-001 
 2.983306841220080E-001  3.017266576189374E-001  3.051524497913051E-001  3.086079882754333E-001 
 3.120931854909049E-001  3.156079380702587E-001  3.191521262767746E-001  3.227256134105532E-001 
 3.263282452031276E-001  3.299598492009061E-001  3.336202341377799E-001  3.373091892972926E-001 
 3.410264838648094E-001  3.447718662702022E-001  3.485450635216081E-001  3.523457805309084E-001 
 3.561736994316246E-001  3.600284788900212E-001  3.639097534102682E-001  3.678171326346191E-001 
 3.717502006396285E-001  3.757085152295468E-001  3.796916072281029E-001  3.836989797700225E-001 
 3.877301075937095E-001  3.917844363366439E-001  3.958613818351691E-001  3.999603294304538E-001 
 4.040806332825685E-001  4.082216156947159E-001  4.123825664498320E-001  4.165627421618840E-001 
 4.207613656443664E-001  4.249776252986365E-001  4.292106745248991E-001  4.334596311588040E-001 
 4.377235769367939E-001  4.420015569935037E-001  4.462925793946970E-001  4.505956147093851E-001 
 4.549095956249666E-001  4.592334166093866E-001  4.635659336245109E-001  4.679059638950789E-001 
 4.722522857377637E-001  4.766036384550573E-001  4.809587222988560E-001  4.853161985087691E-001 
 4.896746894303493E-001  4.940327787185663E-001  4.983890116319699E-001  5.027418954231226E-001 
 5.070898998309474E-001  5.114314576807369E-001  5.157649655976090E-001  5.200887848392111E-001 
 5.244012422534807E-001  5.287006313672110E-001  5.329852136111096E-001  5.372532196868736E-001 
 5.415028510816743E-001  5.457322817351712E-001  5.499396598639048E-001  5.541231099475431E-001 
 5.582807348810398E-001  5.624106182962195E-001  5.665108270557312E-001  5.705794139215810E-001 
 5.746144203996673E-001  5.786138797608195E-001  5.825758202377919E-001  5.864982683964916E-001 
 5.903792526784112E-001  5.942168071097566E-001  5.980089751711398E-001  6.017538138199033E-001 
 6.054493976551421E-001  6.090938232133376E-001  6.126852133801175E-001  6.162217219010634E-001 
 6.197015379716636E-001  6.231228908834798E-001  6.264840547002772E-001  6.297833529343441E-001 
 6.330191631894295E-001  6.361899217326750E-001  6.392941279536062E-001  6.423303486636593E-001 
 6.452972221849058E-001  6.481934621715133E-001  6.510178611021686E-001  6.537692933760852E-001 
 6.564467179394406E-001  6.590491803630747E-001  6.615758142861323E-001  6.640258421339997E-001 
 6.663985750125071E-001  6.686934116739017E-001  6.709098364436412E-001  6.730474159906954E-001 
 6.751057948178172E-001  6.770846893422351E-001  6.789838804316093E-001  6.808032042548571E-001 
 6.825425413028460E-001  6.842018034300451E-001  6.857809187651774E-001  6.872798143369490E-001 
 6.886983962602227E-001  6.900365273286770E-001  6.912940018624089E-001  6.924705176632261E-001 
 6.935656449369120E-001  6.945787920506624E-001  6.955091680056845E-001  6.963557415197059E-001 
 6.971171966324197E-001  6.977918847688389E-001  6.983777732216053E-001  6.988723900438732E-001 
 6.992727653797166E-001  6.995758290341363E-001  6.997799553329834E-001  6.998839516425217E-001 
 6.998866543102003E-001  6.997869300691911E-001  6.995836774540607E-001  6.992758282266767E-001 
 6.988623488114140E-001  6.983422417385908E-001  6.977145470933330E-001  6.969783438271742E-001 
 6.961327501273904E-001  6.951769273263531E-001  6.941100803170481E-001  6.929314588814889E-001 
 6.916403591620252E-001  6.902361251346195E-001  6.887181500810525E-001  6.870858780588021E-001 
 6.853388053674138E-001  6.834764820101731E-001  6.814985131498474E-001  6.794045605572672E-001 
 6.771943440514496E-001  6.748676429299634E-001  6.724242973881852E-001  6.698642099260342E-001 
 6.671873467407536E-001  6.643937391042082E-001  6.614834847231277E-001  6.584567490806178E-001 
 6.553137667571756E-001  6.520548427293438E-001  6.486803536439891E-001  6.451907490660628E-001 
 6.415865526975149E-001  6.378683635648627E-001  6.340368571726797E-001  6.300927866200432E-001 
 6.260369836766978E-001  6.218703598153824E-001  6.175939071964600E-001  6.132086996005872E-001 
 6.087158933047850E-001  6.041167278968274E-001  5.994125270224071E-001  5.946046990590278E-001 
 5.896947377100693E-001  5.846842225119160E-001  5.795748192464983E-001  5.743682802510108E-001 
 5.690664446160297E-001  5.636712382627094E-001  5.581846738891992E-001  5.526088507759780E-001 
 5.469459544393760E-001  5.411982561222347E-001  5.353681121104344E-001  5.294579628639008E-001 
 5.234703319507621E-001  5.174078247735419E-001  5.112731270766662E-001  5.050690032251268E-001 
 4.987982942450470E-001  4.924639156179261E-001  4.860688548216339E-001  4.796161686127913E-001 
 4.731089800469766E-001  4.665504752352241E-001  4.599438998375322E-001  4.532925552965320E-001 
 4.465997948170726E-001  4.398690191001992E-001  4.331036718427934E-001  4.263072350169742E-001 
 4.194832239461516E-001  4.126351821973473E-001  4.057666763119663E-001  3.988812903995854E-001 
 3.919826206214667E-001  3.850742695923316E-001  3.781598407304240E-001  3.712429325870292E-001 
 3.643271331873006E-001  3.574160144145604E-001  3.505131264700809E-001  3.436219924397568E-001 
 3.367461029980845E-001  3.298889112784000E-001  3.230538279365168E-001  3.162442164326974E-001 
 3.094633885543566E-001  3.027146001990873E-001  2.960010474345094E-001  2.893258628481722E-001 
 2.826921121973121E-001  2.761027913647108E-001  2.695608236233144E-001  2.630690572086533E-001 
 2.566302631945481E-001  2.502471336641089E-001  2.439222801647070E-001  2.376582324324615E-001 
 2.314574373688831E-001  2.253222582497082E-001  2.192549741436743E-001  2.132577795170831E-001 
 2.073327839985175E-001  2.014820122770189E-001  1.957074041064943E-001  1.900108143890539E-001 
 1.843940133104461E-001  1.788586865017516E-001  1.734064352029983E-001  1.680387764063789E-001 
 1.627571429592377E-001  1.575628836099033E-001  1.524572629827452E-001  1.474414614724227E-001 
 1.425165750511252E-001  1.376836149865704E-001  1.329435074725362E-001  1.282970931776679E-001 
 1.237451267221098E-001  1.192882760950810E-001  1.149271220297498E-001  1.106621573545826E-001 
 1.064937863426985E-001  1.024223240825748E-001  9.844799589471616E-002  9.457093681957775E-002 
 9.079119120213545E-002  8.710871239803800E-002  8.352336262527782E-002  8.003491298384120E-002 
 7.664304366388179E-002  7.334734436067424E-002  7.014731491202335E-002  6.704236617098305E-002 
 6.403182112376626E-002  6.111491625966397E-002  5.829080319670443E-002  5.555855056373668E-002 
 5.291714613666777E-002  5.036549922376766E-002  4.790244329232043E-002  4.552673882647251E-002 
 4.323707640394003E-002  4.103207997729467E-002  3.891031034386871E-002  3.687026878690581E-002 
 3.491040086943115E-002  3.302910036142404E-002  3.122471328022884E-002  2.949554202373313E-002 
 2.783984957565483E-002  2.625586376229663E-002  2.474178154033436E-002  2.329577329558015E-002 
 2.191598713319005E-002  2.060055314044797E-002  1.934758760403613E-002  1.815519716458114E-002 
 1.702148289222664E-002  1.594454426801520E-002  1.492248305694736E-002  1.395340705971276E-002 
 1.303543373124522E-002  1.216669365542832E-002  1.134533386646113E-002  1.056952100857631E-002 
 9.837444326975612E-003  9.147318484004697E-003  8.497386195722755E-003  7.885920685126984E-003 
 7.311227949362714E-003  6.771648839281545E-003  6.265560950699857E-003  5.791380327653014E-003 
 5.347562978835830E-003  4.932606209263404E-003  4.545049769976891E-003  4.183476829355123E-003 
 3.846514770272836E-003  3.532835817970344E-003  3.241157504065930E-003  2.970242972651847E-003 
 2.718901134867294E-003  2.485986678737570E-003  2.270399941408546E-003  2.071086651190521E-003 
 1.887037547056370E-003  1.717287883417313E-003  1.560916828126887E-003  1.417046761739562E-003 
 1.284842486092269E-003  1.163510350237155E-003  1.052297301719975E-003  9.504898710860940E-004 
 8.574130973572745E-004  7.724294020518296E-004  6.949374190958707E-004  6.243707877427083E-004 
 5.601969153363769E-004  5.019157164992607E-004  4.490599602733855E-004  4.012068668248774E-004 
 3.579454918936673E-004  3.188909733661383E-004  2.836851001005081E-004  2.519949783740267E-004 
 2.235117226060494E-004  1.979491734266726E-004  1.750426458681709E-004  1.545477101754874E-004 
 1.362390074450441E-004  1.199091020153238E-004  1.053673722514620E-004  9.243894109119557E-005 
 8.096364745252469E-005  7.079505934584095E-005  6.179952928643930E-005  5.385529236850565E-005 
 4.685160714000219E-005  4.068793921038478E-005  3.527318733069727E-005  3.052495150912629E-005 
 2.636884256531395E-005  2.273783238430448E-005  1.957164400661587E-005  1.681618058524818E-005 
 1.442299215421043E-005  1.234877908722177E-005  1.055493108068513E-005  9.007100473205594E-006 
 7.674808716634354E-006  6.531084843264368E-006  5.552134833614529E-006  4.717040883544183E-006 
 4.007489704048095E-006  3.397439887509647E-006  2.874061836683783E-006  2.426015763520998E-006 
 2.043301191373727E-006  1.717118798579088E-006  1.439743929378908E-006  1.204411096666630E-006 
 1.005208804697852E-006  8.369840281687667E-007  6.952556964518825E-007  5.761365477801983E-007 
 4.762627372961944E-007  3.927306046499773E-007  3.230400307782785E-007  2.650438391808785E-007 
 2.169027240159823E-007  1.770452152714231E-007  1.441322197740512E-007  1.170257055464148E-007 
 9.476112571109763E-008  7.652320651474204E-008  6.162475186448246E-008  4.948814383985585E-008 
 3.962924479511733E-008  3.164343176213455E-008  2.519351779280202E-008  1.999933755900832E-008 
 1.582879589890473E-008  1.249019802432595E-008  9.825698769621327E-009  7.705725568722461E-009 
 6.024245812479545E-009  4.694763893021195E-009  3.646946628241139E-009  2.823787928763787E-009 
 2.179234580375324E-009  1.676204930839740E-009  1.284941158922087E-009  9.816437352784134E-010 
 7.473437305779827E-010  5.669748565597118E-010  4.286126103062878E-010  3.228526984931212E-010 
 2.423051117570260E-010  1.811838615055781E-010  1.349755407936820E-010  1.001725818682944E-010 
 7.405940620115250E-011  5.454164483508489E-011  4.001029018077132E-011  2.923406358866527E-011 
 2.127448083842556E-011  1.541910124329111E-011  1.112928302582788E-011  7.999462436296131E-012 
 5.725548233727708E-012  4.080495384870335E-012  2.895508432093919E-012  2.045639979420192E-012 
 1.438805189756587E-012  1.007439346767640E-012  7.021911197408397E-013  4.871765204327951E-013 
 3.364238106571387E-013  2.312229368567786E-013  1.581586831871221E-013  1.076581498281874E-013 
 7.292324770182796E-014  4.914999205785966E-014  3.296036898066770E-014  2.199096573708680E-014 
 1.459661919686896E-014  9.638018547266126E-015  6.330268774030511E-015  4.135485518375222E-015 
 2.687023759199410E-015  1.736310827465627E-015  1.115743456929187E-015  7.129378922212162E-016 
 4.529588023962049E-016  2.861239170010195E-016  1.796827869143348E-016  1.121717895753490E-016 
 6.960705922127162E-017  4.293214452640151E-017  2.631711765131845E-017  1.603196917885837E-017 
 9.704969322098897E-018  5.837484346276124E-018  3.488563526503508E-018  2.071197574013644E-018 
 1.221559439727808E-018  7.156317628186078E-019  4.163991470207802E-019  2.406235344507527E-019 
 1.380819084427347E-019  7.868061686791010E-020  4.451357101929957E-020  2.500182688183707E-020 
 1.394010709806121E-020  7.714991820135994E-021  4.237788249499191E-021  2.310129773879654E-021 
 1.249640949588366E-021  6.707238420058093E-022  3.571652647759233E-022  1.886767891598350E-022 
 9.886618988910082E-023  5.138222405012054E-023  2.648310749222317E-023  1.353538245182436E-023 
 6.859171979922247E-024  3.446084125314592E-024  1.716271322869249E-024  8.472355616892039E-025 
 4.145073526945939E-025  2.009653558644925E-025  9.654315746929292E-026  4.594973063664695E-026 
 2.166480602181420E-026  1.011778761441086E-026  4.679755243743052E-027  2.143457122467362E-027 
 9.720914660860741E-028  4.364616074792692E-028  1.939888595259768E-028  8.533828388485400E-029 
 3.715277394452680E-029
    </PP_CHI.1>
  </PP_PSWFC>
  <PP_FULL_WFC number_of_wfc="2">
    <PP_AEWFC.1 type="real" size="929" columns="4" index="1" label="1S" l="0">
 1.712255641142720E-003  1.733792588699715E-003  1.755600430449683E-003  1.777682573730809E-003 
 1.800042266484976E-003  1.822682567721865E-003  1.845607103643466E-003  1.868819413545091E-003 
 1.892323102590203E-003  1.916121821057155E-003  1.940219264624791E-003  1.964619175094550E-003 
 1.989325340908617E-003  2.014341597741897E-003  2.039671829085828E-003  2.065319966841357E-003 
 2.091289991918754E-003  2.117585934844558E-003  2.144211876375725E-003  2.171171948121098E-003 
 2.198470333170248E-003  2.226111266729826E-003  2.254099036767486E-003  2.282437984663492E-003 
 2.311132505870098E-003  2.340187050578807E-003  2.369606124395600E-003  2.399394289024239E-003 
 2.429556162957739E-003  2.460096422178113E-003  2.491019800864491E-003  2.522331092109710E-003 
 2.554035148645487E-003  2.586136883576263E-003  2.618641271121836E-003  2.651553347368877E-003 
 2.684878211031439E-003  2.718621024220558E-003  2.752787013223066E-003  2.787381469289702E-003 
 2.822409749432645E-003  2.857877277232577E-003  2.893789543655373E-003  2.930152107878536E-003 
 2.966970598127495E-003  3.004250712521860E-003  3.041998219931769E-003  3.080218960844416E-003 
 3.118918848240897E-003  3.158103868483479E-003  3.197780082213403E-003  3.237953625259355E-003 
 3.278630709556706E-003  3.319817624077653E-003  3.361520735772377E-003  3.403746490521338E-003 
 3.446501414098831E-003  3.489792113147937E-003  3.533625276166967E-003  3.578007674507561E-003 
 3.622946163384537E-003  3.668447682897643E-003  3.714519259065314E-003  3.761168004870600E-003 
 3.808401121319364E-003  3.856225898510895E-003  3.904649716721078E-003  3.953680047498239E-003 
 4.003324454771816E-003  4.053590595973980E-003  4.104486223174362E-003  4.156019184227995E-003 
 4.208197423936653E-003  4.261028985223685E-003  4.314522010322517E-003  4.368684741978956E-003 
 4.423525524667441E-003  4.479052805821376E-003  4.535275137077712E-003  4.592201175535921E-003 
 4.649839685031487E-003  4.708199537424100E-003  4.767289713900683E-003  4.827119306293406E-003 
 4.887697518412844E-003  4.949033667396437E-003  5.011137185072396E-003  5.074017619339226E-003 
 5.137684635561007E-003  5.202148017978607E-003  5.267417671136981E-003  5.333503621328715E-003 
 5.400416018053969E-003  5.468165135497001E-003  5.536761374019421E-003  5.606215261670335E-003 
 5.676537455713562E-003  5.747738744172074E-003  5.819830047389835E-003  5.892822419611201E-003 
 5.966727050578055E-003  6.041555267144844E-003  6.117318534911691E-003  6.194028459875745E-003 
 6.271696790100952E-003  6.350335417406416E-003  6.429956379073522E-003  6.510571859571988E-003 
 6.592194192305035E-003  6.674835861373847E-003  6.758509503361485E-003  6.843227909136446E-003 
 6.929004025676035E-003  7.015850957909732E-003  7.103781970582729E-003  7.192810490139826E-003 
 7.282950106629844E-003  7.374214575630748E-003  7.466617820195669E-003  7.560173932819984E-003 
 7.654897177429640E-003  7.750801991390919E-003  7.847902987541793E-003  7.946214956245088E-003 
 8.045752867463594E-003  8.146531872857335E-003  8.248567307903182E-003  8.351874694036939E-003 
 8.456469740818149E-003  8.562368348117758E-003  8.669586608328811E-003  8.778140808600409E-003 
 8.888047433095021E-003  8.999323165269430E-003  9.111984890179383E-003  9.226049696808226E-003 
 9.341534880419611E-003  9.458457944934511E-003  9.576836605332678E-003  9.696688790078735E-003 
 9.818032643573081E-003  9.940886528627747E-003  1.006526902896741E-002  1.019119895175572E-002 
 1.031869533014705E-002  1.044777742586399E-002  1.057846473180051E-002  1.071077697465117E-002 
 1.084473411756645E-002  1.098035636283430E-002  1.111766415458816E-002  1.125667818154159E-002 
 1.139741937974952E-002  1.153990893539653E-002  1.168416828761198E-002  1.183021913131252E-002 
 1.197808342007162E-002  1.212778336901682E-002  1.227934145775432E-002  1.243278043332140E-002 
 1.258812331316658E-002  1.274539338815777E-002  1.290461422561842E-002  1.306580967239189E-002 
 1.322900385793403E-002  1.339422119743418E-002  1.356148639496461E-002  1.373082444665855E-002 
 1.390226064391684E-002  1.407582057664335E-002  1.425153013650916E-002  1.442941552024564E-002 
 1.460950323296649E-002  1.479182009151875E-002  1.497639322786289E-002  1.516325009248195E-002 
 1.535241845781982E-002  1.554392642174875E-002  1.573780241106591E-002  1.593407518501929E-002 
 1.613277383886264E-002  1.633392780743976E-002  1.653756686879784E-002  1.674372114783008E-002 
 1.695242111994730E-002  1.716369761477879E-002  1.737758181990203E-002  1.759410528460154E-002 
 1.781329992365653E-002  1.803519802115735E-002  1.825983223435075E-002  1.848723559751365E-002 
 1.871744152585545E-002  1.895048381944869E-002  1.918639666718785E-002  1.942521465077629E-002 
 1.966697274874100E-002  1.991170634047498E-002  2.015945121030718E-002  2.041024355159964E-002 
 2.066411997087163E-002  2.092111749195052E-002  2.118127356014922E-002  2.144462604646970E-002 
 2.171121325183246E-002  2.198107391133155E-002  2.225424719851476E-002  2.253077272968871E-002 
 2.281069056824832E-002  2.309404122903037E-002  2.338086568269072E-002  2.367120536010457E-002 
 2.396510215678949E-002  2.426259843735064E-002  2.456373703994761E-002  2.486856128078235E-002 
 2.517711495860772E-002  2.548944235925586E-002  2.580558826018592E-002  2.612559793505041E-002 
 2.644951715827949E-002  2.677739220968253E-002  2.710926987906609E-002  2.744519747086761E-002 
 2.778522280880404E-002  2.812939424053445E-002  2.847776064233579E-002  2.883037142379095E-002 
 2.918727653248806E-002  2.954852645873001E-002  2.991417224025345E-002  3.028426546695572E-002 
 3.065885828562905E-002  3.103800340470063E-002  3.142175409897744E-002  3.181016421439453E-002 
 3.220328817276565E-002  3.260118097653458E-002  3.300389821352622E-002  3.341149606169555E-002 
 3.382403129387336E-002  3.424156128250703E-002  3.466414400439480E-002  3.509183804541202E-002 
 3.552470260522748E-002  3.596279750200831E-002  3.640618317711151E-002  3.685492069976030E-002 
 3.730907177170323E-002  3.776869873185442E-002  3.823386456091243E-002  3.870463288595608E-002 
 3.918106798501460E-002  3.966323479161035E-002  4.015119889927130E-002  4.064502656601136E-002 
 4.114478471877564E-002  4.165054095784846E-002  4.216236356122130E-002  4.268032148891805E-002 
 4.320448438727478E-002  4.373492259317120E-002  4.427170713821083E-002  4.481490975284677E-002 
 4.536460287045021E-002  4.592085963131813E-002  4.648375388661714E-002  4.705336020225996E-002 
 4.762975386271111E-002  4.821301087471802E-002  4.880320797096416E-002  4.940042261364020E-002 
 5.000473299792925E-002  5.061621805540234E-002  5.123495745731993E-002  5.186103161783506E-002 
 5.249452169709411E-002  5.313550960423043E-002  5.378407800024623E-002  5.444031030077832E-002 
 5.510429067874247E-002  5.577610406685170E-002  5.645583616000321E-002  5.714357341752888E-002 
 5.783940306530383E-002  5.854341309770762E-002  5.925569227943236E-002  5.997633014713196E-002 
 6.070541701090662E-002  6.144304395561639E-002  6.218930284201756E-002  6.294428630771556E-002 
 6.370808776792761E-002  6.448080141604855E-002  6.526252222401303E-002  6.605334594244663E-002 
 6.685336910059912E-002  6.766268900605203E-002  6.848140374419344E-002  6.930961217745153E-002 
 7.014741394427963E-002  7.099490945788410E-002  7.185219990468700E-002  7.271938724251495E-002 
 7.359657419850524E-002  7.448386426672063E-002  7.538136170546331E-002  7.628917153427907E-002 
 7.720739953064164E-002  7.813615222630790E-002  7.907553690333372E-002  8.002566158974007E-002 
 8.098663505481947E-002  8.195856680407142E-002  8.294156707375651E-002  8.393574682505778E-002 
 8.494121773783786E-002  8.595809220398069E-002  8.698648332030542E-002  8.802650488104077E-002 
 8.907827136984740E-002  9.014189795137549E-002  9.121750046234496E-002  9.230519540213498E-002 
 9.340509992286931E-002  9.451733181898414E-002  9.564200951626400E-002  9.677925206033207E-002 
 9.792917910457992E-002  9.909191089752220E-002  1.002675682695613E-001  1.014562726191462E-001 
 1.026581458983106E-001  1.038733105975736E-001  1.051018897301876E-001  1.063440068157164E-001 
 1.075997858629266E-001  1.088693513519754E-001  1.101528282158784E-001  1.114503418212374E-001 
 1.127620179482129E-001  1.140879827697210E-001  1.154283628298370E-001  1.167832850213874E-001 
 1.181528765627095E-001  1.195372649735606E-001  1.209365780501566E-001  1.223509438393194E-001 
 1.237804906117133E-001  1.252253468341498E-001  1.266856411409390E-001  1.281615023042672E-001 
 1.296530592035788E-001  1.311604407939406E-001  1.326837760733659E-001  1.342231940490770E-001 
 1.357788237026825E-001  1.373507939542464E-001  1.389392336252263E-001  1.405442714002566E-001 
 1.421660357877527E-001  1.438046550793134E-001  1.454602573078952E-001  1.471329702047352E-001 
 1.488229211549983E-001  1.505302371521213E-001  1.522550447508316E-001  1.539974700188128E-001 
 1.557576384869926E-001  1.575356750984265E-001  1.593317041557520E-001  1.611458492671857E-001 
 1.629782332910391E-001  1.648289782787244E-001  1.666982054162244E-001  1.685860349640010E-001 
 1.704925861953128E-001  1.724179773329177E-001  1.743623254841319E-001  1.763257465742180E-001 
 1.783083552780766E-001  1.803102649502134E-001  1.823315875529543E-001  1.843724335828834E-001 
 1.864329119954750E-001  1.885131301278936E-001  1.906131936199365E-001  1.927332063330898E-001 
 1.948732702676747E-001  1.970334854780554E-001  1.992139499858846E-001  2.014147596913601E-001 
 2.036360082824676E-001  2.058777871421852E-001  2.081401852536247E-001  2.104232891030865E-001 
 2.127271825810033E-001  2.150519468807511E-001  2.173976603953048E-001  2.197643986117157E-001 
 2.221522340033912E-001  2.245612359201556E-001  2.269914704760728E-001  2.294430004350113E-001 
 2.319158850939358E-001  2.344101801639057E-001  2.369259376487677E-001  2.394632057215244E-001 
 2.420220285983689E-001  2.446024464103698E-001  2.472044950727972E-001  2.498282061520803E-001 
 2.524736067303862E-001  2.551407192678153E-001  2.578295614622069E-001  2.605401461065512E-001 
 2.632724809440065E-001  2.660265685205215E-001  2.688024060350633E-001  2.715999851874573E-001 
 2.744192920238428E-001  2.772603067797536E-001  2.801230037208339E-001  2.830073509812021E-001 
 2.859133103994777E-001  2.888408373524901E-001  2.917898805866888E-001  2.947603820472789E-001 
 2.977522767051087E-001  3.007654923813378E-001  3.037999495699184E-001  3.068555612579273E-001 
 3.099322327437843E-001  3.130298614534027E-001  3.161483367543170E-001  3.192875397678372E-001 
 3.224473431792844E-001  3.256276110463651E-001  3.288281986057459E-001  3.320489520778953E-001 
 3.352897084702630E-001  3.385502953788704E-001  3.418305307883949E-001  3.451302228708288E-001 
 3.484491697828048E-001  3.517871594616816E-001  3.551439694204885E-001  3.585193665418344E-001 
 3.619131068708916E-001  3.653249354075691E-001  3.687545858979984E-001  3.722017806254571E-001 
 3.756662302008651E-001  3.791476333529926E-001  3.826456767185230E-001  3.861600346321262E-001 
 3.896903689166966E-001  3.932363286739238E-001  3.967975500753646E-001  4.003736561541960E-001 
 4.039642565978339E-001  4.075689475416087E-001  4.111873113636979E-001  4.148189164815200E-001 
 4.184633171498055E-001  4.221200532605631E-001  4.257886501451703E-001  4.294686183788239E-001 
 4.331594535875932E-001  4.368606362583247E-001  4.405716315516592E-001  4.442918891184239E-001 
 4.480208429196741E-001  4.517579110506650E-001  4.555024955690418E-001  4.592539823275429E-001 
 4.630117408115225E-001  4.667751239815991E-001  4.705434681217523E-001  4.743160926931913E-001 
 4.780923001943289E-001  4.818713760271999E-001  4.856525883706735E-001  4.894351880608109E-001 
 4.932184084787314E-001  4.970014654463530E-001  5.007835571303817E-001  5.045638639549300E-001 
 5.083415485231506E-001  5.121157555482760E-001  5.158856117944631E-001  5.196502260278439E-001 
 5.234086889781893E-001  5.271600733115995E-001  5.309034336146362E-001  5.346378063903150E-001 
 5.383622100663832E-001  5.420756450163098E-001  5.457770935934133E-001  5.494655201785615E-001 
 5.531398712418752E-001  5.567990754188668E-001  5.604420436014518E-001  5.640676690442649E-001 
 5.676748274867151E-001  5.712623772912109E-001  5.748291595979894E-001  5.783739984969734E-001 
 5.818957012170839E-001  5.853930583334293E-001  5.888648439927866E-001  5.923098161577870E-001 
 5.957267168702102E-001  5.991142725337874E-001  6.024711942169032E-001  6.057961779755786E-001 
 6.090879051971085E-001  6.123450429647188E-001  6.155662444435930E-001  6.187501492886108E-001 
 6.218953840741281E-001  6.250005627461084E-001  6.280642870969116E-001  6.310851472630231E-001 
 6.340617222459904E-001  6.369925804568232E-001  6.398762802840869E-001  6.427113706859097E-001 
 6.454963918060945E-001  6.482298756145148E-001  6.509103465719461E-001  6.535363223194658E-001 
 6.561063143925306E-001  6.586188289598157E-001  6.610723675868773E-001  6.634654280246718E-001 
 6.657965050229433E-001  6.680640911684586E-001  6.702666777480476E-001  6.724027556363734E-001 
 6.744708162083305E-001  6.764693522759403E-001  6.783968590495839E-001  6.802518351233784E-001 
 6.820327834844759E-001  6.837382125460326E-001  6.853666372035633E-001  6.869165799143637E-001 
 6.883865717996563E-001  6.897751537690743E-001  6.910808776670767E-001  6.923023074408478E-001 
 6.934380203292047E-001  6.944866080720056E-001  6.954466781395177E-001  6.963168549811739E-001 
 6.970957812931141E-001  6.977821193038789E-001  6.983745520775887E-001  6.988717848339158E-001 
 6.992725462841247E-001  6.995755899824271E-001  6.997796956918715E-001  6.998836707639583E-001 
 6.998863515311442E-001  6.997866047113770E-001  6.995833288237707E-001  6.992754556145138E-001 
 6.988619514920741E-001  6.983418189707452E-001  6.977140981215534E-001  6.969778680295288E-001 
 6.961322482563176E-001  6.951764003070988E-001  6.941095291007449E-001  6.929308844421492E-001 
 6.916397624956251E-001  6.902355072582607E-001  6.887175120320962E-001  6.870852208939713E-001 
 6.853381301618652E-001  6.834757898565380E-001  6.814978051572481E-001  6.794038378502997E-001 
 6.771936077691428E-001  6.748668942247126E-001  6.724235374246557E-001  6.698634398800445E-001 
 6.671865677981305E-001  6.643929524596213E-001  6.614826915788976E-001  6.584559506455036E-001 
 6.553129642451434E-001  6.520540373583132E-001  6.486795466345593E-001  6.451899416402173E-001 
 6.415857460773100E-001  6.378675589710957E-001  6.340360558235409E-001  6.300919897297502E-001 
 6.260361924541097E-001  6.218695754626025E-001  6.175931309074177E-001  6.132079325596050E-001 
 6.087151366851302E-001  6.041159828592488E-001  5.994117947136546E-001  5.946039806103584E-001 
 5.896940342357384E-001  5.846835351076578E-001  5.795741489879890E-001  5.743676281923219E-001 
 5.690658117880742E-001  5.636706256716729E-001  5.581840825149679E-001  5.526082815705600E-001 
 5.469454083253217E-001  5.411977339910600E-001  5.353676148210452E-001  5.294574912410182E-001 
 5.234698867833278E-001  5.174074068030579E-001  5.112727370153094E-001  5.050686417449879E-001 
 4.987979619766753E-001  4.924636131489515E-001  4.860685826954519E-001  4.796159273273099E-001 
 4.731087700534324E-001  4.665502969370763E-001  4.599437535894408E-001  4.532924414034304E-001 
 4.465997135333432E-001  4.398689706289576E-001  4.331036563352912E-001  4.263072525721255E-001 
 4.194832746101927E-001  4.126352659636322E-001  4.057667931209057E-001  3.988814401387341E-001 
 3.919828031257614E-001  3.850744846444803E-001  3.781600880614533E-001  3.712432118769822E-001 
 3.643274440660902E-001  3.574163564629731E-001  3.505134992209230E-001  3.436223953791451E-001 
 3.367465355668673E-001  3.298893728737059E-001  3.230543179134187E-001  3.162447341059811E-001 
 3.094639332003865E-001  3.027151710577533E-001  2.960016437112444E-001  2.893264837160306E-001 
 2.826927567990920E-001  2.761034588151116E-001  2.695615130111152E-001  2.630697675989030E-001 
 2.566309936307567E-001  2.502478831704295E-001  2.439230477481011E-001  2.376590170848405E-001 
 2.314582380692199E-001  2.253230739661136E-001  2.192558038354352E-001  2.132586221366629E-001 
 2.073336384935108E-001  2.014828775920674E-001  1.957082791851598E-001  1.900116981756503E-001 
 1.843949047518329E-001  1.788595845490878E-001  1.734073388134606E-001  1.680396845448450E-001 
 1.627580545999337E-001  1.575637977380183E-001  1.524581785960110E-001  1.474423775826596E-001 
 1.425174906857521E-001  1.376845291900776E-001  1.329444193079188E-001  1.282980017278172E-001 
 1.237460310911608E-001  1.192891754097126E-001  1.149280154404341E-001  1.106630440367816E-001 
 1.064946654980038E-001  1.024231949397886E-001  9.844885771087088E-002  9.457178888089104E-002 
 9.079203282489919E-002  8.710954292943757E-002  8.352418144414162E-002  8.003571950131745E-002 
 7.664383732404026E-002  7.334812464103244E-002  7.014808132399429E-002  6.704311826024340E-002 
 6.403255847054364E-002  6.111563847894155E-002  5.829150993834156E-002  5.555924151250460E-002 
 5.291782101219950E-002  5.036615778042150E-002  4.790308531895623E-002  4.552736414614157E-002 
 4.323768487348854E-002  4.103267148688171E-002  3.891088481640043E-002  3.687082617738704E-002 
 3.491094116423739E-002  3.302962357749607E-002  3.122521946419355E-002  2.949603125095429E-002 
 2.784032194921747E-002  2.625631941193022E-002  2.474222062127913E-002  2.329619598740195E-002 
 2.191639363854920E-002  2.060094368382775E-002  1.934796243043673E-002  1.815555653818491E-002 
 1.702182709504096E-002  1.594487359849878E-002  1.492279782862596E-002  1.395370759979042E-002 
 1.303572037921674E-002  1.216696676169866E-002  1.134559379097730E-002  1.056976811947686E-002 
 9.837678999262784E-003  9.147541098243978E-003  8.497597136774209E-003  7.886120340912448E-003 
 7.311416709672483E-003  6.771827094624082E-003  6.265729091197321E-003  5.791538741985347E-003 
 5.347712053235576E-003  4.932746326563029E-003  4.545181308710113E-003  4.183600162913168E-003 
 3.846630266116362E-003  3.532943836897195E-003  3.241258399534598E-003  2.970337090160095E-003 
 2.718988811385005E-003  2.486068242192533E-003  2.270475710223486E-003  2.071156933869418E-003 
 1.887102641816936E-003  1.717348077869318E-003  1.560972398987306E-003  1.417097974589373E-003 
 1.284889595162907E-003  1.163553598226850E-003  1.052336919629992E-003  9.505260780949057E-004 
 8.574461006882467E-004  7.724593961849519E-004  6.949646250321597E-004  6.243950512624876E-004 
 5.602202963288602E-004  5.019341176953381E-004  4.490774473901758E-004  4.012222515518826E-004 
 3.579588815655503E-004  3.189024609594464E-004  2.836947638136357E-004  2.520028809170726E-004 
 2.235179103375778E-004  1.979536752803807E-004  1.750454720288337E-004  1.545488504544719E-004 
 1.362384292960592E-004  1.199067481193530E-004  1.053631575855551E-004  9.243274937838047E-005 
 8.095532686882267E-005  7.078441733432892E-005  6.178632629638658E-005  5.383923429842817E-005 
 4.683233621529465E-005  4.066502296683739E-005  3.524610530196765E-005  3.049307912570863E-005 
 2.633143166044310E-005  2.269398756315597E-005  1.952029396230031E-005  1.675604322983723E-005 
 1.435253216445339E-005  1.226615612885797E-005  1.045793655469229E-005  8.893080099467558E-006 
 7.540567606549374E-006  6.372770877462579E-006  5.365095092776700E-006  4.495644726886516E-006 
 3.744908136985148E-006  3.095478686999820E-006  2.531684635352337E-006  2.041587892306544E-006 
 1.602102889142109E-006  0.000000000000000E+000  0.000000000000000E+000  0.000000000000000E+000 
 0.000000000000000E+000  0.000000000000000E+000  0.000000000000000E+000  0.000000000000000E+000 
 0.000000000000000E+000  0.000000000000000E+000  0.000000000000000E+000  0.000000000000000E+000 
 0.000000000000000E+000  0.000000000000000E+000  0.000000000000000E+000  0.000000000000000E+000 
 0.000000000000000E+000  0.000000000000000E+000  0.000000000000000E+000  0.000000000000000E+000 
 0.000000000000000E+000  0.000000000000000E+000  0.000000000000000E+000  0.000000000000000E+000 
 0.000000000000000E+000  0.000000000000000E+000  0.000000000000000E+000  0.000000000000000E+000 
 0.000000000000000E+000  0.000000000000000E+000  0.000000000000000E+000  0.000000000000000E+000 
 0.000000000000000E+000  0.000000000000000E+000  0.000000000000000E+000  0.000000000000000E+000 
 0.000000000000000E+000  0.000000000000000E+000  0.000000000000000E+000  0.000000000000000E+000 
 0.000000000000000E+000  0.000000000000000E+000  0.000000000000000E+000  0.000000000000000E+000 
 0.000000000000000E+000  0.000000000000000E+000  0.000000000000000E+000  0.000000000000000E+000 
 0.000000000000000E+000  0.000000000000000E+000  0.000000000000000E+000  0.000000000000000E+000 
 0.000000000000000E+000  0.000000000000000E+000  0.000000000000000E+000  0.000000000000000E+000 
 0.000000000000000E+000  0.000000000000000E+000  0.000000000000000E+000  0.000000000000000E+000 
 0.000000000000000E+000  0.000000000000000E+000  0.000000000000000E+000  0.000000000000000E+000 
 0.000000000000000E+000  0.000000000000000E+000  0.000000000000000E+000  0.000000000000000E+000 
 0.000000000000000E+000  0.000000000000000E+000  0.000000000000000E+000  0.000000000000000E+000 
 0.000000000000000E+000  0.000000000000000E+000  0.000000000000000E+000  0.000000000000000E+000 
 0.000000000000000E+000  0.000000000000000E+000  0.000000000000000E+000  0.000000000000000E+000 
 0.000000000000000E+000  0.000000000000000E+000  0.000000000000000E+000  0.000000000000000E+000 
 0.000000000000000E+000  0.000000000000000E+000  0.000000000000000E+000  0.000000000000000E+000 
 0.000000000000000E+000  0.000000000000000E+000  0.000000000000000E+000  0.000000000000000E+000 
 0.000000000000000E+000  0.000000000000000E+000  0.000000000000000E+000  0.000000000000000E+000 
 0.000000000000000E+000  0.000000000000000E+000  0.000000000000000E+000  0.000000000000000E+000 
 0.000000000000000E+000  0.000000000000000E+000  0.000000000000000E+000  0.000000000000000E+000 
 0.000000000000000E+000  0.000000000000000E+000  0.000000000000000E+000  0.000000000000000E+000 
 0.000000000000000E+000  0.000000000000000E+000  0.000000000000000E+000  0.000000000000000E+000 
 0.000000000000000E+000  0.000000000000000E+000  0.000000000000000E+000  0.000000000000000E+000 
 0.000000000000000E+000  0.000000000000000E+000  0.000000000000000E+000  0.000000000000000E+000 
 0.000000000000000E+000  0.000000000000000E+000  0.000000000000000E+000  0.000000000000000E+000 
 0.000000000000000E+000
    </PP_AEWFC.1>
    <PP_AEWFC.2 type="real" size="929" columns="4" index="2" label="1S" l="0">
 1.682295140084866E-003  1.703455241028212E-003  1.724881496144666E-003  1.746577253151899E-003 
 1.768545703109262E-003  1.790789851390380E-003  1.813313260767297E-003  1.836119408593348E-003 
 1.859211836942462E-003  1.882594132213782E-003  1.906269925412205E-003  1.930242892857864E-003 
 1.954516756695185E-003  1.979095285474495E-003  2.003982294725608E-003  2.029181647540404E-003 
 2.054697255162143E-003  2.080533077581766E-003  2.106693124141287E-003  2.133181454144367E-003 
 2.160002177474139E-003  2.187159455218407E-003  2.214657500302280E-003  2.242500578128359E-003 
 2.270693007224563E-003  2.299239159899688E-003  2.328143462906802E-003  2.357410398114565E-003 
 2.387044503186581E-003  2.417050372268880E-003  2.447432656685611E-003  2.478196065643078E-003 
 2.509345366942188E-003  2.540885387699433E-003  2.572821015076496E-003  2.605157197018588E-003 
 2.637898943001617E-003  2.671051324788295E-003  2.704619477193281E-003  2.738608598857474E-003 
 2.773023953031554E-003  2.807870868368883E-003  2.843154739727861E-003  2.878881028983872E-003 
 2.915055265850894E-003  2.951683048712909E-003  2.988770045465217E-003  3.026321994365758E-003 
 3.064344704896563E-003  3.102844058635445E-003  3.141826010138045E-003  3.181296587830347E-003 
 3.221261894911778E-003  3.261728110269014E-003  3.302701489400608E-003  3.344188365352560E-003 
 3.386195149664944E-003  3.428728333329730E-003  3.471794487759898E-003  3.515400265769999E-003 
 3.559552402568255E-003  3.604257716760350E-003  3.649523111365024E-003  3.695355574841604E-003 
 3.741762182129601E-003  3.788750095700496E-003  3.836326566621858E-003  3.884498935633919E-003 
 3.933274634238739E-003  3.982661185802094E-003  4.032666206668228E-003  4.083297407287610E-003 
 4.134562593357809E-003  4.186469666977664E-003  4.239026627814854E-003  4.292241574287023E-003 
 4.346122704756615E-003  4.400678318739533E-003  4.455916818127796E-003  4.511846708426314E-003 
 4.568476600003945E-003  4.625815209358979E-003  4.683871360399182E-003  4.742653985736567E-003 
 4.802172127997046E-003  4.862434941145083E-003  4.923451691823540E-003  4.985231760708849E-003 
 5.047784643881657E-003  5.111119954213119E-003  5.175247422766986E-003  5.240176900217644E-003 
 5.305918358284251E-003  5.372481891181172E-003  5.439877717084818E-003  5.508116179617084E-003 
 5.577207749345553E-003  5.647163025300593E-003  5.717992736509558E-003  5.789707743548212E-003 
 5.862319040109582E-003  5.935837754590372E-003  6.010275151695129E-003  6.085642634058319E-003 
 6.161951743884475E-003  6.239214164606603E-003  6.317441722563000E-003  6.396646388692663E-003 
 6.476840280249458E-003  6.558035662535218E-003  6.640244950651950E-003  6.723480711273309E-003 
 6.807755664435535E-003  6.893082685348000E-003  6.979474806223560E-003  7.066945218128881E-003 
 7.155507272854906E-003  7.245174484807646E-003  7.335960532919471E-003  7.427879262581074E-003 
 7.520944687594281E-003  7.615170992145885E-003  7.710572532802691E-003  7.807163840527922E-003 
 7.904959622719199E-003  8.003974765268221E-003  8.104224334642380E-003  8.205723579988436E-003 
 8.308487935258452E-003  8.412533021358169E-003  8.517874648317972E-003  8.624528817486639E-003 
 8.732511723748046E-003  8.841839757761007E-003  8.952529508222378E-003  9.064597764153673E-003 
 9.178061517211287E-003  9.292937964020540E-003  9.409244508533707E-003  9.526998764412181E-003 
 9.646218557432947E-003  9.766921927919545E-003  9.889127133197662E-003  1.001285265007553E-002 
 1.013811717734928E-002  1.026493963833346E-002  1.039333918341673E-002  1.052333519264312E-002 
 1.065494727831879E-002  1.078819528764454E-002  1.092309930537420E-002  1.105967965649911E-002 
 1.119795690895870E-002  1.133795187637743E-002  1.147968562082814E-002  1.162317945562205E-002 
 1.176845494812546E-002  1.191553392260323E-002  1.206443846308935E-002  1.221519091628451E-002 
 1.236781389448091E-002  1.252233027851441E-002  1.267876322074414E-002  1.283713614805951E-002 
 1.299747276491509E-002  1.315979705639298E-002  1.332413329129320E-002  1.349050602525186E-002 
 1.365894010388738E-002  1.382946066597478E-002  1.400209314664808E-002  1.417686328063086E-002 
 1.435379710549517E-002  1.453292096494863E-002  1.471426151214997E-002  1.489784571305285E-002 
 1.508370084977816E-002  1.527185452401474E-002  1.546233466044848E-002  1.565516951021995E-002 
 1.585038765441040E-002  1.604801800755622E-002  1.624808982119177E-002  1.645063268742063E-002 
 1.665567654251517E-002  1.686325167054434E-002  1.707338870702975E-002  1.728611864262987E-002 
 1.750147282685226E-002  1.771948297179380E-002  1.794018115590875E-002  1.816359982780457E-002 
 1.838977181006531E-002  1.861873030310244E-002  1.885050888903306E-002  1.908514153558511E-002 
 1.932266260002961E-002  1.956310683313953E-002  1.980650938317526E-002  2.005290579989628E-002 
 2.030233203859885E-002  2.055482446417950E-002  2.081041985522390E-002  2.106915540812096E-002 
 2.133106874120164E-002  2.159619789890240E-002  2.186458135595263E-002  2.213625802158588E-002 
 2.241126724377442E-002  2.268964881348663E-002  2.297144296896696E-002  2.325669040003774E-002 
 2.354543225242253E-002  2.383771013209043E-002  2.413356610962077E-002  2.443304272458765E-002 
 2.473618298996369E-002  2.504303039654243E-002  2.535362891737861E-002  2.566802301224582E-002 
 2.598625763211053E-002  2.630837822362209E-002  2.663443073361766E-002  2.696446161364133E-002 
 2.729851782447670E-002  2.763664684069181E-002  2.797889665519576E-002  2.832531578380588E-002 
 2.867595326982452E-002  2.903085868862450E-002  2.939008215224201E-002  2.975367431397598E-002 
 3.012168637299273E-002  3.049417007893462E-002  3.087117773653170E-002  3.125276221021467E-002 
 3.163897692872834E-002  3.202987588974369E-002  3.242551366446755E-002  3.282594540224808E-002 
 3.323122683517474E-002  3.364141428267105E-002  3.405656465607859E-002  3.447673546323045E-002 
 3.490198481301245E-002  3.533237141991031E-002  3.576795460854092E-002  3.620879431816561E-002 
 3.665495110718378E-002  3.710648615760443E-002  3.756346127949371E-002  3.802593891539626E-002 
 3.849398214472799E-002  3.896765468813802E-002  3.944702091183742E-002  3.993214583189208E-002 
 4.042309511847742E-002  4.091993510009200E-002  4.142273276772753E-002  4.193155577899237E-002 
 4.244647246218555E-002  4.296755182031862E-002  4.349486353508176E-002  4.402847797075155E-002 
 4.456846617803668E-002  4.511489989785850E-002  4.566785156506288E-002  4.622739431205987E-002 
 4.679360197238732E-002  4.736654908419501E-002  4.794631089364514E-002  4.853296335822529E-002 
 4.912658314996979E-002  4.972724765858533E-002  5.033503499447624E-002  5.095002399166526E-002 
 5.157229421060514E-002  5.220192594087626E-002  5.283900020376549E-002  5.348359875472156E-002 
 5.413580408568128E-002  5.479569942726206E-002  5.546336875081472E-002  5.613889677033153E-002 
 5.682236894420348E-002  5.751387147682119E-002  5.821349132001335E-002  5.892131617431642E-002 
 5.963743449006972E-002  6.036193546832892E-002  6.109490906159161E-002  6.183644597432816E-002 
 6.258663766331064E-002  6.334557633773294E-002  6.411335495911452E-002  6.489006724098033E-002 
 6.567580764830933E-002  6.647067139674333E-002  6.727475445154851E-002  6.808815352632086E-002 
 6.891096608142731E-002  6.974329032217383E-002  7.058522519669119E-002  7.143687039352979E-002 
 7.229832633895367E-002  7.316969419392430E-002  7.405107585076444E-002  7.494257392949166E-002 
 7.584429177381156E-002  7.675633344675981E-002  7.767880372598247E-002  7.861180809864338E-002 
 7.955545275594729E-002  8.050984458726723E-002  8.147509117386419E-002  8.245130078218714E-002 
 8.343858235674075E-002  8.443704551250839E-002  8.544680052691724E-002  8.646795833133251E-002 
 8.750063050206686E-002  8.854492925089151E-002  8.960096741503495E-002  9.066885844665425E-002 
 9.174871640176487E-002  9.284065592861347E-002  9.394479225547853E-002  9.506124117788277E-002 
 9.619011904520167E-002  9.733154274665141E-002  9.848562969663956E-002  9.965249781946145E-002 
 1.008322655333248E-001  1.020250517336849E-001  1.032309757758716E-001  1.044501574569908E-001 
 1.056827169970801E-001  1.069287750195007E-001  1.081884525305447E-001  1.094618708982387E-001 
 1.107491518303229E-001  1.120504173513851E-001  1.133657897791280E-001  1.146953916997488E-001 
 1.160393459424085E-001  1.173977755527696E-001  1.187708037655777E-001  1.201585539762654E-001 
 1.215611497115544E-001  1.229787145990310E-001  1.244113723356720E-001  1.258592466552952E-001 
 1.273224612949087E-001  1.288011399599350E-001  1.302954062882822E-001  1.318053838132366E-001 
 1.333311959251492E-001  1.348729658318895E-001  1.364308165180375E-001  1.380048707027870E-001 
 1.395952507965308E-001  1.412020788560988E-001  1.428254765386192E-001  1.444655650539736E-001 
 1.461224651158151E-001  1.477962968911184E-001  1.494871799482310E-001  1.511952332033949E-001 
 1.529205748657039E-001  1.546633223804677E-001  1.564235923709474E-001  1.582015005784301E-001 
 1.599971618006090E-001  1.618106898282352E-001  1.636421973800064E-001  1.654917960356581E-001 
 1.673595961672222E-001  1.692457068684179E-001  1.711502358821386E-001  1.730732895259992E-001 
 1.750149726159076E-001  1.769753883876229E-001  1.789546384162650E-001  1.809528225337371E-001 
 1.829700387440232E-001  1.850063831363256E-001  1.870619497960014E-001  1.891368307132624E-001 
 1.912311156895983E-001  1.933448922418869E-001  1.954782455041509E-001  1.976312581269245E-001 
 1.998040101741892E-001  2.019965790178428E-001  2.042090392296604E-001  2.064414624707100E-001 
 2.086939173781847E-001  2.109664694496112E-001  2.132591809243984E-001  2.155721106626864E-001 
 2.179053140214578E-001  2.202588427278754E-001  2.226327447498059E-001  2.250270641634957E-001 
 2.274418410183588E-001  2.298771111988434E-001  2.323329062833387E-001  2.348092534000885E-001 
 2.373061750800761E-001  2.398236891068459E-001  2.423618083632288E-001  2.449205406749385E-001 
 2.474998886510070E-001  2.500998495210276E-001  2.527204149691766E-001  2.553615709649833E-001 
 2.580232975908209E-001  2.607055688660916E-001  2.634083525680807E-001  2.661316100494542E-001 
 2.688752960523783E-001  2.716393585192392E-001  2.744237383999429E-001  2.772283694557772E-001 
 2.800531780598198E-001  2.828980829938781E-001  2.857629952419469E-001  2.886478177801753E-001 
 2.915524453633335E-001  2.944767643077730E-001  2.974206522708774E-001  3.003839780270023E-001 
 3.033666012399054E-001  3.063683722316710E-001  3.093891317481355E-001  3.124287107208248E-001 
 3.154869300254155E-001  3.185636002367359E-001  3.216585213803274E-001  3.247714826805883E-001 
 3.279022623055264E-001  3.310506271081520E-001  3.342163323645435E-001  3.373991215086254E-001 
 3.405987258636997E-001  3.438148643707791E-001  3.470472433137708E-001  3.502955560415683E-001 
 3.535594826871113E-001  3.568386898834776E-001  3.601328304770798E-001  3.634415432380405E-001 
 3.667644525678275E-001  3.701011682042353E-001  3.734512849238056E-001  3.768143822417839E-001 
 3.801900241097171E-001  3.835777586108011E-001  3.869771176530957E-001  3.903876166607295E-001 
 3.938087542632235E-001  3.972400119830710E-001  4.006808539217162E-001  4.041307264440808E-001 
 4.075890578617988E-001  4.110552581153212E-001  4.145287184550654E-001  4.180088111217883E-001 
 4.214948890263708E-001  4.249862854292108E-001  4.284823136194273E-001  4.319822665940882E-001 
 4.354854167376827E-001  4.389910155020672E-001  4.424982930871217E-001  4.460064581223638E-001 
 4.495146973497746E-001  4.530221753081017E-001  4.565280340189105E-001  4.600313926746681E-001 
 4.635313473291492E-001  4.670269705904653E-001  4.705173113170282E-001  4.740013943167641E-001 
 4.774782200499101E-001  4.809467643357300E-001  4.844059780634956E-001  4.878547869080938E-001 
 4.912920910506225E-001  4.947167649043556E-001  4.981276568464581E-001  5.015235889558513E-001 
 5.049033567576301E-001  5.082657289744472E-001  5.116094472852881E-001  5.149332260920702E-001 
 5.182357522945074E-001  5.215156850736936E-001  5.247716556848635E-001  5.280022672598025E-001 
 5.312060946193825E-001  5.343816840967135E-001  5.375275533714043E-001  5.406421913154402E-001 
 5.437240578511876E-001  5.467715838220502E-001  5.497831708763029E-001  5.527571913646452E-001 
 5.556919882520140E-001  5.585858750442142E-001  5.614371357299217E-001  5.642440247386320E-001 
 5.670047669151239E-001  5.697175575110220E-001  5.723805621940455E-001  5.749919170755378E-001 
 5.775497287568760E-001  5.800520743953689E-001  5.824970017902537E-001  5.848825294894109E-001 
 5.872066469174203E-001  5.894673145255862E-001  5.916624639645659E-001  5.937899982802408E-001 
 5.958477921334718E-001  5.978336920443902E-001  5.997455166618714E-001  6.015810570588548E-001 
 6.033380770541656E-001  6.050143135615074E-001  6.066074769662925E-001  6.081152515309861E-001 
 6.095352958296411E-001  6.108652432123031E-001  6.121027022999762E-001  6.132452575108349E-001 
 6.142904696183784E-001  6.152358763422263E-001  6.160789929722563E-001  6.168173130267948E-001 
 6.174483089455668E-001  6.179694328181290E-001  6.183781171485009E-001  6.186717756567260E-001 
 6.188478041180924E-001  6.189035812407530E-001  6.188364695824876E-001  6.186438165073590E-001 
 6.183229551830164E-001  6.178712056194139E-001  6.172858757497086E-001  6.165642625541210E-001 
 6.157036532275365E-001  6.147013263916442E-001  6.135545533524083E-001  6.122605994036806E-001 
 6.108167251777676E-001  6.092201880437719E-001  6.074682435545378E-001  6.055581469430334E-001 
 6.034871546690127E-001  6.012525260168002E-001  5.988515247450520E-001  5.962814207893452E-001 
 5.935394920184535E-001  5.906230260451629E-001  5.875293220924882E-001  5.842556929161349E-001 
 5.807994667840592E-001  5.771579895139578E-001  5.733286265695122E-001  5.693087652161957E-001 
 5.650958167374258E-001  5.606872187118239E-001  5.560804373523032E-001  5.512729699076778E-001 
 5.462623471274273E-001  5.410461357902049E-001  5.356219412966065E-001  5.299874103266482E-001 
 5.241402335623081E-001  5.180781484753930E-001  5.117989421808755E-001  5.053004543557178E-001 
 4.985805802230541E-001  4.916372736014408E-001  4.844685500186964E-001  4.770724898896535E-001 
 4.694472417569119E-001  4.615910255934358E-001  4.535021361655529E-001  4.451789464546141E-001 
 4.366199111352331E-001  4.278235701076629E-001  4.187885520814719E-001  4.095135782072526E-001 
 3.999974657526407E-001  3.902391318184322E-001  3.802375970900672E-001  3.699919896192000E-001 
 3.595015486295057E-001  3.487656283402763E-001  3.377837018007483E-001  3.265553647274858E-001 
 3.150803393365168E-001  3.033584781613062E-001  2.913897678470546E-001  2.791743329112479E-001 
 2.667124394598680E-001  2.540044988482307E-001  2.410510712750522E-001  2.278528692980962E-001 
 2.144107612596313E-001  2.007257746099670E-001  1.867990991175527E-001  1.726320899545594E-001 
 1.582262706475224E-001  1.435833358835535E-001  1.287051541638400E-001  1.135937702976572E-001 
 9.825140773195300E-002  8.268047071374394E-002  6.688354628503333E-002  5.086340611270795E-002 
 3.462300815908595E-002  1.816549820220350E-002  1.494211218467545E-003 -1.538732735580610E-002 
-3.247540046347015E-002 -4.976609834173420E-002 -6.725531748494845E-002 -8.493875962258692E-002 
-1.028119306763709E-001 -1.208701396571397E-001 -1.391084974591759E-001 -1.575219155073475E-001 
-1.761051042107327E-001 -1.948525711754647E-001 -2.137586191294510E-001 -2.328173435124798E-001 
-2.520226296870884E-001 -2.713681497284846E-001 -2.908473587558253E-001 -3.104534907722772E-001 
-3.301795539875029E-001 -3.500183256035303E-001 -3.699623460532913E-001 -3.900039126904375E-001 
-4.101350729392357E-001 -4.303476169243300E-001 -4.506330696118123E-001 -4.709826825052127E-001 
-4.913874249525773E-001 -5.118379751335471E-001 -5.323247108081220E-001 -5.528376999213767E-001 
-5.733666911705740E-001 -5.939011046526876E-001 -6.144300227210246E-001 -6.349421811892245E-001 
-6.554259610291125E-001 -6.758693807154628E-001 -6.962600893754202E-001 -7.165853609028883E-001 
-7.368320891983753E-001 -7.569867846923946E-001 -7.770355723053602E-001 -7.969641909888511E-001 
-8.167579949820603E-001 -8.364019569031790E-001 -8.558806727784056E-001 -8.751783690913804E-001 
-8.942789119132964E-001 -9.131658181490586E-001 -9.318222689080088E-001 -9.502311249794081E-001 
-9.683749443635852E-001 -9.862360017800509E-001 -1.003796310044599E+000 -1.021037643179133E+000 
-1.037941561091386E+000 -1.054489435637497E+000 -1.070662477859164E+000 -1.086441766169445E+000 
-1.101808275247571E+000 -1.116742905393807E+000 -1.131226512090671E+000 -1.145239935516705E+000 
-1.158764029763584E+000 -1.171779691516368E+000 -1.184267887969915E+000 -1.196209683771507E+000 
-1.207586266800077E+000 -1.218378972615539E+000 -1.228569307437081E+000 -1.238138969536196E+000 
-1.247069868958185E+000 -1.255344145514244E+000 -1.262944185014498E+000 -1.269852633740095E+000 
-1.276052411179086E+000 -1.281526721076206E+000 -1.286259060870334E+000 -1.290233229615275E+000 
-1.293433334499345E+000 -1.295843796097077E+000 -1.297449352502051E+000 -1.298235062503527E+000 
-1.298186307981247E+000 -1.297288795702554E+000 -1.295528558714018E+000 -1.292891957526203E+000 
-1.289365681295158E+000 -1.284936749207885E+000 -1.279592512281576E+000 -1.273320655787905E+000 
-1.266109202514355E+000 -1.257946517074487E+000 -1.248821311478387E+000 -1.238722652173352E+000 
-1.227639968763258E+000 -1.215563064613065E+000 -1.202482129542664E+000 -1.188387754811657E+000 
-1.173270950593886E+000 -1.157123166137437E+000 -1.139936312802504E+000 -1.121702790165894E+000 
-1.102415515377007E+000 -1.082067955945824E+000 -1.060654166138713E+000 -1.038168827152640E+000 
-1.014607291232580E+000 -9.899656298905221E-001 -9.642406863772247E-001 -9.374301325499024E-001 
-9.095325302700051E-001 -8.805473974552142E-001 -8.504752788985234E-001 -8.193178219547096E-001 
-7.870778571804719E-001 -7.537594839988992E-001 -7.193681614415648E-001 -6.839108040022954E-001 
-6.473958826153600E-001 -6.098335307473092E-001 -5.712356555658169E-001 -5.316160541204359E-001 
-4.909905344390378E-001 -4.493770414096638E-001 -4.067957872804012E-001 -3.632693865695380E-001 
-3.188229951344598E-001 -2.734844531003528E-001 -2.272844312985518E-001 -1.802565808092766E-001 
-1.324376851447623E-001 -8.386781454433902E-002 -3.459048178456621E-002  1.534720116212277E-002 
 6.589436636720222E-002  1.169962339113247E-001  1.685939574894803E-001  2.206244726623386E-001 
 2.730203488655248E-001  3.257096463438366E-001  3.786180992976400E-001  4.316743486976746E-001 
 4.848009399229814E-001  5.379032280484791E-001  5.908874854122317E-001  6.436527018117424E-001 
 6.960926914789426E-001  7.480957530481945E-001  7.995446717605347E-001  8.503167238593531E-001 
 9.002837061271776E-001  9.493119941892764E-001  9.972626322073647E-001  1.043991456861068E+000 
 1.089349258613658E+000  1.133181983363980E+000  1.175330977679476E+000  1.215633280883997E+000 
 1.253921967335730E+000  1.290026542271901E+000  1.323773394614338E+000  1.354986310119703E+000 
 1.383487048216135E+000  1.409095985789502E+000  1.431632831062923E+000  1.450917410547323E+000 
 1.466770531823185E+000  1.479014924638731E+000  1.487476262471321E+000  1.491984266290897E+000 
 1.492373891780284E+000  1.488486600700618E+000  1.480171716434573E+000  1.467287862988756E+000 
 1.449704485883353E+000  1.427303452395545E+000  1.399980727547796E+000  1.367648121037423E+000 
 1.330235098985680E+000  1.287690652939285E+000  1.239985216982615E+000  1.187112622114026E+000 
 1.129092075205621E+000  1.065970147905591E+000  9.978227587612701E-001  9.247571296477411E-001 
 8.469136952926417E-001  7.644679423080866E-001  6.776321516946195E-001  5.866570162938735E-001 
 4.918331021651651E-001  3.934921203812398E-001  2.920079733204665E-001  1.877975372241557E-001 
 8.132114064240156E-002 -2.691730352869620E-002 -1.363705563424945E-001 -2.464487466106582E-001 
-3.565205462080386E-001 -4.659148731113231E-001 -5.739231680179938E-001 -6.798022892482709E-001 
-7.827780686238441E-001 -8.820495680260434E-001 -9.767940722420155E-001 -1.066172848388306E+000 
-1.149337695535759E+000 -1.225438300030387E+000 -1.293630402301635E+000 -1.353084769573382E+000 
-1.402996955761165E+000 -1.442597814890057E+000 -1.471164717567057E+000 -1.488033401389900E+000 
-1.492610365711988E+000 -1.484385699001396E+000 -1.462946203278799E+000 -1.427988655009279E+000 
-1.379333015646117E+000 -1.316935378154680E+000 -1.240900408747686E+000 -1.151493016305932E+000 
-1.049148956214159E+000 -9.344840513950660E-001 -8.083016920744853E-001 -6.715982582706213E-001 
-5.255660962931147E-001 -3.715936738883491E-001 -2.112625393887038E-001 -4.634071969625570E-002 
 1.212277884222730E-001  2.893377480046398E-001  4.557419025616450E-001  6.180748992487743E-001 
 7.738820520751828E-001  9.206529923582749E-001  1.055860146340490E+000  1.177001855420716E+000 
 1.281649813111557E+000  1.367500335519541E+000  1.432428810480640E+000  1.474546486917602E+000 
 1.492258573899440E+000  1.484322422681525E+000  1.449904370190721E+000  1.388633635644137E+000 
 1.300651491062411E+000  1.186653780294555E+000  1.047924749781681E+000  8.863600884963432E-001 
 7.044770657821933E-001  5.054097159673743E-001  2.928871592883344E-001  7.119338082584184E-002 
-1.548928775044670E-001 -3.801790147420592E-001 -5.991606056935832E-001 -8.061442501033208E-001 
-9.953901332898348E-001 -1.161272314618297E+000 -1.298453795523447E+000 -1.402072394453840E+000 
-1.467932404602865E+000 -1.492695972852816E+000 -1.474067164929460E+000 -1.410960830539803E+000 
-1.303647718621319E+000 -1.153866887550016E+000 -9.648963818490228E-001 -7.415734785974543E-001 
-4.902566113698140E-001 -2.187224149271333E-001  6.400675843311766E-002  3.479070013483223E-001 
 6.222677648778883E-001  8.760729853141658E-001  1.098439836382463E+000  1.279102167872748E+000 
 1.408921231054818E+000  1.480401963950186E+000  1.488189207501137E+000  1.429515079764437E+000 
 1.304566710414020E+000  1.116743002324514E+000  8.727703955991785E-001  5.826510707856440E-001 
 2.594228691940483E-001 -8.128146451864260E-002 -4.218773535534401E-001 -7.436624730279996E-001 
-1.027815914501359E+000 -1.256520907313173E+000 -1.414154011471235E+000 -1.488469390927756E+000 
-1.471695143170628E+000 -1.361451232901992E+000 -1.161396890544681E+000 -8.815207889785290E-001 
-5.380009949425415E-001 -1.525841992904017E-001  2.485350313624624E-001  6.363152284358786E-001 
 9.808846414597203E-001
    </PP_AEWFC.2>
    <PP_PSWFC.1 type="real" size="929" columns="4" index="1" label="1S" l="0">
 1.278351372228058E-003  1.294431026711946E-003  1.310712937345437E-003  1.327199648159301E-003 
 1.343893735182809E-003  1.360797806846165E-003  1.377914504388004E-003  1.395246502268014E-003 
 1.412796508584735E-003  1.430567265498627E-003  1.448561549660444E-003  1.466782172644996E-003 
 1.485231981390371E-003  1.503913858642672E-003  1.522830723406353E-003  1.541985531400203E-003 
 1.561381275519074E-003  1.581020986301416E-003  1.600907732402673E-003  1.621044621074653E-003 
 1.641434798650904E-003  1.662081451038199E-003  1.682987804214205E-003  1.704157124731399E-003 
 1.725592720227327E-003  1.747297939941264E-003  1.769276175237379E-003  1.791530860134478E-003 
 1.814065471842392E-003  1.836883531305125E-003  1.859988603750808E-003  1.883384299248587E-003 
 1.907074273272489E-003  1.931062227272391E-003  1.955351909252162E-003  1.979947114355059E-003 
 2.004851685456490E-003  2.030069513764229E-003  2.055604539426164E-003  2.081460752145695E-003 
 2.107642191804846E-003  2.134152949095225E-003  2.160997166156906E-003  2.188179037225332E-003 
 2.215702809286364E-003  2.243572782739530E-003  2.271793312069644E-003  2.300368806526829E-003 
 2.329303730815107E-003  2.358602605789636E-003  2.388270009162687E-003  2.418310576218513E-003 
 2.448729000537189E-003  2.479530034727536E-003  2.510718491169276E-003  2.542299242764471E-003 
 2.574277223698433E-003  2.606657430210175E-003  2.639444921372541E-003  2.672644819882139E-003 
 2.706262312859178E-003  2.740302652657368E-003  2.774771157683974E-003  2.809673213230177E-003 
 2.845014272311867E-003  2.880799856520966E-003  2.917035556887464E-003  2.953727034752272E-003 
 2.990880022651022E-003  3.028500325208979E-003  3.066593820047161E-003  3.105166458699858E-003 
 3.144224267543648E-003  3.183773348738078E-003  3.223819881178165E-003  3.264370121458815E-003 
 3.305430404851373E-003  3.347007146292419E-003  3.389106841384961E-003  3.431736067412205E-003 
 3.474901484364016E-003  3.518609835976281E-003  3.562867950783298E-003  3.607682743183353E-003 
 3.653061214517691E-003  3.699010454162978E-003  3.745537640637489E-003  3.792650042721157E-003 
 3.840355020589663E-003  3.888660026962754E-003  3.937572608266927E-003  3.987100405812718E-003 
 4.037251156986730E-003  4.088032696458594E-003  4.139452957403077E-003  4.191519972737462E-003 
 4.244241876374471E-003  4.297626904490855E-003  4.351683396811886E-003  4.406419797911946E-003 
 4.461844658531364E-003  4.517966636909788E-003  4.574794500136218E-003  4.632337125515954E-003 
 4.690603501954662E-003  4.749602731359722E-003  4.809344030059165E-003  4.869836730238323E-003 
 4.931090281394469E-003  4.993114251809662E-003  5.055918330041978E-003  5.119512326435424E-003 
 5.183906174648715E-003  5.249109933203157E-003  5.315133787049902E-003  5.381988049156747E-003 
 5.449683162114794E-003  5.518229699765174E-003  5.587638368846083E-003  5.657920010660401E-003 
 5.729085602764104E-003  5.801146260675789E-003  5.874113239607509E-003  5.947997936217223E-003 
 6.022811890383119E-003  6.098566787000026E-003  6.175274457798280E-003  6.252946883185240E-003 
 6.331596194109765E-003  6.411234673949948E-003  6.491874760424320E-003  6.573529047526915E-003 
 6.656210287486402E-003  6.739931392749624E-003  6.824705437989837E-003  6.910545662139889E-003 
 6.997465470450750E-003  7.085478436575626E-003  7.174598304679956E-003  7.264838991577704E-003 
 7.356214588894105E-003  7.448739365255357E-003  7.542427768505454E-003  7.637294427950560E-003 
 7.733354156631258E-003  7.830621953622918E-003  7.929113006364659E-003  8.028842693017159E-003 
 8.129826584849674E-003  8.232080448656646E-003  8.335620249204203E-003  8.440462151706967E-003 
 8.546622524335495E-003  8.654117940754730E-003  8.762965182693854E-003  8.873181242547821E-003 
 8.984783326011112E-003  9.097788854743943E-003  9.212215469071390E-003  9.328081030715810E-003 
 9.445403625562905E-003  9.564201566461898E-003  9.684493396060180E-003  9.806297889672817E-003 
 9.929634058187434E-003  1.005452115100462E-002  1.018097865901471E-002  1.030902631761091E-002 
 1.043868410973942E-002  1.056997226898714E-002  1.070291128270687E-002  1.083752189518119E-002 
 1.097382511082466E-002  1.111184219742548E-002  1.125159468942659E-002  1.139310439124686E-002 
 1.153639338064288E-002  1.168148401211161E-002  1.182839892033456E-002  1.197716102366390E-002 
 1.212779352765082E-002  1.228031992861699E-002  1.243476401726913E-002  1.259114988235759E-002 
 1.274950191437920E-002  1.290984480932479E-002  1.307220357247236E-002  1.323660352222569E-002 
 1.340307029399948E-002  1.357162984415135E-002  1.374230845396092E-002  1.391513273365711E-002 
 1.409012962649345E-002  1.426732641287249E-002  1.444675071451967E-002  1.462843049870678E-002 
 1.481239408252643E-002  1.499867013721704E-002  1.518728769253958E-002  1.537827614120650E-002 
 1.557166524336295E-002  1.576748513112155E-002  1.596576631315060E-002  1.616653967931662E-002 
 1.636983650538180E-002  1.657568845775660E-002  1.678412759830856E-002  1.699518638922730E-002 
 1.720889769794668E-002  1.742529480212469E-002  1.764441139468106E-002  1.786628158889418E-002 
 1.809093992355673E-002  1.831842136819149E-002  1.854876132832746E-002  1.878199565083677E-002 
 1.901816062933342E-002  1.925729300963379E-002  1.949942999527993E-002  1.974460925312608E-002 
 1.999286891898869E-002  2.024424760336118E-002  2.049878439719305E-002  2.075651887773469E-002 
 2.101749111444817E-002  2.128174167498412E-002  2.154931163122624E-002  2.182024256540277E-002 
 2.209457657626635E-002  2.237235628534254E-002  2.265362484324704E-002  2.293842593607315E-002 
 2.322680379184875E-002  2.351880318706425E-002  2.381446945327162E-002  2.411384848375468E-002 
 2.441698674027198E-002  2.472393125987156E-002  2.503472966177909E-002  2.534943015435923E-002 
 2.566808154215060E-002  2.599073323297535E-002  2.631743524512282E-002  2.664823821460850E-002 
 2.698319340250820E-002  2.732235270236770E-002  2.766576864768869E-002  2.801349441949065E-002 
 2.836558385394942E-002  2.872209145011266E-002  2.908307237769208E-002  2.944858248493324E-002 
 2.981867830656246E-002  3.019341707181151E-002  3.057285671251997E-002  3.095705587131527E-002 
 3.134607390987081E-002  3.173997091724168E-002  3.213880771827851E-002  3.254264588211914E-002 
 3.295154773075777E-002  3.336557634769217E-002  3.378479558664792E-002  3.420927008038024E-002 
 3.463906524955268E-002  3.507424731169234E-002  3.551488329022175E-002  3.596104102356629E-002 
 3.641278917433724E-002  3.687019723858976E-002  3.733333555515495E-002  3.780227531504581E-002 
 3.827708857093588E-002  3.875784824671009E-002  3.924462814708687E-002  3.973750296731046E-002 
 4.023654830291247E-002  4.074184065954158E-002  4.125345746286008E-002  4.177147706850623E-002 
 4.229597877212041E-002  4.282704281943448E-002  4.336475041642178E-002  4.390918373950685E-002 
 4.446042594583256E-002  4.501856118358272E-002  4.558367460235856E-002  4.615585236360616E-002 
 4.673518165109314E-002  4.732175068143180E-002  4.791564871464592E-002  4.851696606477913E-002 
 4.912579411054091E-002  4.974222530598808E-002  5.036635319123792E-002  5.099827240320950E-002 
 5.163807868639005E-002  5.228586890362171E-002  5.294174104690558E-002  5.360579424821812E-002 
 5.427812879033554E-002  5.495884611766196E-002  5.564804884705561E-002  5.634584077864880E-002 
 5.705232690665551E-002  5.776761343016115E-002  5.849180776388880E-002  5.922501854893504E-002 
 5.996735566346952E-002  6.071893023339101E-002  6.147985464293260E-002  6.225024254520906E-002 
 6.303020887269800E-002  6.381986984764673E-002  6.461934299239655E-002  6.542874713961488E-002 
 6.624820244242655E-002  6.707783038443368E-002  6.791775378961466E-002  6.876809683209106E-002 
 6.962898504575141E-002  7.050054533372037E-002  7.138290597766095E-002  7.227619664689733E-002 
 7.318054840734481E-002  7.409609373023374E-002  7.502296650061188E-002  7.596130202561185E-002 
 7.691123704246684E-002  7.787290972625900E-002  7.884645969738367E-002  7.983202802871112E-002 
 8.082975725242880E-002  8.183979136654417E-002  8.286227584102833E-002  8.389735762358060E-002 
 8.494518514499150E-002  8.600590832408314E-002  8.707967857220292E-002  8.816664879724692E-002 
 8.926697340718819E-002  9.038080831308301E-002  9.150831093152970E-002  9.264964018655039E-002 
 9.380495651086776E-002  9.497442184654628E-002  9.615819964496566E-002  9.735645486609576E-002 
 9.856935397703739E-002  9.979706494979518E-002  1.010397572582457E-001  1.022976018742625E-001 
 1.035707712629604E-001  1.048594393770173E-001  1.061637816500315E-001  1.074839749888722E-001 
 1.088201977649759E-001  1.101726298045439E-001  1.115414523775921E-001  1.129268481858009E-001 
 1.143290013491170E-001  1.157480973910492E-001  1.171843232226052E-001  1.186378671248111E-001 
 1.201089187297538E-001  1.215976690000846E-001  1.231043102069195E-001  1.246290359060725E-001 
 1.261720409125509E-001  1.277335212732431E-001  1.293136742377288E-001  1.309126982271295E-001 
 1.325307928009304E-001  1.341681586216858E-001  1.358249974175293E-001  1.375015119424033E-001 
 1.391979059339161E-001  1.409143840687399E-001  1.426511519154528E-001  1.444084158847294E-001 
 1.461863831767803E-001  1.479852617259359E-001  1.498052601422709E-001  1.516465876501599E-001 
 1.535094540236500E-001  1.553940695185381E-001  1.573006448010309E-001  1.592293908728673E-001 
 1.611805189927773E-001  1.631542405941481E-001  1.651507671987643E-001  1.671703103264882E-001 
 1.692130814007367E-001  1.712792916496161E-001  1.733691520025644E-001  1.754828729823519E-001 
 1.776206645922870E-001  1.797827361984663E-001  1.819692964069111E-001  1.841805529354225E-001 
 1.864167124799881E-001  1.886779805755669E-001  1.909645614510762E-001  1.932766578784031E-001 
 1.956144710152558E-001  1.979782002416686E-001  2.003680429899740E-001  2.027841945680446E-001 
 2.052268479756145E-001  2.076961937134779E-001  2.101924195853655E-001  2.127157104922968E-001 
 2.152662482191975E-001  2.178442112135807E-001  2.204497743560766E-001  2.230831087226038E-001 
 2.257443813379675E-001  2.284337549206714E-001  2.311513876187326E-001  2.338974327362824E-001 
 2.366720384507432E-001  2.394753475203682E-001  2.423074969819325E-001  2.451686178383699E-001 
 2.480588347361480E-001  2.509782656321802E-001  2.539270214500783E-001  2.569052057255499E-001 
 2.599129142407579E-001  2.629502346474601E-001  2.660172460787572E-001  2.691140187492880E-001 
 2.722406135437165E-001  2.753970815933727E-001  2.785834638409166E-001  2.817997905929117E-001 
 2.850460810602097E-001  2.883223428860643E-001  2.916285716619110E-001  2.949647504307741E-001 
 2.983308491782766E-001  3.017268243112659E-001  3.051526181240782E-001  3.086081582525123E-001 
 3.120933571156002E-001  3.156081113453028E-001  3.191523012042949E-001  3.227257899920412E-001 
 3.263284234394092E-001  3.299600290921108E-001  3.336204156833095E-001  3.373093724957867E-001 
 3.410266687141122E-001  3.447720527673246E-001  3.485452516626930E-001  3.523459703111913E-001 
 3.561738908453960E-001  3.600286719305847E-001  3.639099480699006E-001  3.678173289045268E-001 
 3.717503985099035E-001  3.757087146891190E-001  3.796918082646946E-001  3.836991823701006E-001 
 3.877303117424359E-001  3.917846420178235E-001  3.958615890311964E-001  3.999605381222593E-001 
 4.040808434495621E-001  4.082218273147319E-001  4.123827794990688E-001  4.165629566148445E-001 
 4.207615814737946E-001  4.249778424754552E-001  4.292108930181442E-001  4.334598509355574E-001 
 4.377237979621155E-001  4.420017792303619E-001  4.462928028038968E-001  4.505958392494949E-001 
 4.549098212522412E-001  4.592336432776919E-001  4.635661612852466E-001  4.679061924970963E-001 
 4.722525152272860E-001  4.766038687755957E-001  4.809589533911239E-001  4.853164303105958E-001 
 4.896749218765928E-001  4.940330117410214E-001  4.983892451592787E-001  5.027421293806805E-001 
 5.070901341408079E-001  5.114316922615177E-001  5.157652003643932E-001  5.200890197034485E-001 
 5.244014771228871E-001  5.287008661456676E-001  5.329854481985559E-001  5.372534539792068E-001 
 5.415030849706413E-001  5.457325151082626E-001  5.499398926042439E-001  5.541233419337773E-001 
 5.582809659872285E-001  5.624108483917221E-001  5.665110560050926E-001  5.705796415844152E-001 
 5.746146466305428E-001  5.786141044091413E-001  5.825760431476811E-001  5.864984894066664E-001 
 5.903794716220641E-001  5.942170238144312E-001  5.980091894586065E-001  6.017540255060296E-001 
 6.054496065497667E-001  6.090940291201415E-001  6.126854160964924E-001  6.162219212179769E-001 
 6.197017336735269E-001  6.231230827480112E-001  6.264842424983635E-001  6.297835364298997E-001 
 6.330193421392546E-001  6.361900958863133E-001  6.392942970531995E-001  6.423305124438033E-001 
 6.452973803725026E-001  6.481936144856247E-001  6.510180072538670E-001  6.537694330683053E-001 
 6.564468508668284E-001  6.590493062118403E-001  6.615759327338976E-001  6.640259528496486E-001 
 6.663986776560350E-001  6.686935058962608E-001  6.709099218865844E-001  6.730474922866206E-001 
 6.751058615896064E-001  6.770847462031009E-001  6.789839269849377E-001  6.808032400940467E-001 
 6.825425660111394E-001  6.842018165803428E-001  6.857809199198455E-001  6.872798030476309E-001 
 6.886983720676479E-001  6.900364897624677E-001  6.912939504408823E-001  6.924704518932001E-001 
 6.935655643135015E-001  6.945786960570817E-001  6.955090561130429E-001  6.963556131868144E-001 
 6.971170513055972E-001  6.977917218817220E-001  6.983775921949723E-001  6.988721902854759E-001 
 6.992725462841248E-001  6.995755899824271E-001  6.997796956918715E-001  6.998836707639583E-001 
 6.998863515311442E-001  6.997866047113770E-001  6.995833288237707E-001  6.992754556145138E-001 
 6.988619514920741E-001  6.983418189707452E-001  6.977140981215534E-001  6.969778680295288E-001 
 6.961322482563176E-001  6.951764003070988E-001  6.941095291007449E-001  6.929308844421492E-001 
 6.916397624956251E-001  6.902355072582607E-001  6.887175120320962E-001  6.870852208939713E-001 
 6.853381301618652E-001  6.834757898565380E-001  6.814978051572481E-001  6.794038378502997E-001 
 6.771936077691428E-001  6.748668942247126E-001  6.724235374246557E-001  6.698634398800445E-001 
 6.671865677981305E-001  6.643929524596213E-001  6.614826915788976E-001  6.584559506455036E-001 
 6.553129642451434E-001  6.520540373583132E-001  6.486795466345593E-001  6.451899416402173E-001 
 6.415857460773100E-001  6.378675589710957E-001  6.340360558235409E-001  6.300919897297502E-001 
 6.260361924541097E-001  6.218695754626025E-001  6.175931309074177E-001  6.132079325596050E-001 
 6.087151366851302E-001  6.041159828592488E-001  5.994117947136546E-001  5.946039806103584E-001 
 5.896940342357384E-001  5.846835351076578E-001  5.795741489879890E-001  5.743676281923219E-001 
 5.690658117880742E-001  5.636706256716729E-001  5.581840825149679E-001  5.526082815705600E-001 
 5.469454083253217E-001  5.411977339910600E-001  5.353676148210452E-001  5.294574912410182E-001 
 5.234698867833278E-001  5.174074068030579E-001  5.112727370153094E-001  5.050686417449879E-001 
 4.987979619766753E-001  4.924636131489515E-001  4.860685826954519E-001  4.796159273273099E-001 
 4.731087700534324E-001  4.665502969370763E-001  4.599437535894408E-001  4.532924414034304E-001 
 4.465997135333432E-001  4.398689706289576E-001  4.331036563352912E-001  4.263072525721255E-001 
 4.194832746101927E-001  4.126352659636322E-001  4.057667931209057E-001  3.988814401387341E-001 
 3.919828031257614E-001  3.850744846444803E-001  3.781600880614533E-001  3.712432118769822E-001 
 3.643274440660902E-001  3.574163564629731E-001  3.505134992209230E-001  3.436223953791451E-001 
 3.367465355668673E-001  3.298893728737059E-001  3.230543179134187E-001  3.162447341059811E-001 
 3.094639332003865E-001  3.027151710577533E-001  2.960016437112444E-001  2.893264837160306E-001 
 2.826927567990920E-001  2.761034588151116E-001  2.695615130111152E-001  2.630697675989030E-001 
 2.566309936307567E-001  2.502478831704295E-001  2.439230477481011E-001  2.376590170848405E-001 
 2.314582380692199E-001  2.253230739661136E-001  2.192558038354352E-001  2.132586221366629E-001 
 2.073336384935108E-001  2.014828775920674E-001  1.957082791851598E-001  1.900116981756503E-001 
 1.843949047518329E-001  1.788595845490878E-001  1.734073388134606E-001  1.680396845448450E-001 
 1.627580545999337E-001  1.575637977380183E-001  1.524581785960110E-001  1.474423775826596E-001 
 1.425174906857521E-001  1.376845291900776E-001  1.329444193079188E-001  1.282980017278172E-001 
 1.237460310911608E-001  1.192891754097126E-001  1.149280154404341E-001  1.106630440367816E-001 
 1.064946654980038E-001  1.024231949397886E-001  9.844885771087088E-002  9.457178888089104E-002 
 9.079203282489919E-002  8.710954292943757E-002  8.352418144414162E-002  8.003571950131745E-002 
 7.664383732404026E-002  7.334812464103244E-002  7.014808132399429E-002  6.704311826024340E-002 
 6.403255847054364E-002  6.111563847894155E-002  5.829150993834156E-002  5.555924151250460E-002 
 5.291782101219950E-002  5.036615778042150E-002  4.790308531895623E-002  4.552736414614157E-002 
 4.323768487348854E-002  4.103267148688171E-002  3.891088481640043E-002  3.687082617738704E-002 
 3.491094116423739E-002  3.302962357749607E-002  3.122521946419355E-002  2.949603125095429E-002 
 2.784032194921747E-002  2.625631941193022E-002  2.474222062127913E-002  2.329619598740195E-002 
 2.191639363854920E-002  2.060094368382775E-002  1.934796243043673E-002  1.815555653818491E-002 
 1.702182709504096E-002  1.594487359849878E-002  1.492279782862596E-002  1.395370759979042E-002 
 1.303572037921674E-002  1.216696676169866E-002  1.134559379097730E-002  1.056976811947686E-002 
 9.837678999262784E-003  9.147541098243978E-003  8.497597136774209E-003  7.886120340912448E-003 
 7.311416709672483E-003  6.771827094624082E-003  6.265729091197321E-003  5.791538741985347E-003 
 5.347712053235576E-003  4.932746326563029E-003  4.545181308710113E-003  4.183600162913168E-003 
 3.846630266116362E-003  3.532943836897195E-003  3.241258399534598E-003  2.970337090160095E-003 
 2.718988811385005E-003  2.486068242192533E-003  2.270475710223486E-003  2.071156933869418E-003 
 1.887102641816936E-003  1.717348077869318E-003  1.560972398987306E-003  1.417097974589373E-003 
 1.284889595162907E-003  1.163553598226850E-003  1.052336919629992E-003  9.505260780949057E-004 
 8.574461006882467E-004  7.724593961849519E-004  6.949646250321597E-004  6.243950512624876E-004 
 5.602202963288602E-004  5.019341176953381E-004  4.490774473901758E-004  4.012222515518826E-004 
 3.579588815655503E-004  3.189024609594464E-004  2.836947638136357E-004  2.520028809170726E-004 
 2.235179103375778E-004  1.979536752803807E-004  1.750454720288337E-004  1.545488504544719E-004 
 1.362384292960592E-004  1.199067481193530E-004  1.053631575855551E-004  9.243274937838047E-005 
 8.095532686882267E-005  7.078441733432892E-005  6.178632629638658E-005  5.383923429842817E-005 
 4.683233621529465E-005  4.066502296683739E-005  3.524610530196765E-005  3.049307912570863E-005 
 2.633143166044310E-005  2.269398756315597E-005  1.952029396230031E-005  1.675604322983723E-005 
 1.435253216445339E-005  1.226615612885797E-005  1.045793655469229E-005  8.893080099467558E-006 
 7.540567606549374E-006  6.372770877462579E-006  5.365095092776700E-006  4.495644726886516E-006 
 3.744908136985148E-006  3.095478686999820E-006  2.531684635352337E-006  2.041587892306544E-006 
 1.602102889142109E-006  0.000000000000000E+000  0.000000000000000E+000  0.000000000000000E+000 
 0.000000000000000E+000  0.000000000000000E+000  0.000000000000000E+000  0.000000000000000E+000 
 0.000000000000000E+000  0.000000000000000E+000  0.000000000000000E+000  0.000000000000000E+000 
 0.000000000000000E+000  0.000000000000000E+000  0.000000000000000E+000  0.000000000000000E+000 
 0.000000000000000E+000  0.000000000000000E+000  0.000000000000000E+000  0.000000000000000E+000 
 0.000000000000000E+000  0.000000000000000E+000  0.000000000000000E+000  0.000000000000000E+000 
 0.000000000000000E+000  0.000000000000000E+000  0.000000000000000E+000  0.000000000000000E+000 
 0.000000000000000E+000  0.000000000000000E+000  0.000000000000000E+000  0.000000000000000E+000 
 0.000000000000000E+000  0.000000000000000E+000  0.000000000000000E+000  0.000000000000000E+000 
 0.000000000000000E+000  0.000000000000000E+000  0.000000000000000E+000  0.000000000000000E+000 
 0.000000000000000E+000  0.000000000000000E+000  0.000000000000000E+000  0.000000000000000E+000 
 0.000000000000000E+000  0.000000000000000E+000  0.000000000000000E+000  0.000000000000000E+000 
 0.000000000000000E+000  0.000000000000000E+000  0.000000000000000E+000  0.000000000000000E+000 
 0.000000000000000E+000  0.000000000000000E+000  0.000000000000000E+000  0.000000000000000E+000 
 0.000000000000000E+000  0.000000000000000E+000  0.000000000000000E+000  0.000000000000000E+000 
 0.000000000000000E+000  0.000000000000000E+000  0.000000000000000E+000  0.000000000000000E+000 
 0.000000000000000E+000  0.000000000000000E+000  0.000000000000000E+000  0.000000000000000E+000 
 0.000000000000000E+000  0.000000000000000E+000  0.000000000000000E+000  0.000000000000000E+000 
 0.000000000000000E+000  0.000000000000000E+000  0.000000000000000E+000  0.000000000000000E+000 
 0.000000000000000E+000  0.000000000000000E+000  0.000000000000000E+000  0.000000000000000E+000 
 0.000000000000000E+000  0.000000000000000E+000  0.000000000000000E+000  0.000000000000000E+000 
 0.000000000000000E+000  0.000000000000000E+000  0.000000000000000E+000  0.000000000000000E+000 
 0.000000000000000E+000  0.000000000000000E+000  0.000000000000000E+000  0.000000000000000E+000 
 0.000000000000000E+000  0.000000000000000E+000  0.000000000000000E+000  0.000000000000000E+000 
 0.000000000000000E+000  0.000000000000000E+000  0.000000000000000E+000  0.000000000000000E+000 
 0.000000000000000E+000  0.000000000000000E+000  0.000000000000000E+000  0.000000000000000E+000 
 0.000000000000000E+000  0.000000000000000E+000  0.000000000000000E+000  0.000000000000000E+000 
 0.000000000000000E+000  0.000000000000000E+000  0.000000000000000E+000  0.000000000000000E+000 
 0.000000000000000E+000  0.000000000000000E+000  0.000000000000000E+000  0.000000000000000E+000 
 0.000000000000000E+000  0.000000000000000E+000  0.000000000000000E+000  0.000000000000000E+000 
 0.000000000000000E+000  0.000000000000000E+000  0.000000000000000E+000  0.000000000000000E+000 
 0.000000000000000E+000
    </PP_PSWFC.1>
    <PP_PSWFC.2 type="real" size="929" columns="4" index="2" label="1S" l="0">
 1.250282775398560E-003  1.266009368802342E-003  1.281933777333090E-003  1.298058489158055E-003 
 1.314386023740227E-003  1.330918932231918E-003  1.347659797873309E-003  1.364611236396003E-003 
 1.381775896431643E-003  1.399156459925686E-003  1.416755642556354E-003  1.434576194158875E-003 
 1.452620899155044E-003  1.470892576988190E-003  1.489394082563610E-003  1.508128306694534E-003 
 1.527098176553707E-003  1.546306656130640E-003  1.565756746694609E-003  1.585451487263481E-003 
 1.605393955078426E-003  1.625587266084594E-003  1.646034575417847E-003  1.666739077897593E-003 
 1.687704008525831E-003  1.708932642992451E-003  1.730428298186896E-003  1.752194332716258E-003 
 1.774234147429873E-003  1.796551185950526E-003  1.819148935212314E-003  1.842030926005280E-003 
 1.865200733526892E-003  1.888661977940448E-003  1.912418324940500E-003  1.936473486325383E-003 
 1.960831220576940E-003  1.985495333447528E-003  2.010469678554405E-003  2.035758157981590E-003 
 2.061364722889264E-003  2.087293374130855E-003  2.113548162877859E-003  2.140133191252514E-003 
 2.167052612968436E-003  2.194310633979276E-003  2.221911513135551E-003  2.249859562849719E-003 
 2.278159149769598E-003  2.306814695460267E-003  2.335830677094507E-003  2.365211628151927E-003 
 2.394962139126876E-003  2.425086858245235E-003  2.455590492190222E-003  2.486477806837302E-003 
 2.517753627998331E-003  2.549422842175048E-003  2.581490397322023E-003  2.613961303619195E-003 
 2.646840634254092E-003  2.680133526213888E-003  2.713845181087404E-003  2.747980865877161E-003 
 2.782545913821661E-003  2.817545725227942E-003  2.852985768314632E-003  2.888871580065552E-003 
 2.925208767094044E-003  2.962003006518158E-003  2.999260046846800E-003  3.036985708877011E-003 
 3.075185886602517E-003  3.113866548133654E-003  3.153033736628868E-003  3.192693571237862E-003 
 3.232852248056608E-003  3.273516041094327E-003  3.314691303252592E-003  3.356384467316728E-003 
 3.398602046959623E-003  3.441350637758149E-003  3.484636918222315E-003  3.528467650837329E-003 
 3.572849683118736E-003  3.617789948680757E-003  3.663295468318045E-003  3.709373351100994E-003 
 3.756030795484767E-003  3.803275090432244E-003  3.851113616551011E-003  3.899553847244622E-003 
 3.948603349878274E-003  3.998269786959083E-003  4.048560917331162E-003  4.099484597385629E-003 
 4.151048782285811E-003  4.203261527207768E-003  4.256130988596344E-003  4.309665425436976E-003 
 4.363873200543369E-003  4.418762781861337E-003  4.474342743788937E-003  4.530621768513124E-003 
 4.587608647363152E-003  4.645312282180852E-003  4.703741686708113E-003  4.762905987991672E-003 
 4.822814427805480E-003  4.883476364090876E-003  4.944901272414717E-003  5.007098747445768E-003 
 5.070078504449534E-003  5.133850380801761E-003  5.198424337520866E-003  5.263810460819464E-003 
 5.330018963675319E-003  5.397060187421875E-003  5.464944603358661E-003  5.533682814381794E-003 
 5.603285556634803E-003  5.673763701180086E-003  5.745128255691184E-003  5.817390366166178E-003 
 5.890561318662451E-003  5.964652541053042E-003  6.039675604804919E-003  6.115642226779404E-003 
 6.192564271055010E-003  6.270453750773003E-003  6.349322830005894E-003  6.429183825649241E-003 
 6.510049209336952E-003  6.591931609380432E-003  6.674843812731868E-003  6.758798766971842E-003 
 6.843809582321742E-003  6.929889533681125E-003  7.017052062690394E-003  7.105310779819109E-003 
 7.194679466480174E-003  7.285172077170300E-003  7.376802741637012E-003  7.469585767072504E-003 
 7.563535640334732E-003  7.658667030195964E-003  7.754994789619238E-003  7.852533958062978E-003 
 7.951299763814128E-003  8.051307626350193E-003  8.152573158730397E-003  8.255112170016499E-003 
 8.358940667723440E-003  8.464074860300291E-003  8.570531159641844E-003  8.678326183631098E-003 
 8.787476758713202E-003  8.897999922501069E-003  9.009912926413070E-003  9.123233238343263E-003 
 9.237978545364390E-003  9.354166756464196E-003  9.471816005315329E-003  9.590944653079275E-003 
 9.711571291244753E-003  9.833714744500796E-003  9.957394073645282E-003  1.008262857852886E-002 
 1.020943780103506E-002  1.033784152809688E-002  1.046785979475008E-002  1.059951288722405E-002 
 1.073282134607013E-002  1.086780596932828E-002  1.100448781573230E-002  1.114288820795397E-002 
 1.128302873588690E-002  1.142493125997001E-002  1.156861791455166E-002  1.171411111129439E-002 
 1.186143354262104E-002  1.201060818520261E-002  1.216165830348831E-002  1.231460745327822E-002 
 1.246947948533923E-002  1.262629854906441E-002  1.278508909617669E-002  1.294587588447689E-002 
 1.310868398163697E-002  1.327353876903877E-002  1.344046594565872E-002  1.360949153199924E-002 
 1.378064187406696E-002  1.395394364739861E-002  1.412942386113492E-002  1.430710986214288E-002 
 1.448702933918737E-002  1.466921032715197E-002  1.485368121131000E-002  1.504047073164626E-002 
 1.522960798722948E-002  1.542112244063683E-002  1.561504392243017E-002  1.581140263568514E-002 
 1.601022916057345E-002  1.621155445899862E-002  1.641540987928625E-002  1.662182716092879E-002 
 1.683083843938565E-002  1.704247625093923E-002  1.725677353760690E-002  1.747376365211038E-002 
 1.769348036290197E-002  1.791595785924894E-002  1.814123075637639E-002  1.836933410066878E-002 
 1.860030337493136E-002  1.883417450371111E-002  1.907098385867857E-002  1.931076826407052E-002 
 1.955356500219415E-002  1.979941181899350E-002  2.004834692967818E-002  2.030040902441536E-002 
 2.055563727408525E-002  2.081407133610049E-002  2.107575136029040E-002  2.134071799484991E-002 
 2.160901239235413E-002  2.188067621583903E-002  2.215575164494815E-002  2.243428138214668E-002 
 2.271630865900242E-002  2.300187724253476E-002  2.329103144163179E-002  2.358381611353580E-002 
 2.388027667039818E-002  2.418045908590326E-002  2.448440990196210E-002  2.479217623547657E-002 
 2.510380578517342E-002  2.541934683850974E-002  2.573884827864895E-002  2.606235959150859E-002 
 2.638993087287964E-002  2.672161283561769E-002  2.705745681690649E-002  2.739751478559360E-002 
 2.774183934959883E-002  2.809048376339535E-002  2.844350193556358E-002  2.880094843641817E-002 
 2.916287850570795E-002  2.952934806038904E-002  2.990041370247108E-002  3.027613272693648E-002 
 3.065656312973289E-002  3.104176361583844E-002  3.143179360739994E-002  3.182671325194378E-002 
 3.222658343065908E-002  3.263146576675332E-002  3.304142263387951E-002  3.345651716463528E-002 
 3.387681325913278E-002  3.430237559363931E-002  3.473326962928831E-002  3.516956162085953E-002 
 3.561131862562841E-002  3.605860851228366E-002  3.651149996991203E-002  3.697006251705005E-002 
 3.743436651080107E-002  3.790448315601722E-002  3.838048451454490E-002  3.886244351453262E-002 
 3.935043395980020E-002  3.984453053926757E-002  4.034480883644209E-002  4.085134533896283E-002 
 4.136421744819977E-002  4.188350348890678E-002  4.240928271892581E-002  4.294163533894105E-002 
 4.348064250228034E-002  4.402638632476174E-002  4.457894989458332E-002  4.513841728225281E-002 
 4.570487355055535E-002  4.627840476455594E-002  4.685909800163370E-002  4.744704136154511E-002 
 4.804232397651251E-002  4.864503602133467E-002  4.925526872351577E-002  4.987311437340846E-002 
 5.049866633436788E-002  5.113201905291107E-002  5.177326806887862E-002  5.242251002559290E-002 
 5.307984268000828E-002  5.374536491284818E-002  5.441917673872325E-002  5.510137931622536E-002 
 5.579207495799111E-002  5.649136714072855E-002  5.719936051520094E-002  5.791616091616004E-002 
 5.864187537222242E-002  5.937661211568085E-002  6.012048059224284E-002  6.087359147068849E-002 
 6.163605665243867E-002  6.240798928102456E-002  6.318950375144981E-002  6.398071571943428E-002 
 6.478174211053050E-002  6.559270112910107E-002  6.641371226714650E-002  6.724489631297187E-002 
 6.808637535967951E-002  6.893827281347606E-002  6.980071340177982E-002  7.067382318111516E-002 
 7.155772954477975E-002  7.245256123026939E-002  7.335844832644470E-002  7.427552228042435E-002 
 7.520391590418717E-002  7.614376338086576E-002  7.709520027071406E-002  7.805836351672846E-002 
 7.903339144990407E-002  8.002042379410521E-002  8.101960167052802E-002  8.203106760173431E-002 
 8.305496551523185E-002  8.409144074657884E-002  8.514064004198620E-002  8.620271156039241E-002 
 8.727780487498424E-002  8.836607097413392E-002  8.946766226172569E-002  9.058273255683985E-002 
 9.171143709276403E-002  9.285393251529837E-002  9.401037688032124E-002  9.518092965058013E-002 
 9.636575169167183E-002  9.756500526717346E-002  9.877885403288612E-002  1.000074630301488E-001 
 1.012509986781828E-001  1.025096287654210E-001  1.037835224397780E-001  1.050728501978133E-001 
 1.063777838727392E-001  1.076984966212235E-001  1.090351629089346E-001  1.103879584947740E-001 
 1.117570604137427E-001  1.131426469583793E-001  1.145448976587153E-001  1.159639932606810E-001 
 1.174001157028998E-001  1.188534480918043E-001  1.203241746750052E-001  1.218124808128422E-001 
 1.233185529480426E-001  1.248425785734133E-001  1.263847461974857E-001  1.279452453080339E-001 
 1.295242663333817E-001  1.311220006014120E-001  1.327386402961888E-001  1.343743784121013E-001 
 1.360294087054316E-001  1.377039256432512E-001  1.393981243495427E-001  1.411122005484434E-001 
 1.428463505045024E-001  1.446007709598396E-001  1.463756590680940E-001  1.481712123250415E-001 
 1.499876284957618E-001  1.518251055382291E-001  1.536838415231981E-001  1.555640345502525E-001 
 1.574658826598813E-001  1.593895837414408E-001  1.613353354368607E-001  1.633033350399455E-001 
 1.652937793911190E-001  1.673068647674580E-001  1.693427867678536E-001  1.714017401931374E-001 
 1.734839189210054E-001  1.755895157755647E-001  1.777187223913311E-001  1.798717290714934E-001 
 1.820487246402632E-001  1.842498962891197E-001  1.864754294167571E-001  1.887255074625397E-001 
 1.910003117332620E-001  1.933000212230110E-001  1.956248124259220E-001  1.979748591416139E-001 
 2.003503322730919E-001  2.027513996168957E-001  2.051782256452709E-001  2.076309712801403E-001 
 2.101097936586418E-001  2.126148458900066E-001  2.151462768035402E-001  2.177042306874712E-001 
 2.202888470184307E-001  2.229002601813196E-001  2.255385991793267E-001  2.282039873338529E-001 
 2.308965419741007E-001  2.336163741160871E-001  2.363635881308370E-001  2.391382814015184E-001 
 2.419405439692817E-001  2.447704581675646E-001  2.476280982446339E-001  2.505135299741314E-001 
 2.534268102534045E-001  2.563679866894014E-001  2.593370971719203E-001  2.623341694340117E-001 
 2.653592205993355E-001  2.684122567162945E-001  2.714932722787683E-001  2.746022497332907E-001 
 2.777391589725245E-001  2.809039568149052E-001  2.840965864703429E-001  2.873169769918915E-001 
 2.905650427133125E-001  2.938406826724902E-001  2.971437800206718E-001  3.004742014175440E-001 
 3.038317964121791E-001  3.072163968099197E-001  3.106278160253088E-001  3.140658484212011E-001 
 3.175302686342474E-001  3.210208308869706E-001  3.245372682867113E-001  3.280792921117683E-001 
 3.316465910851070E-001  3.352388306360776E-001  3.388556521506370E-001  3.424966722106362E-001 
 3.461614818228076E-001  3.498496456381533E-001  3.535607011625217E-001  3.572941579592366E-001 
 3.610494968447301E-001  3.648261690782271E-001  3.686235955466175E-001  3.724411659457658E-001 
 3.762782379596027E-001  3.801341364384618E-001  3.840081525782423E-001  3.878995431020946E-001 
 3.918075294464613E-001  3.957312969534340E-001  3.996699940715223E-001  4.036227315670822E-001 
 4.075885817487881E-001  4.115665777076959E-001  4.155557125755947E-001  4.195549388045054E-001 
 4.235631674703602E-001  4.275792676040462E-001  4.316020655531897E-001  4.356303443782157E-001 
 4.396628432863998E-001  4.436982571078047E-001  4.477352358171695E-001  4.517723841059961E-001 
 4.558082610092513E-001  4.598413795912714E-001  4.638702066956207E-001  4.678931627638178E-001 
 4.719086217279883E-001  4.759149109826496E-001  4.799103114409543E-001  4.838930576808387E-001 
 4.878613381866095E-001  4.918132956915908E-001  4.957470276274923E-001  4.996605866861927E-001 
 5.035519814996270E-001  5.074191774434211E-001  5.112600975698495E-001  5.150726236755612E-001 
 5.188545975093523E-001  5.226038221250431E-001  5.263180633842311E-001  5.299950516133466E-001 
 5.336324834190163E-001  5.372280236652422E-001  5.407793076153244E-001  5.442839432407673E-001 
 5.477395136986493E-001  5.511435799780330E-001  5.544936837149993E-001  5.577873501747527E-001 
 5.610220913979805E-001  5.641954095072425E-001  5.673048001675975E-001  5.703477561939508E-001 
 5.733217712957059E-001  5.762243439472211E-001  5.790529813703054E-001  5.818052036125133E-001 
 5.844785477023220E-001  5.870705718593863E-001  5.895788597349493E-001  5.920010246541568E-001 
 5.943347138284502E-001  5.965776125024157E-001  5.987274479954435E-001  6.007819935942798E-001 
 6.027390722480834E-001  6.045965600128911E-001  6.063523891874937E-001  6.080045510776338E-001 
 6.095510983201748E-001  6.109901466934891E-001  6.123198763348033E-001  6.135385322796515E-001 
 6.146444242329827E-001  6.156359254758793E-001  6.165114708063616E-001  6.172695534074151E-001 
 6.179087205302928E-001  6.184275678764015E-001  6.188247325567746E-001  6.190988845043880E-001 
 6.192487162115370E-001  6.192729306622826E-001  6.191702273287699E-001  6.189392861002082E-001 
 6.185787490146523E-001  6.180871996666621E-001  6.174631401686754E-001  6.167049655507322E-001 
 6.158109354923137E-001  6.147791432917793E-001  6.136074819934694E-001  6.122936076103309E-001 
 6.108348994011844E-001  6.092284171868479E-001  6.074708557185489E-001  6.055584961457536E-001 
 6.034871546690128E-001  6.012525260168002E-001  5.988515247450520E-001  5.962814207893452E-001 
 5.935394920184535E-001  5.906230260451629E-001  5.875293220924882E-001  5.842556929161349E-001 
 5.807994667840592E-001  5.771579895139578E-001  5.733286265695122E-001  5.693087652161957E-001 
 5.650958167374258E-001  5.606872187118239E-001  5.560804373523032E-001  5.512729699076778E-001 
 5.462623471274273E-001  5.410461357902049E-001  5.356219412966065E-001  5.299874103266482E-001 
 5.241402335623081E-001  5.180781484753930E-001  5.117989421808755E-001  5.053004543557178E-001 
 4.985805802230541E-001  4.916372736014408E-001  4.844685500186964E-001  4.770724898896535E-001 
 4.694472417569119E-001  4.615910255934358E-001  4.535021361655529E-001  4.451789464546141E-001 
 4.366199111352331E-001  4.278235701076629E-001  4.187885520814719E-001  4.095135782072526E-001 
 3.999974657526407E-001  3.902391318184322E-001  3.802375970900672E-001  3.699919896192000E-001 
 3.595015486295057E-001  3.487656283402763E-001  3.377837018007483E-001  3.265553647274858E-001 
 3.150803393365168E-001  3.033584781613062E-001  2.913897678470546E-001  2.791743329112479E-001 
 2.667124394598680E-001  2.540044988482307E-001  2.410510712750522E-001  2.278528692980962E-001 
 2.144107612596313E-001  2.007257746099670E-001  1.867990991175527E-001  1.726320899545594E-001 
 1.582262706475224E-001  1.435833358835535E-001  1.287051541638400E-001  1.135937702976572E-001 
 9.825140773195300E-002  8.268047071374394E-002  6.688354628503333E-002  5.086340611270795E-002 
 3.462300815908595E-002  1.816549820220350E-002  1.494211218467545E-003 -1.538732735580610E-002 
-3.247540046347015E-002 -4.976609834173420E-002 -6.725531748494845E-002 -8.493875962258692E-002 
-1.028119306763709E-001 -1.208701396571397E-001 -1.391084974591759E-001 -1.575219155073475E-001 
-1.761051042107327E-001 -1.948525711754647E-001 -2.137586191294510E-001 -2.328173435124798E-001 
-2.520226296870884E-001 -2.713681497284846E-001 -2.908473587558253E-001 -3.104534907722772E-001 
-3.301795539875029E-001 -3.500183256035303E-001 -3.699623460532913E-001 -3.900039126904375E-001 
-4.101350729392357E-001 -4.303476169243300E-001 -4.506330696118123E-001 -4.709826825052127E-001 
-4.913874249525773E-001 -5.118379751335471E-001 -5.323247108081220E-001 -5.528376999213767E-001 
-5.733666911705740E-001 -5.939011046526876E-001 -6.144300227210246E-001 -6.349421811892245E-001 
-6.554259610291125E-001 -6.758693807154628E-001 -6.962600893754202E-001 -7.165853609028883E-001 
-7.368320891983753E-001 -7.569867846923946E-001 -7.770355723053602E-001 -7.969641909888511E-001 
-8.167579949820603E-001 -8.364019569031790E-001 -8.558806727784056E-001 -8.751783690913804E-001 
-8.942789119132964E-001 -9.131658181490586E-001 -9.318222689080088E-001 -9.502311249794081E-001 
-9.683749443635852E-001 -9.862360017800509E-001 -1.003796310044599E+000 -1.021037643179133E+000 
-1.037941561091386E+000 -1.054489435637497E+000 -1.070662477859164E+000 -1.086441766169445E+000 
-1.101808275247571E+000 -1.116742905393807E+000 -1.131226512090671E+000 -1.145239935516705E+000 
-1.158764029763584E+000 -1.171779691516368E+000 -1.184267887969915E+000 -1.196209683771507E+000 
-1.207586266800077E+000 -1.218378972615539E+000 -1.228569307437081E+000 -1.238138969536196E+000 
-1.247069868958185E+000 -1.255344145514244E+000 -1.262944185014498E+000 -1.269852633740095E+000 
-1.276052411179086E+000 -1.281526721076206E+000 -1.286259060870334E+000 -1.290233229615275E+000 
-1.293433334499345E+000 -1.295843796097077E+000 -1.297449352502051E+000 -1.298235062503527E+000 
-1.298186307981247E+000 -1.297288795702554E+000 -1.295528558714018E+000 -1.292891957526203E+000 
-1.289365681295158E+000 -1.284936749207885E+000 -1.279592512281576E+000 -1.273320655787905E+000 
-1.266109202514355E+000 -1.257946517074487E+000 -1.248821311478387E+000 -1.238722652173352E+000 
-1.227639968763258E+000 -1.215563064613065E+000 -1.202482129542664E+000 -1.188387754811657E+000 
-1.173270950593886E+000 -1.157123166137437E+000 -1.139936312802504E+000 -1.121702790165894E+000 
-1.102415515377007E+000 -1.082067955945824E+000 -1.060654166138713E+000 -1.038168827152640E+000 
-1.014607291232580E+000 -9.899656298905221E-001 -9.642406863772247E-001 -9.374301325499024E-001 
-9.095325302700051E-001 -8.805473974552142E-001 -8.504752788985234E-001 -8.193178219547096E-001 
-7.870778571804719E-001 -7.537594839988992E-001 -7.193681614415648E-001 -6.839108040022954E-001 
-6.473958826153600E-001 -6.098335307473092E-001 -5.712356555658169E-001 -5.316160541204359E-001 
-4.909905344390378E-001 -4.493770414096638E-001 -4.067957872804012E-001 -3.632693865695380E-001 
-3.188229951344598E-001 -2.734844531003528E-001 -2.272844312985518E-001 -1.802565808092766E-001 
-1.324376851447623E-001 -8.386781454433902E-002 -3.459048178456621E-002  1.534720116212277E-002 
 6.589436636720222E-002  1.169962339113247E-001  1.685939574894803E-001  2.206244726623386E-001 
 2.730203488655248E-001  3.257096463438366E-001  3.786180992976400E-001  4.316743486976746E-001 
 4.848009399229814E-001  5.379032280484791E-001  5.908874854122317E-001  6.436527018117424E-001 
 6.960926914789426E-001  7.480957530481945E-001  7.995446717605347E-001  8.503167238593531E-001 
 9.002837061271776E-001  9.493119941892764E-001  9.972626322073647E-001  1.043991456861068E+000 
 1.089349258613658E+000  1.133181983363980E+000  1.175330977679476E+000  1.215633280883997E+000 
 1.253921967335730E+000  1.290026542271901E+000  1.323773394614338E+000  1.354986310119703E+000 
 1.383487048216135E+000  1.409095985789502E+000  1.431632831062923E+000  1.450917410547323E+000 
 1.466770531823185E+000  1.479014924638731E+000  1.487476262471321E+000  1.491984266290897E+000 
 1.492373891780284E+000  1.488486600700618E+000  1.480171716434573E+000  1.467287862988756E+000 
 1.449704485883353E+000  1.427303452395545E+000  1.399980727547796E+000  1.367648121037423E+000 
 1.330235098985680E+000  1.287690652939285E+000  1.239985216982615E+000  1.187112622114026E+000 
 1.129092075205621E+000  1.065970147905591E+000  9.978227587612701E-001  9.247571296477411E-001 
 8.469136952926417E-001  7.644679423080866E-001  6.776321516946195E-001  5.866570162938735E-001 
 4.918331021651651E-001  3.934921203812398E-001  2.920079733204665E-001  1.877975372241557E-001 
 8.132114064240156E-002 -2.691730352869620E-002 -1.363705563424945E-001 -2.464487466106582E-001 
-3.565205462080386E-001 -4.659148731113231E-001 -5.739231680179938E-001 -6.798022892482709E-001 
-7.827780686238441E-001 -8.820495680260434E-001 -9.767940722420155E-001 -1.066172848388306E+000 
-1.149337695535759E+000 -1.225438300030387E+000 -1.293630402301635E+000 -1.353084769573382E+000 
-1.402996955761165E+000 -1.442597814890057E+000 -1.471164717567057E+000 -1.488033401389900E+000 
-1.492610365711988E+000 -1.484385699001396E+000 -1.462946203278799E+000 -1.427988655009279E+000 
-1.379333015646117E+000 -1.316935378154680E+000 -1.240900408747686E+000 -1.151493016305932E+000 
-1.049148956214159E+000 -9.344840513950660E-001 -8.083016920744853E-001 -6.715982582706213E-001 
-5.255660962931147E-001 -3.715936738883491E-001 -2.112625393887038E-001 -4.634071969625570E-002 
 1.212277884222730E-001  2.893377480046398E-001  4.557419025616450E-001  6.180748992487743E-001 
 7.738820520751828E-001  9.206529923582749E-001  1.055860146340490E+000  1.177001855420716E+000 
 1.281649813111557E+000  1.367500335519541E+000  1.432428810480640E+000  1.474546486917602E+000 
 1.492258573899440E+000  1.484322422681525E+000  1.449904370190721E+000  1.388633635644137E+000 
 1.300651491062411E+000  1.186653780294555E+000  1.047924749781681E+000  8.863600884963432E-001 
 7.044770657821933E-001  5.054097159673743E-001  2.928871592883344E-001  7.119338082584184E-002 
-1.548928775044670E-001 -3.801790147420592E-001 -5.991606056935832E-001 -8.061442501033208E-001 
-9.953901332898348E-001 -1.161272314618297E+000 -1.298453795523447E+000 -1.402072394453840E+000 
-1.467932404602865E+000 -1.492695972852816E+000 -1.474067164929460E+000 -1.410960830539803E+000 
-1.303647718621319E+000 -1.153866887550016E+000 -9.648963818490228E-001 -7.415734785974543E-001 
-4.902566113698140E-001 -2.187224149271333E-001  6.400675843311766E-002  3.479070013483223E-001 
 6.222677648778883E-001  8.760729853141658E-001  1.098439836382463E+000  1.279102167872748E+000 
 1.408921231054818E+000  1.480401963950186E+000  1.488189207501137E+000  1.429515079764437E+000 
 1.304566710414020E+000  1.116743002324514E+000  8.727703955991785E-001  5.826510707856440E-001 
 2.594228691940483E-001 -8.128146451864260E-002 -4.218773535534401E-001 -7.436624730279996E-001 
-1.027815914501359E+000 -1.256520907313173E+000 -1.414154011471235E+000 -1.488469390927756E+000 
-1.471695143170628E+000 -1.361451232901992E+000 -1.161396890544681E+000 -8.815207889785290E-001 
-5.380009949425415E-001 -1.525841992904017E-001  2.485350313624624E-001  6.363152284358786E-001 
 9.808846414597203E-001
    </PP_PSWFC.2>
  </PP_FULL_WFC>
  <PP_RHOATOM type="real" size="929" columns="4">
 2.181383845298626E-006  2.236605670181151E-006  2.293225433496438E-006  2.351278523777325E-006 
 2.410801225398716E-006  2.471830741254731E-006  2.534405216009907E-006  2.598563759938936E-006 
 2.664346473369817E-006  2.731794471745776E-006  2.800949911321485E-006  2.871856015509756E-006 
 2.944557101895114E-006  3.019098609931122E-006  3.095527129338817E-006  3.173890429223890E-006 
 3.254237487930939E-006  3.336618523653357E-006  3.421085025817986E-006  3.507689787264206E-006 
 3.596486937237468E-006  3.687531975217965E-006  3.780881805605542E-006  3.876594773282518E-006 
 3.974730700076649E-006  4.075350922146945E-006  4.178518328315828E-006  4.284297399371448E-006 
 4.392754248364765E-006  4.503956661926621E-006  4.617974142630449E-006  4.734877952427308E-006 
 4.854741157180177E-006  4.977638672325448E-006  5.103647309690102E-006  5.232845825493777E-006 
 5.365314969565765E-006  5.501137535807684E-006  5.640398413933260E-006  5.783184642517691E-006 
 5.929585463389500E-006  6.079692377399087E-006  6.233599201598666E-006  6.391402127869315E-006 
 6.553199783031855E-006  6.719093290478872E-006  6.889186333366664E-006  7.063585219406347E-006 
 7.242398947294697E-006  7.425739274826196E-006  7.613720788728718E-006  7.806460976266635E-006 
 8.004080298655917E-006  8.206702266337109E-006  8.414453516153262E-006  8.627463890480778E-006 
 8.845866518362881E-006  9.069797898696161E-006  9.299397985522153E-006  9.534810275477335E-006 
 9.776181897455873E-006  1.002366370454139E-005  1.027741036826494E-005  1.053758047524809E-005 
 1.080433662629157E-005  1.107784553797091E-005  1.135827814680310E-005  1.164580971604882E-005 
 1.194061994521697E-005  1.224289308234013E-005  1.255281803909057E-005  1.287058850880903E-005 
 1.319640308751976E-005  1.353046539800727E-005  1.387298421703250E-005  1.422417360576727E-005 
 1.458425304352894E-005  1.495344756489846E-005  1.533198790030722E-005  1.572011062018083E-005 
 1.611805828272913E-005  1.652607958547525E-005  1.694442952061782E-005  1.737336953432338E-005 
 1.781316769004839E-005  1.826409883599248E-005  1.872644477678764E-005  1.920049444953025E-005 
 1.968654410426572E-005  2.018489748903840E-005  2.069586603962182E-005  2.121976907404794E-005 
 2.175693399205651E-005  2.230769647958861E-005  2.287240071845251E-005  2.345139960129147E-005 
 2.404505495198860E-005  2.465373775164531E-005  2.527782837027450E-005  2.591771680435300E-005 
 2.657380292038053E-005  2.724649670459802E-005  2.793621851901984E-005  2.864339936394003E-005 
 2.936848114707596E-005  3.011191695951630E-005  3.087417135864644E-005  3.165572065822630E-005 
 3.245705322580185E-005  3.327866978763527E-005  3.412108374134329E-005  3.498482147643878E-005 
 3.587042270297473E-005  3.677844078849522E-005  3.770944310350316E-005  3.866401137565914E-005 
 3.964274205293257E-005  4.064624667593038E-005  4.167515225963498E-005  4.273010168478899E-005 
 4.381175409916946E-005  4.492078532900210E-005  4.605788830077012E-005  4.722377347368066E-005 
 4.841916928305713E-005  4.964482259493247E-005  5.090149917212699E-005  5.218998415209892E-005 
 5.351108253686513E-005  5.486561969529639E-005  5.625444187809773E-005  5.767841674579536E-005 
 5.913843391005627E-005  6.063540548867717E-005  6.217026667458713E-005  6.374397631921542E-005 
 6.535751753058854E-005  6.701189828652558E-005  6.870815206331208E-005  7.044733848024337E-005 
 7.223054396043424E-005  7.405888240830693E-005  7.593349590417515E-005  7.785555541635483E-005 
 7.982626153124297E-005  8.184684520181438E-005  8.391856851500190E-005  8.604272547843331E-005 
 8.822064282701123E-005  9.045368084983576E-005  9.274323423797913E-005  9.509073295363810E-005 
 9.749764312119943E-005  9.996546794076942E-005  1.024957486247316E-004  1.050900653579081E-004 
 1.077500382819217E-004  1.104773285043602E-004  1.132736391333693E-004  1.161407163383100E-004 
 1.190803504371322E-004  1.220943770111374E-004  1.251846780478143E-004  1.283531831124508E-004 
 1.316018705492449E-004  1.349327687126476E-004  1.383479572297038E-004  1.418495682941551E-004 
 1.454397879931091E-004  1.491208576670846E-004  1.528950753042640E-004  1.567647969698179E-004 
 1.607324382711649E-004  1.648004758600736E-004  1.689714489725242E-004  1.732479610072659E-004 
 1.776326811440485E-004  1.821283460025002E-004  1.867377613426799E-004  1.914638038083355E-004 
 1.963094227139271E-004  2.012776418765187E-004  2.063715614936369E-004  2.115943600682547E-004 
 2.169492963820655E-004  2.224397115182428E-004  2.280690309349288E-004  2.338407665906929E-004 
 2.397585191232638E-004  2.458259800828526E-004  2.520469342214111E-004  2.584252618392294E-004 
 2.649649411902711E-004  2.716700509477158E-004  2.785447727311924E-004  2.855933936972187E-004 
 2.928203091944305E-004  3.002300254851723E-004  3.078271625351072E-004  3.156164568725164E-004 
 3.236027645189942E-004  3.317910639933198E-004  3.401864593902776E-004  3.487941835362893E-004 
 3.576196012237375E-004  3.666682125259022E-004  3.759456561945096E-004  3.854577131418882E-004 
 3.952103100098273E-004  4.052095228272495E-004  4.154615807588542E-004  4.259728699469846E-004 
 4.367499374489540E-004  4.477994952721839E-004  4.591284245095289E-004  4.707437795772059E-004 
 4.826527925578564E-004  4.948628776512495E-004  5.073816357352671E-004  5.202168590398271E-004 
 5.333765359364655E-004  5.468688558464003E-004  5.607022142698920E-004  5.748852179398585E-004 
 5.894266901027185E-004  6.043356759295026E-004  6.196214480604013E-004  6.352935122858864E-004 
 6.513616133677211E-004  6.678357410031783E-004  6.847261359358643E-004  7.020432962166842E-004 
 7.197979836184565E-004  7.380012302078667E-004  7.566643450784733E-004  7.757989212485424E-004 
 7.954168427276602E-004  8.155302917560257E-004  8.361517562205328E-004  8.572940372517702E-004 
 8.789702570061476E-004  9.011938666375257E-004  9.239786544626945E-004  9.473387543252616E-004 
 9.712886541625204E-004  9.958432047799911E-004  1.021017628838445E-003  1.046827530058270E-003 
 1.073288902646192E-003  1.100418140949418E-003  1.128232049342397E-003  1.156747852351497E-003 
 1.185983205022962E-003  1.215956203539693E-003  1.246685396092413E-003  1.278189794010955E-003 
 1.310488883161488E-003  1.343602635615587E-003  1.377551521597217E-003  1.412356521713758E-003 
 1.448039139477322E-003  1.484621414122754E-003  1.522125933728777E-003  1.560575848648886E-003 
 1.599994885258703E-003  1.640407360026575E-003  1.681838193914408E-003  1.724312927115718E-003 
 1.767857734138094E-003  1.812499439237336E-003  1.858265532210616E-003  1.905184184556207E-003 
 1.953284266007316E-003  2.002595361447774E-003  2.053147788217379E-003  2.104972613814804E-003 
 2.158101674006106E-003  2.212567591346944E-003  2.268403794126733E-003  2.325644535743072E-003 
 2.384324914514793E-003  2.444480893942218E-003  2.506149323423119E-003  2.569367959433118E-003 
 2.634175487179223E-003  2.700611542735313E-003  2.768716735668504E-003  2.838532672165247E-003 
 2.910101978666234E-003  2.983468326019107E-003  3.058676454158027E-003  3.135772197319294E-003 
 3.214802509802025E-003  3.295815492283155E-003  3.378860418695829E-003  3.463987763680314E-003 
 3.551249230616624E-003  3.640697780247815E-003  3.732387659903118E-003  3.826374433329781E-003 
 3.922715011142536E-003  4.021467681899546E-003  4.122692143813443E-003  4.226449537106074E-003 
 4.332802477015375E-003  4.441815087462533E-003  4.553553035387608E-003  4.668083565761330E-003 
 4.785475537280748E-003  4.905799458756023E-003  5.029127526195363E-003  5.155533660594871E-003 
 5.285093546439574E-003  5.417884670921629E-003  5.553986363881243E-003  5.693479838475308E-003 
 5.836448232578388E-003  5.982976650920003E-003  6.133152207961668E-003  6.287064071516506E-003 
 6.444803507113453E-003  6.606463923107542E-003  6.772140916536730E-003  6.941932319725144E-003 
 7.115938247631416E-003  7.294261145940196E-003  7.477005839893374E-003  7.664279583857066E-003 
 7.856192111618716E-003  8.052855687407672E-003  8.254385157631321E-003  8.460898003317074E-003 
 8.672514393249659E-003  8.889357237790893E-003  9.111552243367828E-003  9.339227967613349E-003 
 9.572515875141154E-003  9.811550393935456E-003  1.005646897233323E-002  1.030741213657490E-002 
 1.056452354889681E-002  1.082795006613636E-002  1.109784179881832E-002  1.137435217068763E-002 
 1.165763797865154E-002  1.194785945309058E-002  1.224518031849468E-002  1.254976785437770E-002 
 1.286179295641953E-002  1.318143019778176E-002  1.350885789053867E-002  1.384425814716113E-002 
 1.418781694198728E-002  1.453972417260863E-002  1.490017372109606E-002  1.526936351498509E-002 
 1.564749558793460E-002  1.603477613996807E-002  1.643141559720065E-002  1.683762867094939E-002 
 1.725363441611850E-002  1.767965628874408E-002  1.811592220257759E-002  1.856266458457929E-002 
 1.902012042918636E-002  1.948853135121307E-002  1.996814363723193E-002  2.045920829527853E-002 
 2.096198110271206E-002  2.147672265205744E-002  2.200369839464480E-002  2.254317868185243E-002 
 2.309543880375224E-002  2.366075902494411E-002  2.423942461735785E-002  2.483172588979021E-002 
 2.543795821393349E-002  2.605842204664261E-002  2.669342294817538E-002  2.734327159612966E-002 
 2.800828379478986E-002  2.868878047958231E-002  2.938508771632854E-002  3.009753669497177E-002 
 3.082646371744011E-002  3.157221017929716E-002  3.233512254481848E-002  3.311555231511785E-002 
 3.391385598893688E-002  3.473039501569595E-002  3.556553574039313E-002  3.641964933992428E-002 
 3.729311175038405E-002  3.818630358489634E-002  3.909961004150850E-002  4.003342080067275E-002 
 4.098812991182603E-002  4.196413566856712E-002  4.296184047192106E-002  4.398165068116872E-002 
 4.502397645171071E-002  4.608923155942613E-002  4.717783321097829E-002  4.829020183951369E-002 
 4.942676088519471E-002  5.058793656000132E-002  5.177415759623706E-002  5.298585497816969E-002 
 5.422346165624228E-002  5.548741224328962E-002  5.677814269220206E-002  5.809608995448654E-002 
 5.944169161918274E-002  6.081538553160876E-002  6.221760939142414E-002  6.364880032951918E-002 
 6.510939446326267E-002  6.659982642966668E-002  6.812052889606021E-002  6.967193204789773E-002 
 7.125446305337083E-002  7.286854550453686E-002  7.451459883472900E-002  7.619303771207168E-002 
 7.790427140898680E-002  7.964870314764634E-002  8.142672942140575E-002  8.323873929233247E-002 
 8.508511366503999E-002  8.696622453713335E-002  8.888243422668118E-002  9.083409457724509E-002 
 9.282154614111904E-002  9.484511734157013E-002  9.690512361500825E-002  9.900186653416841E-002 
 1.011356329135496E-001  1.033066938985231E-001  1.055153040397060E-001  1.077617003543855E-001 
 1.100461013769746E-001  1.123687062006961E-001  1.147296935128989E-001  1.171292206266452E-001 
 1.195674225114373E-001  1.220444108261889E-001  1.245602729578011E-001  1.271150710689465E-001 
 1.297088411589261E-001  1.323415921417213E-001  1.350133049456179E-001  1.377239316390450E-001 
 1.404733945875157E-001  1.432615856468163E-001  1.460883653978230E-001  1.489535624285570E-001 
 1.518569726693024E-001  1.547983587868047E-001  1.577774496437418E-001  1.607939398298020E-001 
 1.638474892708149E-001  1.669377229224588E-001  1.700642305550917E-001  1.732265666362466E-001 
 1.764242503172419E-001  1.796567655302323E-001  1.829235612018143E-001  1.862240515890068E-001 
 1.895576167430729E-001  1.929236031061667E-001  1.963213242452337E-001  1.997500617269128E-001 
 2.032090661363885E-001  2.066975582422306E-001  2.102147303081874E-001  2.137597475517110E-001 
 2.173317497476411E-001  2.209298529739647E-001  2.245531514949197E-001  2.282007197748663E-001 
 2.318716146143705E-001  2.355648773977773E-001  2.392795364392290E-001  2.430146094116054E-001 
 2.467691058402257E-001  2.505420296403786E-001  2.543323816748578E-001  2.581391623046659E-001 
 2.619613739029893E-001  2.657980232994042E-001  2.696481241181506E-001  2.735106989712029E-001 
 2.773847814638467E-001  2.812694179676111E-001  2.851636691127319E-001  2.890666109499558E-001 
 2.929773357294984E-001  2.968949522434263E-001  3.008185856767897E-001  3.047473769125350E-001 
 3.086804812357637E-001  3.126170663843664E-001  3.165563098955729E-001  3.204973957017220E-001 
 3.244395099336337E-001  3.283818358965662E-001  3.323235481920034E-001  3.362638059685308E-001 
 3.402017452970386E-001  3.441364706794645E-001  3.480670457164293E-001  3.519924829774421E-001 
 3.559117331379296E-001  3.598236734701463E-001  3.637270958000083E-001  3.676206940689265E-001 
 3.715030516686081E-001  3.753726287472726E-001  3.792277497173943E-001  3.830665912274738E-001 
 3.868871708927984E-001  3.906873371119889E-001  3.944647603263651E-001  3.982169261068130E-001 
 4.019411304766115E-001  4.056344778971995E-001  4.092938823555390E-001  4.129160719947964E-001 
 4.164975977226029E-001  4.200348462110399E-001  4.235240576675776E-001  4.269613487040873E-001 
 4.303427405594493E-001  4.336641928377934E-001  4.369216428067710E-001  4.401110501563791E-001 
 4.432284469469032E-001  4.462699922731148E-001  4.492320309400957E-001  4.521111551838691E-001 
 4.549042681781627E-001  4.576086477490682E-001  4.602220083753679E-001  4.627425591887243E-001 
 4.651687177475823E-001  4.674979432956439E-001  4.697274273917210E-001  4.718543877612466E-001 
 4.738760722340836E-001  4.757897627571502E-001  4.775927794770972E-001  4.792824848879222E-001 
 4.808562880380865E-001  4.823116487913595E-001  4.836460821352899E-001  4.848571625308732E-001 
 4.859425282966572E-001  4.868998860202127E-001  4.877270149895727E-001  4.884217716369431E-001 
 4.889820939866834E-001  4.894060060992609E-001  4.896916225026083E-001  4.898371526020328E-001 
 4.898409050595763E-001  4.897012921334770E-001  4.894168339681481E-001  4.889861628248858E-001 
 4.884080272433101E-001  4.876812961233691E-001  4.868049627175726E-001  4.857781485229872E-001 
 4.846001070623954E-001  4.832702275439357E-001  4.817880383884578E-001  4.801532106137792E-001 
 4.783655610650047E-001  4.764250554800684E-001  4.743318113796806E-001  4.720861007709173E-001 
 4.696883526537616E-001  4.671391553200185E-001  4.644392584341465E-001  4.615895748857163E-001 
 4.585911824033877E-001  4.554453249205094E-001  4.521534136826873E-001  4.487170280879260E-001 
 4.451379162502493E-001  4.414179952780126E-001  4.375593512584630E-001  4.335642389404738E-001 
 4.294350811077566E-001  4.251744676352766E-001  4.207851542220174E-001  4.162700607937069E-001 
 4.116322695695785E-001  4.068750227877442E-001  4.020017200842723E-001  3.970159155215957E-001 
 3.919213142624390E-001  3.867217688860374E-001  3.814212753440268E-001  3.760239685540251E-001 
 3.705341176295968E-001  3.649561207459962E-001  3.592944996418444E-001  3.535538937576834E-001 
 3.477390540132202E-001  3.418548362259877E-001  3.359061941751517E-001  3.298981723152734E-001 
 3.238358981460199E-001  3.177245742450952E-001  3.115694699730764E-001  3.053759128603673E-001 
 2.991492796881529E-001  2.928949872770581E-001  2.866184829991750E-001  2.803252350312328E-001 
 2.740207223689501E-001  2.677104246146650E-001  2.613998116151257E-001  2.550943328741269E-001 
 2.487994068720848E-001  2.425204102757201E-001  2.362626670835654E-001  2.300314377460354E-001 
 2.238319083014716E-001  2.176691795720741E-001  2.115482564659442E-001  2.054740374334824E-001 
 1.994513041280642E-001  1.934847113221788E-001  1.875787771309981E-001  1.817378735955940E-001 
 1.759662176776903E-001  1.702678627168775E-001  1.646466903996239E-001  1.591064032871505E-001 
 1.536505179463294E-001  1.482823587242121E-001  1.430050522026461E-001  1.378215223647379E-001 
 1.327344864997301E-001  1.277464518672670E-001  1.228597131360959E-001  1.180763506061015E-001 
 1.133982292162874E-001  1.088269983350070E-001  1.043640923225042E-001  1.000107318497627E-001 
 9.576792595185328E-002  9.163647478852485E-002  8.761697307975846E-002  8.370981417948252E-002 
 7.991519474667058E-002  7.623311996966803E-002  7.266340929684163E-002  6.920570262454083E-002 
 6.585946689190948E-002  6.262400303128091E-002  5.949845322272239E-002  5.648180840173252E-002 
 5.357291597010769E-002  5.077048766153868E-002  4.807310751552284E-002  4.547923991562796E-002 
 4.298723765095783E-002  4.059534996278002E-002  3.830173054161647E-002  3.610444544359444E-002 
 3.400148089843753E-002  3.199075098507229E-002  3.007010515436632E-002  2.823733558193102E-002 
 2.649018433715501E-002  2.482635035762713E-002  2.324349622081319E-002  2.173925470722755E-002 
 2.031123515136345E-002  1.895702957829334E-002  1.767421862511974E-002  1.646037724735098E-002 
 1.531308021081453E-002  1.422990736992918E-002  1.320844873307666E-002  1.224630931548667E-002 
 1.134111377953171E-002  1.049051086167393E-002  9.692177584575299E-003  8.943823252131828E-003 
 8.243193224477571E-003  7.588072469375527E-003  6.976288885913891E-003  6.405716396093566E-003 
 5.874277799753947E-003  5.379947388356430E-003  4.920753313437717E-003  4.494779706056981E-003 
 4.100168544283589E-003  3.735121266688681E-003  3.397900130891772E-003  3.086829317444814E-003 
 2.800295780679183E-003  2.536749849562313E-003  2.294705583075200E-003  2.072740886095377E-003 
 1.869497393219099E-003  1.683680129350355E-003  1.514056957195182E-003  1.359457823003090E-003 
 1.218773812972845E-003  1.090956033671084E-003  9.750143305870517E-004  8.700158595572722E-004 
 7.750835262360800E-004  6.893943090613039E-004  6.121774812720504E-004  5.427127474834425E-004 
 4.803283101198399E-004  4.243988806642427E-004  3.743436502095911E-004  3.296242332112288E-004 
 2.897425976534706E-004  2.542389940721033E-004  2.226898950340436E-004  1.947059557804489E-004 
 1.699300058051266E-004  1.480350801802800E-004  1.287224984698627E-004  1.117199980995094E-004 
 9.677992809253601E-005  8.367750814406264E-005  7.220915709891324E-005  6.219089403135306E-005 
 5.345681430247799E-005  4.585764219948484E-005  3.925936104427640E-005  3.354192099991722E-005 
 2.859802420432106E-005  2.433198632222106E-005  2.065867312904777E-005  1.750251032312709E-005 
 1.479656440420243E-005  1.248169215466987E-005  1.050575601255358E-005  8.822902429180737E-006 
 7.392900156436840E-006  6.180535304838269E-006  5.155059950714846E-006  4.289691044715369E-006 
 3.561156380752458E-006  2.949284420561440E-006  2.436634830400185E-006  2.008166669585304E-006 
 1.650941271757900E-006  1.353856975946650E-006  1.107412992416341E-006  9.034998251384828E-007 
 7.352138155854789E-007  5.966935187544205E-007  4.829758300460903E-007  3.898691800410845E-007 
 3.138467804187959E-007  2.519378585065975E-007  2.016705537544761E-007  1.609792951403622E-007 
 1.281345608916597E-007  1.016987796059912E-007  8.048271901527456E-008  6.350545199050428E-008 
 4.996025624167747E-008  3.918565755701043E-008  3.064091727779720E-008  2.388534717679872E-008 
 1.856090961705733E-008  1.437762824455797E-008  1.110139497639851E-008  8.543813157646497E-009 
 6.553764948437922E-009  5.010433737360445E-009  3.817550117203551E-009  2.898663149841044E-009 
 2.193267715382399E-009  1.653644092893413E-009  1.242287938957392E-009  9.298278745667275E-010 
 6.933442932885852E-010  5.150170715166778E-010  3.810418763746179E-010  2.807649847201741E-010 
 2.059951795316692E-010  1.504585861775199E-010  1.093684369819693E-010  7.908687365554591E-011 
 5.686015982894176E-011  4.061220865663517E-011  2.878424535453662E-011  2.021082151038254E-011 
 1.402433695445757E-011  9.581988301670131E-012  6.409427092879094E-012  4.168081122012678E-012 
 2.566733667397493E-012  0.000000000000000E+000  0.000000000000000E+000  0.000000000000000E+000 
 0.000000000000000E+000  0.000000000000000E+000  0.000000000000000E+000  0.000000000000000E+000 
 0.000000000000000E+000  0.000000000000000E+000  0.000000000000000E+000  0.000000000000000E+000 
 0.000000000000000E+000  0.000000000000000E+000  0.000000000000000E+000  0.000000000000000E+000 
 0.000000000000000E+000  0.000000000000000E+000  0.000000000000000E+000  0.000000000000000E+000 
 0.000000000000000E+000  0.000000000000000E+000  0.000000000000000E+000  0.000000000000000E+000 
 0.000000000000000E+000  0.000000000000000E+000  0.000000000000000E+000  0.000000000000000E+000 
 0.000000000000000E+000  0.000000000000000E+000  0.000000000000000E+000  0.000000000000000E+000 
 0.000000000000000E+000  0.000000000000000E+000  0.000000000000000E+000  0.000000000000000E+000 
 0.000000000000000E+000  0.000000000000000E+000  0.000000000000000E+000  0.000000000000000E+000 
 0.000000000000000E+000  0.000000000000000E+000  0.000000000000000E+000  0.000000000000000E+000 
 0.000000000000000E+000  0.000000000000000E+000  0.000000000000000E+000  0.000000000000000E+000 
 0.000000000000000E+000  0.000000000000000E+000  0.000000000000000E+000  0.000000000000000E+000 
 0.000000000000000E+000  0.000000000000000E+000  0.000000000000000E+000  0.000000000000000E+000 
 0.000000000000000E+000  0.000000000000000E+000  0.000000000000000E+000  0.000000000000000E+000 
 0.000000000000000E+000  0.000000000000000E+000  0.000000000000000E+000  0.000000000000000E+000 
 0.000000000000000E+000  0.000000000000000E+000  0.000000000000000E+000  0.000000000000000E+000 
 0.000000000000000E+000  0.000000000000000E+000  0.000000000000000E+000  0.000000000000000E+000 
 0.000000000000000E+000  0.000000000000000E+000  0.000000000000000E+000  0.000000000000000E+000 
 0.000000000000000E+000  0.000000000000000E+000  0.000000000000000E+000  0.000000000000000E+000 
 0.000000000000000E+000  0.000000000000000E+000  0.000000000000000E+000  0.000000000000000E+000 
 0.000000000000000E+000  0.000000000000000E+000  0.000000000000000E+000  0.000000000000000E+000 
 0.000000000000000E+000  0.000000000000000E+000  0.000000000000000E+000  0.000000000000000E+000 
 0.000000000000000E+000  0.000000000000000E+000  0.000000000000000E+000  0.000000000000000E+000 
 0.000000000000000E+000  0.000000000000000E+000  0.000000000000000E+000  0.000000000000000E+000 
 0.000000000000000E+000  0.000000000000000E+000  0.000000000000000E+000  0.000000000000000E+000 
 0.000000000000000E+000  0.000000000000000E+000  0.000000000000000E+000  0.000000000000000E+000 
 0.000000000000000E+000  0.000000000000000E+000  0.000000000000000E+000  0.000000000000000E+000 
 0.000000000000000E+000  0.000000000000000E+000  0.000000000000000E+000  0.000000000000000E+000 
 0.000000000000000E+000  0.000000000000000E+000  0.000000000000000E+000  0.000000000000000E+000 
 0.000000000000000E+000  0.000000000000000E+000  0.000000000000000E+000  0.000000000000000E+000 
 0.000000000000000E+000
  </PP_RHOATOM>
  <PP_PAW paw_data_format="2" core_energy="-6.601505515968498E-005">
    <PP_OCCUPATIONS type="real" size="2" columns="4">
 1.000000000000000E+000  0.000000000000000E+000
    </PP_OCCUPATIONS>
    <PP_AE_NLCC type="real" size="929" columns="4">
 0.000000000000000E+000  0.000000000000000E+000  0.000000000000000E+000  0.000000000000000E+000 
 0.000000000000000E+000  0.000000000000000E+000  0.000000000000000E+000  0.000000000000000E+000 
 0.000000000000000E+000  0.000000000000000E+000  0.000000000000000E+000  0.000000000000000E+000 
 0.000000000000000E+000  0.000000000000000E+000  0.000000000000000E+000  0.000000000000000E+000 
 0.000000000000000E+000  0.000000000000000E+000  0.000000000000000E+000  0.000000000000000E+000 
 0.000000000000000E+000  0.000000000000000E+000  0.000000000000000E+000  0.000000000000000E+000 
 0.000000000000000E+000  0.000000000000000E+000  0.000000000000000E+000  0.000000000000000E+000 
 0.000000000000000E+000  0.000000000000000E+000  0.000000000000000E+000  0.000000000000000E+000 
 0.000000000000000E+000  0.000000000000000E+000  0.000000000000000E+000  0.000000000000000E+000 
 0.000000000000000E+000  0.000000000000000E+000  0.000000000000000E+000  0.000000000000000E+000 
 0.000000000000000E+000  0.000000000000000E+000  0.000000000000000E+000  0.000000000000000E+000 
 0.000000000000000E+000  0.000000000000000E+000  0.000000000000000E+000  0.000000000000000E+000 
 0.000000000000000E+000  0.000000000000000E+000  0.000000000000000E+000  0.000000000000000E+000 
 0.000000000000000E+000  0.000000000000000E+000  0.000000000000000E+000  0.000000000000000E+000 
 0.000000000000000E+000  0.000000000000000E+000  0.000000000000000E+000  0.000000000000000E+000 
 0.000000000000000E+000  0.000000000000000E+000  0.000000000000000E+000  0.000000000000000E+000 
 0.000000000000000E+000  0.000000000000000E+000  0.000000000000000E+000  0.000000000000000E+000 
 0.000000000000000E+000  0.000000000000000E+000  0.000000000000000E+000  0.000000000000000E+000 
 0.000000000000000E+000  0.000000000000000E+000  0.000000000000000E+000  0.000000000000000E+000 
 0.000000000000000E+000  0.000000000000000E+000  0.000000000000000E+000  0.000000000000000E+000 
 0.000000000000000E+000  0.000000000000000E+000  0.000000000000000E+000  0.000000000000000E+000 
 0.000000000000000E+000  0.000000000000000E+000  0.000000000000000E+000  0.000000000000000E+000 
 0.000000000000000E+000  0.000000000000000E+000  0.000000000000000E+000  0.000000000000000E+000 
 0.000000000000000E+000  0.000000000000000E+000  0.000000000000000E+000  0.000000000000000E+000 
 0.000000000000000E+000  0.000000000000000E+000  0.000000000000000E+000  0.000000000000000E+000 
 0.000000000000000E+000  0.000000000000000E+000  0.000000000000000E+000  0.000000000000000E+000 
 0.000000000000000E+000  0.000000000000000E+000  0.000000000000000E+000  0.000000000000000E+000 
 0.000000000000000E+000  0.000000000000000E+000  0.000000000000000E+000  0.000000000000000E+000 
 0.000000000000000E+000  0.000000000000000E+000  0.000000000000000E+000  0.000000000000000E+000 
 0.000000000000000E+000  0.000000000000000E+000  0.000000000000000E+000  0.000000000000000E+000 
 0.000000000000000E+000  0.000000000000000E+000  0.000000000000000E+000  0.000000000000000E+000 
 0.000000000000000E+000  0.000000000000000E+000  0.000000000000000E+000  0.000000000000000E+000 
 0.000000000000000E+000  0.000000000000000E+000  0.000000000000000E+000  0.000000000000000E+000 
 0.000000000000000E+000  0.000000000000000E+000  0.000000000000000E+000  0.000000000000000E+000 
 0.000000000000000E+000  0.000000000000000E+000  0.000000000000000E+000  0.000000000000000E+000 
 0.000000000000000E+000  0.000000000000000E+000  0.000000000000000E+000  0.000000000000000E+000 
 0.000000000000000E+000  0.000000000000000E+000  0.000000000000000E+000  0.000000000000000E+000 
 0.000000000000000E+000  0.000000000000000E+000  0.000000000000000E+000  0.000000000000000E+000 
 0.000000000000000E+000  0.000000000000000E+000  0.000000000000000E+000  0.000000000000000E+000 
 0.000000000000000E+000  0.000000000000000E+000  0.000000000000000E+000  0.000000000000000E+000 
 0.000000000000000E+000  0.000000000000000E+000  0.000000000000000E+000  0.000000000000000E+000 
 0.000000000000000E+000  0.000000000000000E+000  0.000000000000000E+000  0.000000000000000E+000 
 0.000000000000000E+000  0.000000000000000E+000  0.000000000000000E+000  0.000000000000000E+000 
 0.000000000000000E+000  0.000000000000000E+000  0.000000000000000E+000  0.000000000000000E+000 
 0.000000000000000E+000  0.000000000000000E+000  0.000000000000000E+000  0.000000000000000E+000 
 0.000000000000000E+000  0.000000000000000E+000  0.000000000000000E+000  0.000000000000000E+000 
 0.000000000000000E+000  0.000000000000000E+000  0.000000000000000E+000  0.000000000000000E+000 
 0.000000000000000E+000  0.000000000000000E+000  0.000000000000000E+000  0.000000000000000E+000 
 0.000000000000000E+000  0.000000000000000E+000  0.000000000000000E+000  0.000000000000000E+000 
 0.000000000000000E+000  0.000000000000000E+000  0.000000000000000E+000  0.000000000000000E+000 
 0.000000000000000E+000  0.000000000000000E+000  0.000000000000000E+000  0.000000000000000E+000 
 0.000000000000000E+000  0.000000000000000E+000  0.000000000000000E+000  0.000000000000000E+000 
 0.000000000000000E+000  0.000000000000000E+000  0.000000000000000E+000  0.000000000000000E+000 
 0.000000000000000E+000  0.000000000000000E+000  0.000000000000000E+000  0.000000000000000E+000 
 0.000000000000000E+000  0.000000000000000E+000  0.000000000000000E+000  0.000000000000000E+000 
 0.000000000000000E+000  0.000000000000000E+000  0.000000000000000E+000  0.000000000000000E+000 
 0.000000000000000E+000  0.000000000000000E+000  0.000000000000000E+000  0.000000000000000E+000 
 0.000000000000000E+000  0.000000000000000E+000  0.000000000000000E+000  0.000000000000000E+000 
 0.000000000000000E+000  0.000000000000000E+000  0.000000000000000E+000  0.000000000000000E+000 
 0.000000000000000E+000  0.000000000000000E+000  0.000000000000000E+000  0.000000000000000E+000 
 0.000000000000000E+000  0.000000000000000E+000  0.000000000000000E+000  0.000000000000000E+000 
 0.000000000000000E+000  0.000000000000000E+000  0.000000000000000E+000  0.000000000000000E+000 
 0.000000000000000E+000  0.000000000000000E+000  0.000000000000000E+000  0.000000000000000E+000 
 0.000000000000000E+000  0.000000000000000E+000  0.000000000000000E+000  0.000000000000000E+000 
 0.000000000000000E+000  0.000000000000000E+000  0.000000000000000E+000  0.000000000000000E+000 
 0.000000000000000E+000  0.000000000000000E+000  0.000000000000000E+000  0.000000000000000E+000 
 0.000000000000000E+000  0.000000000000000E+000  0.000000000000000E+000  0.000000000000000E+000 
 0.000000000000000E+000  0.000000000000000E+000  0.000000000000000E+000  0.000000000000000E+000 
 0.000000000000000E+000  0.000000000000000E+000  0.000000000000000E+000  0.000000000000000E+000 
 0.000000000000000E+000  0.000000000000000E+000  0.000000000000000E+000  0.000000000000000E+000 
 0.000000000000000E+000  0.000000000000000E+000  0.000000000000000E+000  0.000000000000000E+000 
 0.000000000000000E+000  0.000000000000000E+000  0.000000000000000E+000  0.000000000000000E+000 
 0.000000000000000E+000  0.000000000000000E+000  0.000000000000000E+000  0.000000000000000E+000 
 0.000000000000000E+000  0.000000000000000E+000  0.000000000000000E+000  0.000000000000000E+000 
 0.000000000000000E+000  0.000000000000000E+000  0.000000000000000E+000  0.000000000000000E+000 
 0.000000000000000E+000  0.000000000000000E+000  0.000000000000000E+000  0.000000000000000E+000 
 0.000000000000000E+000  0.000000000000000E+000  0.000000000000000E+000  0.000000000000000E+000 
 0.000000000000000E+000  0.000000000000000E+000  0.000000000000000E+000  0.000000000000000E+000 
 0.000000000000000E+000  0.000000000000000E+000  0.000000000000000E+000  0.000000000000000E+000 
 0.000000000000000E+000  0.000000000000000E+000  0.000000000000000E+000  0.000000000000000E+000 
 0.000000000000000E+000  0.000000000000000E+000  0.000000000000000E+000  0.000000000000000E+000 
 0.000000000000000E+000  0.000000000000000E+000  0.000000000000000E+000  0.000000000000000E+000 
 0.000000000000000E+000  0.000000000000000E+000  0.000000000000000E+000  0.000000000000000E+000 
 0.000000000000000E+000  0.000000000000000E+000  0.000000000000000E+000  0.000000000000000E+000 
 0.000000000000000E+000  0.000000000000000E+000  0.000000000000000E+000  0.000000000000000E+000 
 0.000000000000000E+000  0.000000000000000E+000  0.000000000000000E+000  0.000000000000000E+000 
 0.000000000000000E+000  0.000000000000000E+000  0.000000000000000E+000  0.000000000000000E+000 
 0.000000000000000E+000  0.000000000000000E+000  0.000000000000000E+000  0.000000000000000E+000 
 0.000000000000000E+000  0.000000000000000E+000  0.000000000000000E+000  0.000000000000000E+000 
 0.000000000000000E+000  0.000000000000000E+000  0.000000000000000E+000  0.000000000000000E+000 
 0.000000000000000E+000  0.000000000000000E+000  0.000000000000000E+000  0.000000000000000E+000 
 0.000000000000000E+000  0.000000000000000E+000  0.000000000000000E+000  0.000000000000000E+000 
 0.000000000000000E+000  0.000000000000000E+000  0.000000000000000E+000  0.000000000000000E+000 
 0.000000000000000E+000  0.000000000000000E+000  0.000000000000000E+000  0.000000000000000E+000 
 0.000000000000000E+000  0.000000000000000E+000  0.000000000000000E+000  0.000000000000000E+000 
 0.000000000000000E+000  0.000000000000000E+000  0.000000000000000E+000  0.000000000000000E+000 
 0.000000000000000E+000  0.000000000000000E+000  0.000000000000000E+000  0.000000000000000E+000 
 0.000000000000000E+000  0.000000000000000E+000  0.000000000000000E+000  0.000000000000000E+000 
 0.000000000000000E+000  0.000000000000000E+000  0.000000000000000E+000  0.000000000000000E+000 
 0.000000000000000E+000  0.000000000000000E+000  0.000000000000000E+000  0.000000000000000E+000 
 0.000000000000000E+000  0.000000000000000E+000  0.000000000000000E+000  0.000000000000000E+000 
 0.000000000000000E+000  0.000000000000000E+000  0.000000000000000E+000  0.000000000000000E+000 
 0.000000000000000E+000  0.000000000000000E+000  0.000000000000000E+000  0.000000000000000E+000 
 0.000000000000000E+000  0.000000000000000E+000  0.000000000000000E+000  0.000000000000000E+000 
 0.000000000000000E+000  0.000000000000000E+000  0.000000000000000E+000  0.000000000000000E+000 
 0.000000000000000E+000  0.000000000000000E+000  0.000000000000000E+000  0.000000000000000E+000 
 0.000000000000000E+000  0.000000000000000E+000  0.000000000000000E+000  0.000000000000000E+000 
 0.000000000000000E+000  0.000000000000000E+000  0.000000000000000E+000  0.000000000000000E+000 
 0.000000000000000E+000  0.000000000000000E+000  0.000000000000000E+000  0.000000000000000E+000 
 0.000000000000000E+000  0.000000000000000E+000  0.000000000000000E+000  0.000000000000000E+000 
 0.000000000000000E+000  0.000000000000000E+000  0.000000000000000E+000  0.000000000000000E+000 
 0.000000000000000E+000  0.000000000000000E+000  0.000000000000000E+000  0.000000000000000E+000 
 0.000000000000000E+000  0.000000000000000E+000  0.000000000000000E+000  0.000000000000000E+000 
 0.000000000000000E+000  0.000000000000000E+000  0.000000000000000E+000  0.000000000000000E+000 
 0.000000000000000E+000  0.000000000000000E+000  0.000000000000000E+000  0.000000000000000E+000 
 0.000000000000000E+000  0.000000000000000E+000  0.000000000000000E+000  0.000000000000000E+000 
 0.000000000000000E+000  0.000000000000000E+000  0.000000000000000E+000  0.000000000000000E+000 
 0.000000000000000E+000  0.000000000000000E+000  0.000000000000000E+000  0.000000000000000E+000 
 0.000000000000000E+000  0.000000000000000E+000  0.000000000000000E+000  0.000000000000000E+000 
 0.000000000000000E+000  0.000000000000000E+000  0.000000000000000E+000  0.000000000000000E+000 
 0.000000000000000E+000  0.000000000000000E+000  0.000000000000000E+000  0.000000000000000E+000 
 0.000000000000000E+000  0.000000000000000E+000  0.000000000000000E+000  0.000000000000000E+000 
 0.000000000000000E+000  0.000000000000000E+000  0.000000000000000E+000  0.000000000000000E+000 
 0.000000000000000E+000  0.000000000000000E+000  0.000000000000000E+000  0.000000000000000E+000 
 0.000000000000000E+000  0.000000000000000E+000  0.000000000000000E+000  0.000000000000000E+000 
 0.000000000000000E+000  0.000000000000000E+000  0.000000000000000E+000  0.000000000000000E+000 
 0.000000000000000E+000  0.000000000000000E+000  0.000000000000000E+000  0.000000000000000E+000 
 0.000000000000000E+000  0.000000000000000E+000  0.000000000000000E+000  0.000000000000000E+000 
 0.000000000000000E+000  0.000000000000000E+000  0.000000000000000E+000  0.000000000000000E+000 
 0.000000000000000E+000  0.000000000000000E+000  0.000000000000000E+000  0.000000000000000E+000 
 0.000000000000000E+000  0.000000000000000E+000  0.000000000000000E+000  0.000000000000000E+000 
 0.000000000000000E+000  0.000000000000000E+000  0.000000000000000E+000  0.000000000000000E+000 
 0.000000000000000E+000  0.000000000000000E+000  0.000000000000000E+000  0.000000000000000E+000 
 0.000000000000000E+000  0.000000000000000E+000  0.000000000000000E+000  0.000000000000000E+000 
 0.000000000000000E+000  0.000000000000000E+000  0.000000000000000E+000  0.000000000000000E+000 
 0.000000000000000E+000  0.000000000000000E+000  0.000000000000000E+000  0.000000000000000E+000 
 0.000000000000000E+000  0.000000000000000E+000  0.000000000000000E+000  0.000000000000000E+000 
 0.000000000000000E+000  0.000000000000000E+000  0.000000000000000E+000  0.000000000000000E+000 
 0.000000000000000E+000  0.000000000000000E+000  0.000000000000000E+000  0.000000000000000E+000 
 0.000000000000000E+000  0.000000000000000E+000  0.000000000000000E+000  0.000000000000000E+000 
 0.000000000000000E+000  0.000000000000000E+000  0.000000000000000E+000  0.000000000000000E+000 
 0.000000000000000E+000  0.000000000000000E+000  0.000000000000000E+000  0.000000000000000E+000 
 0.000000000000000E+000  0.000000000000000E+000  0.000000000000000E+000  0.000000000000000E+000 
 0.000000000000000E+000  0.000000000000000E+000  0.000000000000000E+000  0.000000000000000E+000 
 0.000000000000000E+000  0.000000000000000E+000  0.000000000000000E+000  0.000000000000000E+000 
 0.000000000000000E+000  0.000000000000000E+000  0.000000000000000E+000  0.000000000000000E+000 
 0.000000000000000E+000  0.000000000000000E+000  0.000000000000000E+000  0.000000000000000E+000 
 0.000000000000000E+000  0.000000000000000E+000  0.000000000000000E+000  0.000000000000000E+000 
 0.000000000000000E+000  0.000000000000000E+000  0.000000000000000E+000  0.000000000000000E+000 
 0.000000000000000E+000  0.000000000000000E+000  0.000000000000000E+000  0.000000000000000E+000 
 0.000000000000000E+000  0.000000000000000E+000  0.000000000000000E+000  0.000000000000000E+000 
 0.000000000000000E+000  0.000000000000000E+000  0.000000000000000E+000  0.000000000000000E+000 
 0.000000000000000E+000  0.000000000000000E+000  0.000000000000000E+000  0.000000000000000E+000 
 0.000000000000000E+000  0.000000000000000E+000  0.000000000000000E+000  0.000000000000000E+000 
 0.000000000000000E+000  0.000000000000000E+000  0.000000000000000E+000  0.000000000000000E+000 
 0.000000000000000E+000  0.000000000000000E+000  0.000000000000000E+000  0.000000000000000E+000 
 0.000000000000000E+000  0.000000000000000E+000  0.000000000000000E+000  0.000000000000000E+000 
 0.000000000000000E+000  0.000000000000000E+000  0.000000000000000E+000  0.000000000000000E+000 
 0.000000000000000E+000  0.000000000000000E+000  0.000000000000000E+000  0.000000000000000E+000 
 0.000000000000000E+000  0.000000000000000E+000  0.000000000000000E+000  0.000000000000000E+000 
 0.000000000000000E+000  0.000000000000000E+000  0.000000000000000E+000  0.000000000000000E+000 
 0.000000000000000E+000  0.000000000000000E+000  0.000000000000000E+000  0.000000000000000E+000 
 0.000000000000000E+000  0.000000000000000E+000  0.000000000000000E+000  0.000000000000000E+000 
 0.000000000000000E+000  0.000000000000000E+000  0.000000000000000E+000  0.000000000000000E+000 
 0.000000000000000E+000  0.000000000000000E+000  0.000000000000000E+000  0.000000000000000E+000 
 0.000000000000000E+000  0.000000000000000E+000  0.000000000000000E+000  0.000000000000000E+000 
 0.000000000000000E+000  0.000000000000000E+000  0.000000000000000E+000  0.000000000000000E+000 
 0.000000000000000E+000  0.000000000000000E+000  0.000000000000000E+000  0.000000000000000E+000 
 0.000000000000000E+000  0.000000000000000E+000  0.000000000000000E+000  0.000000000000000E+000 
 0.000000000000000E+000  0.000000000000000E+000  0.000000000000000E+000  0.000000000000000E+000 
 0.000000000000000E+000  0.000000000000000E+000  0.000000000000000E+000  0.000000000000000E+000 
 0.000000000000000E+000  0.000000000000000E+000  0.000000000000000E+000  0.000000000000000E+000 
 0.000000000000000E+000  0.000000000000000E+000  0.000000000000000E+000  0.000000000000000E+000 
 0.000000000000000E+000  0.000000000000000E+000  0.000000000000000E+000  0.000000000000000E+000 
 0.000000000000000E+000  0.000000000000000E+000  0.000000000000000E+000  0.000000000000000E+000 
 0.000000000000000E+000  0.000000000000000E+000  0.000000000000000E+000  0.000000000000000E+000 
 0.000000000000000E+000  0.000000000000000E+000  0.000000000000000E+000  0.000000000000000E+000 
 0.000000000000000E+000  0.000000000000000E+000  0.000000000000000E+000  0.000000000000000E+000 
 0.000000000000000E+000  0.000000000000000E+000  0.000000000000000E+000  0.000000000000000E+000 
 0.000000000000000E+000  0.000000000000000E+000  0.000000000000000E+000  0.000000000000000E+000 
 0.000000000000000E+000  0.000000000000000E+000  0.000000000000000E+000  0.000000000000000E+000 
 0.000000000000000E+000  0.000000000000000E+000  0.000000000000000E+000  0.000000000000000E+000 
 0.000000000000000E+000  0.000000000000000E+000  0.000000000000000E+000  0.000000000000000E+000 
 0.000000000000000E+000  0.000000000000000E+000  0.000000000000000E+000  0.000000000000000E+000 
 0.000000000000000E+000  0.000000000000000E+000  0.000000000000000E+000  0.000000000000000E+000 
 0.000000000000000E+000  0.000000000000000E+000  0.000000000000000E+000  0.000000000000000E+000 
 0.000000000000000E+000  0.000000000000000E+000  0.000000000000000E+000  0.000000000000000E+000 
 0.000000000000000E+000  0.000000000000000E+000  0.000000000000000E+000  0.000000000000000E+000 
 0.000000000000000E+000  0.000000000000000E+000  0.000000000000000E+000  0.000000000000000E+000 
 0.000000000000000E+000  0.000000000000000E+000  0.000000000000000E+000  0.000000000000000E+000 
 0.000000000000000E+000  0.000000000000000E+000  0.000000000000000E+000  0.000000000000000E+000 
 0.000000000000000E+000  0.000000000000000E+000  0.000000000000000E+000  0.000000000000000E+000 
 0.000000000000000E+000  0.000000000000000E+000  0.000000000000000E+000  0.000000000000000E+000 
 0.000000000000000E+000  0.000000000000000E+000  0.000000000000000E+000  0.000000000000000E+000 
 0.000000000000000E+000  0.000000000000000E+000  0.000000000000000E+000  0.000000000000000E+000 
 0.000000000000000E+000  0.000000000000000E+000  0.000000000000000E+000  0.000000000000000E+000 
 0.000000000000000E+000  0.000000000000000E+000  0.000000000000000E+000  0.000000000000000E+000 
 0.000000000000000E+000  0.000000000000000E+000  0.000000000000000E+000  0.000000000000000E+000 
 0.000000000000000E+000  0.000000000000000E+000  0.000000000000000E+000  0.000000000000000E+000 
 0.000000000000000E+000  0.000000000000000E+000  0.000000000000000E+000  0.000000000000000E+000 
 0.000000000000000E+000  0.000000000000000E+000  0.000000000000000E+000  0.000000000000000E+000 
 0.000000000000000E+000  0.000000000000000E+000  0.000000000000000E+000  0.000000000000000E+000 
 0.000000000000000E+000  0.000000000000000E+000  0.000000000000000E+000  0.000000000000000E+000 
 0.000000000000000E+000  0.000000000000000E+000  0.000000000000000E+000  0.000000000000000E+000 
 0.000000000000000E+000  0.000000000000000E+000  0.000000000000000E+000  0.000000000000000E+000 
 0.000000000000000E+000  0.000000000000000E+000  0.000000000000000E+000  0.000000000000000E+000 
 0.000000000000000E+000  0.000000000000000E+000  0.000000000000000E+000  0.000000000000000E+000 
 0.000000000000000E+000  0.000000000000000E+000  0.000000000000000E+000  0.000000000000000E+000 
 0.000000000000000E+000  0.000000000000000E+000  0.000000000000000E+000  0.000000000000000E+000 
 0.000000000000000E+000  0.000000000000000E+000  0.000000000000000E+000  0.000000000000000E+000 
 0.000000000000000E+000  0.000000000000000E+000  0.000000000000000E+000  0.000000000000000E+000 
 0.000000000000000E+000  0.000000000000000E+000  0.000000000000000E+000  0.000000000000000E+000 
 0.000000000000000E+000  0.000000000000000E+000  0.000000000000000E+000  0.000000000000000E+000 
 0.000000000000000E+000  0.000000000000000E+000  0.000000000000000E+000  0.000000000000000E+000 
 0.000000000000000E+000  0.000000000000000E+000  0.000000000000000E+000  0.000000000000000E+000 
 0.000000000000000E+000  0.000000000000000E+000  0.000000000000000E+000  0.000000000000000E+000 
 0.000000000000000E+000  0.000000000000000E+000  0.000000000000000E+000  0.000000000000000E+000 
 0.000000000000000E+000  0.000000000000000E+000  0.000000000000000E+000  0.000000000000000E+000 
 0.000000000000000E+000  0.000000000000000E+000  0.000000000000000E+000  0.000000000000000E+000 
 0.000000000000000E+000  0.000000000000000E+000  0.000000000000000E+000  0.000000000000000E+000 
 0.000000000000000E+000  0.000000000000000E+000  0.000000000000000E+000  0.000000000000000E+000 
 0.000000000000000E+000  0.000000000000000E+000  0.000000000000000E+000  0.000000000000000E+000 
 0.000000000000000E+000  0.000000000000000E+000  0.000000000000000E+000  0.000000000000000E+000 
 0.000000000000000E+000  0.000000000000000E+000  0.000000000000000E+000  0.000000000000000E+000 
 0.000000000000000E+000  0.000000000000000E+000  0.000000000000000E+000  0.000000000000000E+000 
 0.000000000000000E+000  0.000000000000000E+000  0.000000000000000E+000  0.000000000000000E+000 
 0.000000000000000E+000  0.000000000000000E+000  0.000000000000000E+000  0.000000000000000E+000 
 0.000000000000000E+000  0.000000000000000E+000  0.000000000000000E+000  0.000000000000000E+000 
 0.000000000000000E+000  0.000000000000000E+000  0.000000000000000E+000  0.000000000000000E+000 
 0.000000000000000E+000  0.000000000000000E+000  0.000000000000000E+000  0.000000000000000E+000 
 0.000000000000000E+000  0.000000000000000E+000  0.000000000000000E+000  0.000000000000000E+000 
 0.000000000000000E+000  0.000000000000000E+000  0.000000000000000E+000  0.000000000000000E+000 
 0.000000000000000E+000
    </PP_AE_NLCC>
    <PP_AE_VLOC type="real" size="929" columns="4">
-2.193266316872731E+003 -2.166021125174813E+003 -2.139114378561861E+003 -2.112541872891646E+003 
-2.086299456183199E+003 -2.060383028101440E+003 -2.034788539081684E+003 -2.009511989894067E+003 
-1.984549431055397E+003 -1.959896962111912E+003 -1.935550731054233E+003 -1.911506933732210E+003 
-1.887761813262105E+003 -1.864311659418295E+003 -1.841152808066536E+003 -1.818281640585662E+003 
-1.795694583307063E+003 -1.773388106961332E+003 -1.751358726115217E+003 -1.729602998631586E+003 
-1.708117525133405E+003 -1.686898948472779E+003 -1.665943953202934E+003 -1.645249265063909E+003 
-1.624811650469115E+003 -1.604627915995740E+003 -1.584694907900506E+003 -1.565009511611453E+003 
-1.545568651236069E+003 -1.526369289106711E+003 -1.507408425287574E+003 -1.488683097097442E+003 
-1.470190378669937E+003 -1.451927380481776E+003 -1.433891248899598E+003 -1.416079165742101E+003 
-1.398488347835172E+003 -1.381116046577114E+003 -1.363959547509897E+003 -1.347016169899229E+003 
-1.330283266308762E+003 -1.313758222179757E+003 -1.297438455443167E+003 -1.281321416109772E+003 
-1.265404585852690E+003 -1.249685477636586E+003 -1.234161635320183E+003 -1.218830633266459E+003 
-1.203690075981360E+003 -1.188737597722189E+003 -1.173970862127461E+003 -1.159387561868378E+003 
-1.144985418272831E+003 -1.130762180980151E+003 -1.116715627580165E+003 -1.102843563265307E+003 
-1.089143820504594E+003 -1.075614258679454E+003 -1.062252763768165E+003 -1.049057248017142E+003 
-1.036025649593817E+003 -1.023155932281499E+003 -1.010446085168619E+003 -9.978941223130181E+002 
-9.854980824414974E+002 -9.732560286504932E+002 -9.611660480946550E+002 -9.492262516920613E+002 
-9.374347738200352E+002 -9.257897720366038E+002 -9.142894267902252E+002 -9.029319411284499E+002 
-8.917155404172355E+002 -8.806384720701511E+002 -8.696990052802886E+002 -8.588954307331951E+002 
-8.482260603388766E+002 -8.376892269891256E+002 -8.272832842903051E+002 -8.170066062862658E+002 
-8.068575872270799E+002 -7.968346413096940E+002 -7.869362024214472E+002 -7.771607239155493E+002 
-7.675066783575641E+002 -7.579725572782027E+002 -7.485568709537675E+002 -7.392581481642878E+002 
-7.300749359603122E+002 -7.210057994522375E+002 -7.120493215687892E+002 -7.032041028376009E+002 
-6.944687611798843E+002 -6.858419316813886E+002 -6.773222663776623E+002 -6.689084340537303E+002 
-6.605991200354398E+002 -6.523930259741223E+002 -6.442888696496285E+002 -6.362853847733556E+002 
-6.283813207820107E+002 -6.205754426497575E+002 -6.128665306931402E+002 -6.052533803791835E+002 
-5.977348021376904E+002 -5.903096211749518E+002 -5.829766772916437E+002 -5.757348246987085E+002 
-5.685829318435722E+002 -5.615198812304737E+002 -5.545445692406879E+002 -5.476559059668525E+002 
-5.408528150428749E+002 -5.341342334717225E+002 -5.274991114615445E+002 -5.209464122606527E+002 
-5.144751119960695E+002 -5.080841995147216E+002 -5.017726762230030E+002 -4.955395559325419E+002 
-4.893838647071858E+002 -4.833046407062768E+002 -4.773009340378326E+002 -4.713718066100703E+002 
-4.655163319868074E+002 -4.597335952401258E+002 -4.540226928013101E+002 -4.483827323309444E+002 
-4.428128325754578E+002 -4.373121232260477E+002 -4.318797447859808E+002 -4.265148484346262E+002 
-4.212165958961712E+002 -4.159841593068610E+002 -4.108167210887055E+002 -4.057134738198731E+002 
-4.006736201069368E+002 -3.956963724618146E+002 -3.907809531797756E+002 -3.859265942169195E+002 
-3.811325370692185E+002 -3.763980326564551E+002 -3.717223412022623E+002 -3.671047321197016E+002 
-3.625444838980996E+002 -3.580408839898614E+002 -3.535932286984596E+002 -3.492008230677683E+002 
-3.448629807767209E+002 -3.405790240288280E+002 -3.363482834452959E+002 -3.321700979652284E+002 
-3.280438147391044E+002 -3.239687890261049E+002 -3.199443840961057E+002 -3.159699711266752E+002 
-3.120449291077404E+002 -3.081686447447001E+002 -3.043405123589451E+002 -3.005599337971890E+002 
-2.968263183367199E+002 -2.931390825922392E+002 -2.894976504259938E+002 -2.859014528567878E+002 
-2.823499279711274E+002 -2.788425208358462E+002 -2.753786834118665E+002 -2.719578744673770E+002 
-2.685795594943847E+002 -2.652432106241009E+002 -2.619483065445260E+002 -2.586943324210325E+002 
-2.554807798135037E+002 -2.523071465972460E+002 -2.491729368860531E+002 -2.460776609534300E+002 
-2.430208351557467E+002 -2.400019818578453E+002 -2.370206293581972E+002 -2.340763118140653E+002 
-2.311685691697550E+002 -2.282969470846168E+002 -2.254609968619245E+002 -2.226602753788894E+002 
-2.198943450167399E+002 -2.171627735933005E+002 -2.144651342953704E+002 -2.118010056108382E+002 
-2.091699712641305E+002 -2.065716201510657E+002 -2.040055462737954E+002 -2.014713486785253E+002 
-1.989686313912986E+002 -1.964970033573373E+002 -1.940560783801373E+002 -1.916454750597393E+002 
-1.892648167346944E+002 -1.869137314224971E+002 -1.845918517611122E+002 -1.822988149521421E+002 
-1.800342627037247E+002 -1.777978411751842E+002 -1.755892009211859E+002 -1.734079968368805E+002 
-1.712538881048373E+002 -1.691265381414100E+002 -1.670256145437037E+002 -1.649507890377063E+002 
-1.629017374281914E+002 -1.608781395469681E+002 -1.588796792021195E+002 -1.569060441301736E+002 
-1.549569259470240E+002 -1.530320200987859E+002 -1.511310258149408E+002 -1.492536460614843E+002 
-1.473995874938180E+002 -1.455685604115977E+002 -1.437602787131092E+002 -1.419744598505385E+002 
-1.402108247862480E+002 -1.384690979485502E+002 -1.367490071890937E+002 -1.350502837403174E+002 
-1.333726621730268E+002 -1.317158803555343E+002 -1.300796794124095E+002 -1.284638036837771E+002 
-1.268680006858067E+002 -1.252920210710720E+002 -1.237356185895626E+002 -1.221985500501660E+002 
-1.206805752827935E+002 -1.191814571008156E+002 -1.177009612640181E+002 -1.162388564418957E+002 
-1.147949141774561E+002 -1.133689088520196E+002 -1.119606176492274E+002 -1.105698205206066E+002 
-1.091963001515145E+002 -1.078398419264377E+002 -1.065002338959976E+002 -1.051772667438263E+002 
-1.038707337535682E+002 -1.025804307768166E+002 -1.013061562010185E+002 -1.000477109181377E+002 
-9.880489829369174E+001 -9.757752413564820E+001 -9.636539666425675E+001 -9.516832648214280E+001 
-9.398612654464078E+001 -9.281861213060562E+001 -9.166560081354858E+001 -9.052691243312644E+001 
-8.940236906696119E+001 -8.829179500280789E+001 -8.719501671123388E+001 -8.611186281844981E+001 
-8.504216407937825E+001 -8.398575335146688E+001 -8.294246556843049E+001 -8.191213771433515E+001 
-8.089460879836389E+001 -7.988971982962306E+001 -7.889731379214552E+001 -7.791723562043775E+001 
-7.694933217531732E+001 -7.599345221990615E+001 -7.504944639600596E+001 -7.411716720076923E+001 
-7.319646896368373E+001 -7.228720782379034E+001 -7.138924170717762E+001 -7.050243030483664E+001 
-6.962663505065414E+001 -6.876171909982348E+001 -6.790754730751425E+001 -6.706398620762688E+001 
-6.623090399198706E+001 -6.540817048983268E+001 -6.459565714739841E+001 -6.379323700780991E+001 
-6.300078469128784E+001 -6.221817637553252E+001 -6.144528977640564E+001 -6.068200412880453E+001 
-5.992820016780198E+001 -5.918376011000487E+001 -5.844856763512720E+001 -5.772250786782999E+001 
-5.700546735981606E+001 -5.629733407205655E+001 -5.559799735726262E+001 -5.490734794267295E+001 
-5.422527791289437E+001 -5.355168069309849E+001 -5.288645103236922E+001 -5.222948498720385E+001 
-5.158067990529675E+001 -5.093993440955377E+001 -5.030714838221869E+001 -4.968222294914838E+001 
-4.906506046448232E+001 -4.845556449533380E+001 -4.785363980670279E+001 -4.725919234664447E+001 
-4.667212923153157E+001 -4.609235873156327E+001 -4.551979025641061E+001 -4.495433434107708E+001 
-4.439590263193631E+001 -4.384440787290590E+001 -4.329976389179755E+001 -4.276188558687323E+001 
-4.223068891356902E+001 -4.170609087131808E+001 -4.118800949060572E+001 -4.067636382016947E+001 
-4.017107391432381E+001 -3.967206082049148E+001 -3.917924656687089E+001 -3.869255415022847E+001 
-3.821190752388356E+001 -3.773723158582428E+001 -3.726845216696083E+001 -3.680549601956733E+001 
-3.634829080580051E+001 -3.589676508640931E+001 -3.545084830958967E+001 -3.501047079993552E+001 
-3.457556374756116E+001 -3.414605919735548E+001 -3.372189003836327E+001 -3.330298999328750E+001 
-3.288929360814263E+001 -3.248073624202976E+001 -3.207725405702869E+001 -3.167878400822571E+001 
-3.128526383386625E+001 -3.089663204562320E+001 -3.051282791898180E+001 -3.013379148377266E+001 
-2.975946351478779E+001 -2.938978552251096E+001 -2.902469974400296E+001 -2.866414913387251E+001 
-2.830807735535565E+001 -2.795642877150715E+001 -2.760914843652085E+001 -2.726618208714250E+001 
-2.692747613417730E+001 -2.659297765413431E+001 -2.626263438094327E+001 -2.593639469779414E+001 
-2.561420762907816E+001 -2.529602283240681E+001 -2.498179059075642E+001 -2.467146180470285E+001 
-2.436498798474462E+001 -2.406232124371745E+001 -2.376341428932742E+001 -2.346822041676148E+001 
-2.317669350137076E+001 -2.288878799148240E+001 -2.260445890127831E+001 -2.232366180375418E+001 
-2.204635282379508E+001 -2.177248863131245E+001 -2.150202643446312E+001 -2.123492397297877E+001 
-2.097113951155825E+001 -2.071063183334200E+001 -2.045336023347883E+001 -2.019928451275534E+001 
-1.994836497132004E+001 -1.970056240248907E+001 -1.945583808660534E+001 -1.921415378499306E+001 
-1.897547173399243E+001 -1.873975463904688E+001 -1.850696566887884E+001 -1.827706844974052E+001 
-1.805002705972402E+001 -1.782580602314727E+001 -1.760437030501642E+001 -1.738568530555295E+001 
-1.716971685478058E+001 -1.695643120718959E+001 -1.674579503646269E+001 -1.653777543026783E+001 
-1.633233988512097E+001 -1.612945630130089E+001 -1.592909297783280E+001 -1.573121860753853E+001 
-1.553580227214840E+001 -1.534281343746118E+001 -1.515222194857710E+001 -1.496399802519069E+001 
-1.477811225693004E+001 -1.459453559876562E+001 -1.441323936647013E+001 -1.423419523213870E+001 
-1.405737521976368E+001 -1.388275170085622E+001 -1.371029739013405E+001 -1.353998534126340E+001 
-1.337178894263965E+001 -1.320568191323272E+001 -1.304163829848213E+001 -1.287963246623737E+001 
-1.271963910275858E+001 -1.256163320875728E+001 -1.240559009549110E+001 -1.225148538090767E+001 
-1.209929498582914E+001 -1.194899513019621E+001 -1.180056232935378E+001 -1.165397339037292E+001 
-1.150920540843240E+001 -1.136623576324291E+001 -1.122504211550610E+001 -1.108560240342543E+001 
-1.094789483926261E+001 -1.081189790593176E+001 -1.067759035363486E+001 -1.054495119654388E+001 
-1.041395970951964E+001 -1.028459542487593E+001 -1.015683812918175E+001 -1.003066786009791E+001 
-9.906064903262829E+000 -9.783009789212111E+000 -9.661483290333699E+000 -9.541466417865015E+000 
-9.422940418925162E+000 -9.305886773584476E+000 -9.190287191974285E+000 -9.076123611425297E+000 
-8.963378193643811E+000 -8.852033321929950E+000 -8.742071598420885E+000 -8.633475841373297E+000 
-8.526229082479935E+000 -8.420314564215779E+000 -8.315715737222115E+000 -8.212416257719202E+000 
-8.110399984952840E+000 -8.009650978673930E+000 -7.910153496644699E+000 -7.811891992180380E+000 
-7.714851111721836E+000 -7.619015692434111E+000 -7.524370759837464E+000 -7.430901525468798E+000 
-7.338593384570347E+000 -7.247431913806500E+000 -7.157402869012408E+000 -7.068492182967279E+000 
-6.980685963194635E+000 -6.893970489794125E+000 -6.808332213296802E+000 -6.723757752547901E+000 
-6.640233892615763E+000 -6.557747582726897E+000 -6.476285934227958E+000 -6.395836218570620E+000 
-6.316385865323135E+000 -6.237922460206107E+000 -6.160433743152736E+000 -6.083907606393870E+000 
-6.008332092564520E+000 -5.933695392836648E+000 -5.859985845074624E+000 -5.787191932011801E+000 
-5.715302279450684E+000 -5.644305654486782E+000 -5.574190963753630E+000 -5.504947251687888E+000 
-5.436563698818674E+000 -5.369029620076957E+000 -5.302334463125304E+000 -5.236467806709940E+000 
-5.171419359031916E+000 -5.107178956139217E+000 -5.043736560338083E+000 -4.981082258624875E+000 
-4.919206261137965E+000 -4.858098899627239E+000 -4.797750625942865E+000 -4.738152010544102E+000 
-4.679293741026549E+000 -4.621166620666191E+000 -4.563761566982185E+000 -4.507069610318170E+000 
-4.451081892440801E+000 -4.395789665155370E+000 -4.341184288939017E+000 -4.287257231591008E+000 
-4.234000066899096E+000 -4.181404473322988E+000 -4.129462232694521E+000 -4.078165228933240E+000 
-4.027505446778032E+000 -3.977474970535328E+000 -3.928065982841639E+000 -3.879270763442194E+000 
-3.831081687985298E+000 -3.783491226830204E+000 -3.736491943870661E+000 -3.690076495373421E+000 
-3.644237628830733E+000 -3.598968181826927E+000 -3.554261080919131E+000 -3.510109340532220E+000 
-3.466506061867416E+000 -3.423444431824006E+000 -3.380917721935339E+000 -3.338919287317211E+000 
-3.297442565628846E+000 -3.256481076048679E+000 -3.216028418261371E+000 -3.176078271457321E+000 
-3.136624393345462E+000 -3.097660619177559E+000 -3.059180860785232E+000 -3.021179105628728E+000 
-2.983649415857095E+000 -2.946585927380606E+000 -2.909982848954493E+000 -2.873834461273953E+000 
-2.838135116080680E+000 -2.802879235280142E+000 -2.768061310069855E+000 -2.733675900079006E+000 
-2.699717632518219E+000 -2.666181201339855E+000 -2.633061366409173E+000 -2.600352952685324E+000 
-2.568050849412959E+000 -2.536150009323727E+000 -2.504645447847245E+000 -2.473532242332505E+000 
-2.442805531278754E+000 -2.412460513575703E+000 -2.382492447753469E+000 -2.352896651241689E+000 
-2.323668499637783E+000 -2.294803425984389E+000 -2.266296920055785E+000 -2.238144527653265E+000 
-2.210341849908995E+000 -2.182884542598651E+000 -2.155768315462813E+000 -2.128988931536428E+000 
-2.102542206486870E+000 -2.076424007960091E+000 -2.050630254934755E+000 -2.025156917084840E+000 
-2.000000014149770E+000 -1.975155615312451E+000 -1.950619838585055E+000 -1.926388850202430E+000 
-1.902458864023213E+000 -1.878826140937996E+000 -1.855486988285159E+000 -1.832437759274001E+000 
-1.809674852414728E+000 -1.787194710955756E+000 -1.764993822327976E+000 -1.743068717595885E+000 
-1.721415970915543E+000 -1.700032198999279E+000 -1.678914060586958E+000 -1.658058255924000E+000 
-1.637461526245784E+000 -1.617120653268312E+000 -1.597032458685423E+000 -1.577193803672255E+000 
-1.557601588394768E+000 -1.538252751525272E+000 -1.519144269764211E+000 -1.500273157367836E+000 
-1.481636465681594E+000 -1.463231282679526E+000 -1.445054732509222E+000 -1.427103975042541E+000 
-1.409376205431982E+000 -1.391868653672423E+000 -1.374578584168354E+000 -1.357503295306636E+000 
-1.340640119034429E+000 -1.323986420442361E+000 -1.307539597353079E+000 -1.291297079914684E+000 
-1.275256330199329E+000 -1.259414841806812E+000 -1.243770139473051E+000 -1.228319778683461E+000 
-1.213061345291027E+000 -1.197992455139150E+000 -1.183110753689090E+000 -1.168413915652068E+000 
-1.153899644625869E+000 -1.139565672735746E+000 -1.125409760279822E+000 -1.111429695378864E+000 
-1.097623293630210E+000 -1.083988397765963E+000 -1.070522877315408E+000 -1.057224628271447E+000 
-1.044091572761210E+000 -1.031121658720882E+000 -1.018312859574439E+000 -1.005663173916519E+000 
-9.931706251994638E-001 -9.808332614244488E-001 -9.686491548367595E-001 -9.566164016219572E-001 
-9.447331216178282E-001 -9.329974580194307E-001 -9.214075770760304E-001 -9.099616678211450E-001 
-8.986579417938743E-001 -8.874946327530558E-001 -8.764699964065705E-001 -8.655823101404607E-001 
-8.548298727510537E-001 -8.442110041797516E-001 -8.337240452502455E-001 -8.233673574079696E-001 
-8.131393224617193E-001 -8.030383423273967E-001 -7.930628387739511E-001 -7.832112531717351E-001 
-7.734820462436018E-001 -7.638736978191254E-001 -7.543847065923641E-001 -7.450135898836867E-001 
-7.357588834060722E-001 -7.266191410361976E-001 -7.175929345905401E-001 -7.086788536064554E-001 
-6.998755051280701E-001 -6.911815134965253E-001 -6.825955201439227E-001 -6.741161833902665E-001 
-6.657421782424734E-001 -6.574721961945946E-001 -6.493049450284961E-001 -6.412391486143720E-001 
-6.332735467107440E-001 -6.254068947638440E-001 -6.176379637066540E-001 -6.099655397581135E-001 
-6.023884242232093E-001 -5.949054332948781E-001 -5.875153978586711E-001 -5.802171633010803E-001 
-5.730095893222840E-001 -5.658915497538106E-001 -5.588619323814068E-001 -5.519196387730786E-001 
-5.450635841119048E-001 -5.382926970331501E-001 -5.316059194649323E-001 -5.250022064715933E-001 
-5.184805260990331E-001 -5.120398592212648E-001 -5.056791993875359E-001 -4.993975526696682E-001 
-4.931939375094004E-001 -4.870673845656466E-001 -4.810169365618386E-001 -4.750416481336409E-001 
-4.691405856773703E-001 -4.633128271995187E-001 -4.575574621677976E-001 -4.518735913640735E-001 
-4.462603267394674E-001 -4.407167912718559E-001 -4.352421188259338E-001 -4.298354540158483E-001 
-4.244959520704141E-001 -4.192227787008085E-001 -4.140151099706082E-001 -4.088721321680334E-001 
-4.037930416801913E-001 -3.987770448691687E-001 -3.938233579498099E-001 -3.889312068690309E-001 
-3.840998271865593E-001 -3.793284639570027E-001 -3.746163716131903E-001 -3.699628138507364E-001 
-3.653670635137983E-001 -3.608284024820376E-001 -3.563461215587664E-001 -3.519195203603054E-001 
-3.475479072065627E-001 -3.432305990128429E-001 -3.389669211829097E-001 -3.347562075033050E-001 
-3.305978000389417E-001 -3.264910490299668E-001 -3.224353127898965E-001 -3.184299576050267E-001 
-3.144743576351006E-001 -3.105678948152362E-001 -3.067099587590962E-001 -3.028999466632829E-001 
-2.991372632129548E-001 -2.954213204886355E-001 -2.917515378742100E-001 -2.881273419660878E-001 
-2.845481664835106E-001 -2.810134521799998E-001 -2.775226467559150E-001 -2.740752047721166E-001 
-2.706705875647133E-001 -2.673082631608755E-001 -2.639877061957087E-001 -2.607083978301610E-001 
-2.574698256699599E-001 -2.542714836855610E-001 -2.511128721330908E-001 -2.479934974762792E-001 
-2.449128723093596E-001 -2.418705152809307E-001 -2.388659510187656E-001 -2.358987100555516E-001 
-2.329683287555579E-001 -2.300743492422089E-001 -2.272163193265606E-001 -2.243937924366647E-001 
-2.216063275478057E-001 -2.188534891136106E-001 -2.161348469980060E-001 -2.134499764080250E-001 
-2.107984578274473E-001 -2.081798769512589E-001 -2.055938246209309E-001 -2.030398967604953E-001 
-2.005176943134186E-001 -1.980268231802579E-001 -1.955668941570868E-001 -1.931375228746913E-001 
-1.907383297385148E-001 -1.883689398693508E-001 -1.860289830447777E-001 -1.837180936412591E-001 
-1.814359105793572E-001 -1.791820772578978E-001 -1.769562416175164E-001 -1.747580556507450E-001 
-1.725871759997981E-001 -1.704432634594318E-001 -1.683259830384758E-001 -1.662350039878499E-001 
-1.641699994167538E-001 -1.621306467520056E-001 -1.601166273399271E-001 -1.581276264848600E-001 
-1.561633334024658E-001 -1.542234411616830E-001 -1.523076424856662E-001 -1.504156467133907E-001 
-1.485471536802592E-001 -1.467018732649629E-001 -1.448795133272652E-001 -1.430797911083570E-001 
-1.413024253979080E-001 -1.395471384789094E-001 -1.378136560842094E-001 -1.361017073536567E-001 
-1.344110247917789E-001 -1.327413442259865E-001 -1.310924047652937E-001 -1.294639487595554E-001 
-1.278557217592073E-001 -1.262674724755084E-001 -1.246989527412773E-001 -1.231499174721139E-001 
-1.216201246281063E-001 -1.201093351760100E-001 -1.186173130518991E-001 -1.171438251242817E-001 
-1.156886411576709E-001 -1.142515337766116E-001 -1.128322784301515E-001 -1.114306533567550E-001 
-1.100464395496533E-001 -1.086794207226223E-001 -1.073293832761895E-001 -1.059961162642570E-001 
-1.046794113611415E-001 -1.033790628290234E-001 -1.020948674857985E-001 -1.008266246733322E-001 
-9.957413622610457E-002 -9.833720644024757E-002 -9.711564204296835E-002 -9.590925216234353E-002 
-9.471784829749949E-002 -9.354124428915769E-002 -9.237925629054711E-002 -9.123170273867914E-002 
-9.009840432597628E-002 -8.897918397225611E-002 -8.787386679706118E-002 -8.678228009233392E-002 
-8.570425329543116E-002 -8.463961796247230E-002 -8.358820774202085E-002 -8.254985834909065E-002 
-8.152440753947635E-002 -8.051169508440291E-002 -7.951156274548857E-002 -7.852385425002088E-002 
-7.754841526653783E-002 -7.658509338071347E-002 -7.563373807154361E-002 -7.469420068782531E-002 
-7.376633442493112E-002 -7.284999430186961E-002 -7.194503713863211E-002 -7.105132153382097E-002 
-7.016870784255440E-002 -6.929705815464771E-002 -6.843623627306360E-002 -6.758610769263167E-002 
-6.674653957903182E-002 -6.591740074803801E-002 -6.509856164502113E-002 -6.428989432470539E-002 
-6.349127243117654E-002 -6.270257117813917E-002 -6.192366732941767E-002 -6.115443917970116E-002 
-6.039476653552617E-002 -5.964453069649634E-002 -5.890361443673570E-002 -5.817190198657102E-002 
-5.744927901444350E-002 -5.673563260904346E-002 -5.603085126166802E-002 -5.533482484879795E-002 
-5.464744461489002E-002 -5.396860315538431E-002 -5.329819439992164E-002 -5.263611359576986E-002 
-5.198225729145652E-002 -5.133652332060361E-002 -5.069881078596459E-002 -5.006902004365842E-002 
-4.944705268760018E-002 -4.883281153412530E-002 -4.822620060680365E-002 -4.762712512144388E-002 
-4.703549147128246E-002 -4.645120721235780E-002 -4.587418104906588E-002 -4.530432281989452E-002 
-4.474154348333623E-002 -4.418575510397459E-002 -4.363687083874446E-002 -4.309480492336289E-002 
-4.255947265892757E-002 -4.203079039868321E-002 -4.150867553495094E-002 -4.099304648622099E-002 
-4.048382268440560E-002 -3.998092456224953E-002 -3.948427354089822E-002 -3.899379201761905E-002 
-3.850940335367606E-002 -3.803103186235512E-002 -3.755860279713735E-002 -3.709204234002026E-002 
-3.663127758998317E-002 -3.617623655159635E-002 -3.572684812377190E-002 -3.528304208865358E-002 
-3.484474910064558E-002 -3.441190067557674E-002 -3.398442917999994E-002 -3.356226782062445E-002 
-3.314535063387884E-002 -3.273361247560456E-002 -3.232698901087666E-002 -3.192541670395142E-002 
-3.152883280833899E-002 -3.113717535699871E-002 -3.075038315265709E-002 -3.036839575824522E-002 
-2.999115348745550E-002 -2.961859739541572E-002 -2.925066926947844E-002 -2.888731162012550E-002 
-2.852846767198490E-002 -2.817408135495963E-002 -2.782409729546672E-002 -2.747846080778475E-002 
-2.713711788550941E-002 -2.680001519311458E-002 -2.646710005761867E-002 -2.613832046035455E-002 
-2.581362502884113E-002 -2.549296302875675E-002 -2.517628435601145E-002 -2.486353952891827E-002 
-2.455467968046180E-002 -2.424965655066224E-002 -2.394842247903508E-002 -2.365093039714370E-002 
-2.335713382124504E-002 -2.306698684502644E-002 -2.278044413243249E-002 -2.249746091058143E-002 
-2.221799296276910E-002 -2.194199662156002E-002 -2.166942876196444E-002 -2.140024679469968E-002 
-2.113440865953575E-002 -2.087187281872318E-002 -2.061259825050264E-002 -2.035654444269544E-002 
-2.010367138637308E-002
    </PP_AE_VLOC>
  </PP_PAW>
  <PP_GIPAW gipaw_data_format="2">
    <PP_GIPAW_CORE_ORBITALS number_of_core_orbitals="0">
    </PP_GIPAW_CORE_ORBITALS>
  </PP_GIPAW>
</UPF>
