<UPF version="2.0.1">
  <PP_INFO>

 This pseudopotential file has been produced using the code
 ONCVPSP  (Optimized Norm-Conservinng Vanderbilt PSeudopotential)
 scalar-relativistic version 4.0.1 06/20/2107 by D. R. Hamann
 The code is available through a link at URL www.mat-simresearch.com.
 Documentation with the package provides a full discription of the
 input data below.


 While it is not required under the terms of the GNU GPL, it is
 suggested that you cite D. R. Hamann, Phys. Rev. B 88, 085117 (2013)
 in any publication using these pseudopotentials.

    <PP_INPUTFILE>
# ATOM AND REFERENCE CONFIGURATION
# atsym  z   nc   nv     iexc    psfile
  Mg 12.00    1    3 -116133      upf
#
#   n    l    f        energy (Ha)
    1    0    2.00
    2    0    2.00
    2    1    6.00
    3    0    2.00
#
# PSEUDOPOTENTIAL AND OPTIMIZATION
# lmax
    1
#
#   l,   rc,      ep,       ncon, nbas, qcut
    0   1.86461  -2.93427    4    7   8.40799
    1   1.99877  -1.71303    4    7   7.40411
#
# LOCAL POTENTIAL
# lloc, lpopt,  rc(5),   dvloc0
    4    5   0.68991      0.00000
#
# VANDERBILT-KLEINMAN-BYLANDER PROJECTORs
# l, nproj, debl
    0    2   2.76134
    1    2   3.00000
#
# MODEL CORE CHARGE
# icmod, fcfact, rcfact
    0   0.00000   0.00000
#
# LOG DERIVATIVE ANALYSIS
# epsh1, epsh2, depsh
  -12.00   12.00    0.02
#
# OUTPUT GRID
# rlmax, drl
    4.00    0.01
#
# TEST CONFIGURATIONS
# ncnf
    0
# nvcnf
#   n    l    f
    </PP_INPUTFILE>
  </PP_INFO>
  <!--                               -->
  <!-- END OF HUMAN READABLE SECTION -->
  <!--                               -->
    <PP_HEADER
       generated="Generated using ONCVPSP code by D. R. Hamann"
       author="anonymous"
       date="260127"
       comment=""
       element="Mg"
       pseudo_type="NC"
       relativistic="scalar"
       is_ultrasoft="F"
       is_paw="F"
       is_coulomb="F"
       has_so="F"
       has_wfc="F"
       has_gipaw="T"
       core_correction="F"
       functional="PBESOL"
       z_valence="   10.00"
       total_psenergy="  -1.11817544060E+02"
       rho_cutoff="   1.52822326770E+01"
       l_max="1"
       l_local="-1"
       mesh_size="  1026"
       number_of_wfc="3"
       number_of_proj="4"/>
 <PP_MESH dx="  1.25000000000000E-02" xmin=" -1.00858091093301E+01" mesh="1026">
   <PP_R type="real"  size="1026" columns="4">
    4.1666666667E-05    4.2190768814E-05    4.2721463355E-05    4.3258833212E-05
    4.3802962349E-05    4.4353935788E-05    4.4911839620E-05    4.5476761018E-05
    4.6048788253E-05    4.6628010705E-05    4.7214518878E-05    4.7808404416E-05
    4.8409760114E-05    4.9018679935E-05    4.9635259026E-05    5.0259593726E-05
    5.0891781590E-05    5.1531921399E-05    5.2180113175E-05    5.2836458200E-05
    5.3501059029E-05    5.4174019507E-05    5.4855444786E-05    5.5545441340E-05
    5.6244116982E-05    5.6951580882E-05    5.7667943583E-05    5.8393317016E-05
    5.9127814525E-05    5.9871550874E-05    6.0624642276E-05    6.1387206401E-05
    6.2159362402E-05    6.2941230929E-05    6.3732934153E-05    6.4534595776E-05
    6.5346341062E-05    6.6168296846E-05    6.7000591562E-05    6.7843355256E-05
    6.8696719613E-05    6.9560817971E-05    7.0435785349E-05    7.1321758462E-05
    7.2218875744E-05    7.3127277373E-05    7.4047105288E-05    7.4978503214E-05
    7.5921616683E-05    7.6876593059E-05    7.7843581560E-05    7.8822733278E-05
    7.9814201209E-05    8.0818140271E-05    8.1834707332E-05    8.2864061233E-05
    8.3906362811E-05    8.4961774930E-05    8.6030462499E-05    8.7112592502E-05
    8.8208334026E-05    8.9317858281E-05    9.0441338633E-05    9.1578950628E-05
    9.2730872021E-05    9.3897282801E-05    9.5078365222E-05    9.6274303832E-05
    9.7485285497E-05    9.8711499436E-05    9.9953137249E-05    1.0121039294E-04
    1.0248346296E-04    1.0377254624E-04    1.0507784418E-04    1.0639956075E-04
    1.0773790247E-04    1.0909307846E-04    1.1046530046E-04    1.1185478289E-04
    1.1326174285E-04    1.1468640020E-04    1.1612897752E-04    1.1758970024E-04
    1.1906879659E-04    1.2056649767E-04    1.2208303752E-04    1.2361865309E-04
    1.2517358433E-04    1.2674807420E-04    1.2834236870E-04    1.2995671697E-04
    1.3159137124E-04    1.3324658692E-04    1.3492262266E-04    1.3661974033E-04
    1.3833820511E-04    1.4007828552E-04    1.4184025345E-04    1.4362438420E-04
    1.4543095656E-04    1.4726025280E-04    1.4911255875E-04    1.5098816385E-04
    1.5288736115E-04    1.5481044741E-04    1.5675772312E-04    1.5872949255E-04
    1.6072606378E-04    1.6274774878E-04    1.6479486346E-04    1.6686772766E-04
    1.6896666529E-04    1.7109200430E-04    1.7324407678E-04    1.7542321901E-04
    1.7762977147E-04    1.7986407894E-04    1.8212649054E-04    1.8441735977E-04
    1.8673704460E-04    1.8908590746E-04    1.9146431539E-04    1.9387264000E-04
    1.9631125761E-04    1.9878054925E-04    2.0128090075E-04    2.0381270281E-04
    2.0637635102E-04    2.0897224595E-04    2.1160079322E-04    2.1426240354E-04
    2.1695749280E-04    2.1968648211E-04    2.2244979788E-04    2.2524787188E-04
    2.2808114132E-04    2.3095004891E-04    2.3385504290E-04    2.3679657723E-04
    2.3977511150E-04    2.4279111112E-04    2.4584504735E-04    2.4893739736E-04
    2.5206864435E-04    2.5523927758E-04    2.5844979246E-04    2.6170069065E-04
    2.6499248011E-04    2.6832567518E-04    2.7170079668E-04    2.7511837199E-04
    2.7857893509E-04    2.8208302673E-04    2.8563119441E-04    2.8922399255E-04
    2.9286198252E-04    2.9654573278E-04    3.0027581891E-04    3.0405282375E-04
    3.0787733746E-04    3.1174995763E-04    3.1567128936E-04    3.1964194538E-04
    3.2366254610E-04    3.2773371975E-04    3.3185610246E-04    3.3603033836E-04
    3.4025707969E-04    3.4453698688E-04    3.4887072867E-04    3.5325898223E-04
    3.5770243322E-04    3.6220177594E-04    3.6675771342E-04    3.7137095755E-04
    3.7604222914E-04    3.8077225810E-04    3.8556178350E-04    3.9041155371E-04
    3.9532232651E-04    4.0029486924E-04    4.0532995886E-04    4.1042838210E-04
    4.1559093562E-04    4.2081842606E-04    4.2611167024E-04    4.3147149524E-04
    4.3689873853E-04    4.4239424814E-04    4.4795888275E-04    4.5359351185E-04
    4.5929901586E-04    4.6507628627E-04    4.7092622580E-04    4.7684974851E-04
    4.8284777997E-04    4.8892125737E-04    4.9507112971E-04    5.0129835793E-04
    5.0760391503E-04    5.1398878628E-04    5.2045396932E-04    5.2700047435E-04
    5.3362932428E-04    5.4034155487E-04    5.4713821494E-04    5.5402036646E-04
    5.6098908479E-04    5.6804545881E-04    5.7519059109E-04    5.8242559806E-04
    5.8975161022E-04    5.9716977227E-04    6.0468124332E-04    6.1228719703E-04
    6.1998882187E-04    6.2778732122E-04    6.3568391362E-04    6.4367983292E-04
    6.5177632851E-04    6.5997466547E-04    6.6827612482E-04    6.7668200367E-04
    6.8519361546E-04    6.9381229015E-04    7.0253937442E-04    7.1137623190E-04
    7.2032424336E-04    7.2938480695E-04    7.3855933839E-04    7.4784927124E-04
    7.5725605706E-04    7.6678116568E-04    7.7642608541E-04    7.8619232330E-04
    7.9608140534E-04    8.0609487672E-04    8.1623430207E-04    8.2650126568E-04
    8.3689737180E-04    8.4742424484E-04    8.5808352963E-04    8.6887689173E-04
    8.7980601761E-04    8.9087261496E-04    9.0207841298E-04    9.1342516258E-04
    9.2491463673E-04    9.3654863066E-04    9.4832896223E-04    9.6025747213E-04
    9.7233602421E-04    9.8456650577E-04    9.9695082785E-04    1.0094909255E-03
    1.0221887582E-03    1.0350463100E-03    1.0480655898E-03    1.0612486321E-03
    1.0745974965E-03    1.0881142691E-03    1.1018010617E-03    1.1156600130E-03
    1.1296932884E-03    1.1439030806E-03    1.1582916101E-03    1.1728611250E-03
    1.1876139018E-03    1.2025522457E-03    1.2176784909E-03    1.2329950008E-03
    1.2485041686E-03    1.2642084178E-03    1.2801102021E-03    1.2962120063E-03
    1.3125163462E-03    1.3290257695E-03    1.3457428557E-03    1.3626702170E-03
    1.3798104983E-03    1.3971663778E-03    1.4147405673E-03    1.4325358130E-03
    1.4505548953E-03    1.4688006298E-03    1.4872758673E-03    1.5059834947E-03
    1.5249264352E-03    1.5441076484E-03    1.5635301317E-03    1.5831969196E-03
    1.6031110854E-03    1.6232757405E-03    1.6436940357E-03    1.6643691615E-03
    1.6853043483E-03    1.7065028674E-03    1.7279680310E-03    1.7497031932E-03
    1.7717117500E-03    1.7939971404E-03    1.8165628465E-03    1.8394123942E-03
    1.8625493539E-03    1.8859773407E-03    1.9097000153E-03    1.9337210844E-03
    1.9580443013E-03    1.9826734667E-03    2.0076124288E-03    2.0328650844E-03
    2.0584353794E-03    2.0843273091E-03    2.1105449191E-03    2.1370923061E-03
    2.1639736181E-03    2.1911930554E-03    2.2187548711E-03    2.2466633717E-03
    2.2749229180E-03    2.3035379257E-03    2.3325128659E-03    2.3618522660E-03
    2.3915607102E-03    2.4216428407E-03    2.4521033578E-03    2.4829470211E-03
    2.5141786499E-03    2.5458031242E-03    2.5778253854E-03    2.6102504371E-03
    2.6430833458E-03    2.6763292415E-03    2.7099933192E-03    2.7440808389E-03
    2.7785971267E-03    2.8135475760E-03    2.8489376479E-03    2.8847728720E-03
    2.9210588478E-03    2.9578012449E-03    2.9950058046E-03    3.0326783399E-03
    3.0708247375E-03    3.1094509576E-03    3.1485630358E-03    3.1881670834E-03
    3.2282692886E-03    3.2688759174E-03    3.3099933147E-03    3.3516279052E-03
    3.3937861944E-03    3.4364747696E-03    3.4797003009E-03    3.5234695425E-03
    3.5677893334E-03    3.6126665987E-03    3.6581083504E-03    3.7041216890E-03
    3.7507138042E-03    3.7978919760E-03    3.8456635762E-03    3.8940360691E-03
    3.9430170131E-03    3.9926140615E-03    4.0428349640E-03    4.0936875677E-03
    4.1451798184E-03    4.1973197619E-03    4.2501155451E-03    4.3035754175E-03
    4.3577077324E-03    4.4125209479E-03    4.4680236288E-03    4.5242244475E-03
    4.5811321855E-03    4.6387557347E-03    4.6971040989E-03    4.7561863952E-03
    4.8160118553E-03    4.8765898270E-03    4.9379297759E-03    5.0000412863E-03
    5.0629340633E-03    5.1266179340E-03    5.1911028493E-03    5.2563988849E-03
    5.3225162436E-03    5.3894652562E-03    5.4572563838E-03    5.5259002188E-03
    5.5954074869E-03    5.6657890488E-03    5.7370559018E-03    5.8092191814E-03
    5.8822901634E-03    5.9562802652E-03    6.0312010478E-03    6.1070642180E-03
    6.1838816293E-03    6.2616652847E-03    6.3404273380E-03    6.4201800960E-03
    6.5009360203E-03    6.5827077290E-03    6.6655079991E-03    6.7493497685E-03
    6.8342461375E-03    6.9202103714E-03    7.0072559022E-03    7.0953963310E-03
    7.1846454299E-03    7.2750171442E-03    7.3665255949E-03    7.4591850801E-03
    7.5530100781E-03    7.6480152494E-03    7.7442154386E-03    7.8416256772E-03
    7.9402611858E-03    8.0401373763E-03    8.1412698547E-03    8.2436744230E-03
    8.3473670823E-03    8.4523640346E-03    8.5586816860E-03    8.6663366489E-03
    8.7753457444E-03    8.8857260056E-03    8.9974946796E-03    9.1106692304E-03
    9.2252673418E-03    9.3413069200E-03    9.4588060965E-03    9.5777832306E-03
    9.6982569128E-03    9.8202459674E-03    9.9437694554E-03    1.0068846678E-02
    1.0195497178E-02    1.0323740745E-02    1.0453597418E-02    1.0585087486E-02
    1.0718231496E-02    1.0853050252E-02    1.0989564818E-02    1.1127796527E-02
    1.1267766976E-02    1.1409498037E-02    1.1553011855E-02    1.1698330855E-02
    1.1845477743E-02    1.1994475510E-02    1.2145347439E-02    1.2298117104E-02
    1.2452808374E-02    1.2609445420E-02    1.2768052718E-02    1.2928655051E-02
    1.3091277512E-02    1.3255945512E-02    1.3422684780E-02    1.3591521370E-02
    1.3762481663E-02    1.3935592372E-02    1.4110880545E-02    1.4288373572E-02
    1.4468099187E-02    1.4650085471E-02    1.4834360861E-02    1.5020954151E-02
    1.5209894494E-02    1.5401211415E-02    1.5594934807E-02    1.5791094938E-02
    1.5989722461E-02    1.6190848410E-02    1.6394504212E-02    1.6600721689E-02
    1.6809533062E-02    1.7020970959E-02    1.7235068418E-02    1.7451858891E-02
    1.7671376252E-02    1.7893654802E-02    1.8118729272E-02    1.8346634830E-02
    1.8577407087E-02    1.8811082102E-02    1.9047696386E-02    1.9287286912E-02
    1.9529891116E-02    1.9775546905E-02    2.0024292663E-02    2.0276167258E-02
    2.0531210046E-02    2.0789460876E-02    2.1050960102E-02    2.1315748584E-02
    2.1583867695E-02    2.1855359328E-02    2.2130265907E-02    2.2408630384E-02
    2.2690496255E-02    2.2975907563E-02    2.3264908903E-02    2.3557545432E-02
    2.3853862876E-02    2.4153907534E-02    2.4457726289E-02    2.4765366614E-02
    2.5076876578E-02    2.5392304855E-02    2.5711700731E-02    2.6035114113E-02
    2.6362595534E-02    2.6694196164E-02    2.7029967817E-02    2.7369962957E-02
    2.7714234710E-02    2.8062836868E-02    2.8415823902E-02    2.8773250966E-02
    2.9135173909E-02    2.9501649282E-02    2.9872734348E-02    3.0248487089E-02
    3.0628966218E-02    3.1014231186E-02    3.1404342190E-02    3.1799360186E-02
    3.2199346897E-02    3.2604364822E-02    3.3014477245E-02    3.3429748247E-02
    3.3850242715E-02    3.4276026353E-02    3.4707165689E-02    3.5143728091E-02
    3.5585781772E-02    3.6033395803E-02    3.6486640126E-02    3.6945585561E-02
    3.7410303819E-02    3.7880867512E-02    3.8357350169E-02    3.8839826239E-02
    3.9328371111E-02    3.9823061122E-02    4.0323973566E-02    4.0831186713E-02
    4.1344779817E-02    4.1864833126E-02    4.2391427901E-02    4.2924646423E-02
    4.3464572008E-02    4.4011289020E-02    4.4564882886E-02    4.5125440106E-02
    4.5693048268E-02    4.6267796061E-02    4.6849773292E-02    4.7439070895E-02
    4.8035780949E-02    4.8639996692E-02    4.9251812534E-02    4.9871324071E-02
    5.0498628104E-02    5.1133822650E-02    5.1777006961E-02    5.2428281534E-02
    5.3087748132E-02    5.3755509800E-02    5.4431670875E-02    5.5116337009E-02
    5.5809615183E-02    5.6511613723E-02    5.7222442318E-02    5.7942212036E-02
    5.8671035342E-02    5.9409026117E-02    6.0156299673E-02    6.0912972773E-02
    6.1679163649E-02    6.2454992020E-02    6.3240579111E-02    6.4036047671E-02
    6.4841521993E-02    6.5657127935E-02    6.6482992937E-02    6.7319246042E-02
    6.8166017916E-02    6.9023440870E-02    6.9891648876E-02    7.0770777594E-02
    7.1660964391E-02    7.2562348359E-02    7.3475070341E-02    7.4399272953E-02
    7.5335100602E-02    7.6282699515E-02    7.7242217754E-02    7.8213805247E-02
    7.9197613806E-02    8.0193797153E-02    8.1202510945E-02    8.2223912793E-02
    8.3258162296E-02    8.4305421056E-02    8.5365852709E-02    8.6439622951E-02
    8.7526899559E-02    8.8627852424E-02    8.9742653571E-02    9.0871477190E-02
    9.2014499662E-02    9.3171899587E-02    9.4343857811E-02    9.5530557455E-02
    9.6732183942E-02    9.7948925030E-02    9.9180970837E-02    1.0042851387E-01
    1.0169174907E-01    1.0297087381E-01    1.0426608795E-01    1.0557759389E-01
    1.0690559653E-01    1.0825030340E-01    1.0961192460E-01    1.1099067288E-01
    1.1238676368E-01    1.1380041514E-01    1.1523184815E-01    1.1668128636E-01
    1.1814895627E-01    1.1963508719E-01    1.2113991134E-01    1.2266366384E-01
    1.2420658279E-01    1.2576890928E-01    1.2735088741E-01    1.2895276437E-01
    1.3057479047E-01    1.3221721914E-01    1.3388030703E-01    1.3556431398E-01
    1.3726950314E-01    1.3899614093E-01    1.4074449715E-01    1.4251484499E-01
    1.4430746106E-01    1.4612262547E-01    1.4796062183E-01    1.4982173734E-01
    1.5170626281E-01    1.5361449268E-01    1.5554672513E-01    1.5750326208E-01
    1.5948440923E-01    1.6149047614E-01    1.6352177627E-01    1.6557862701E-01
    1.6766134974E-01    1.6977026991E-01    1.7190571702E-01    1.7406802475E-01
    1.7625753096E-01    1.7847457778E-01    1.8071951160E-01    1.8299268322E-01
    1.8529444782E-01    1.8762516505E-01    1.8998519910E-01    1.9237491872E-01
    1.9479469731E-01    1.9724491297E-01    1.9972594855E-01    2.0223819172E-01
    2.0478203501E-01    2.0735787592E-01    2.0996611691E-01    2.1260716554E-01
    2.1528143447E-01    2.1798934156E-01    2.2073130993E-01    2.2350776801E-01
    2.2631914964E-01    2.2916589410E-01    2.3204844619E-01    2.3496725633E-01
    2.3792278057E-01    2.4091548074E-01    2.4394582444E-01    2.4701428517E-01
    2.5012134239E-01    2.5326748157E-01    2.5645319431E-01    2.5967897839E-01
    2.6294533784E-01    2.6625278303E-01    2.6960183076E-01    2.7299300432E-01
    2.7642683359E-01    2.7990385513E-01    2.8342461220E-01    2.8698965495E-01
    2.9059954042E-01    2.9425483266E-01    2.9795610281E-01    3.0170392921E-01
    3.0549889746E-01    3.0934160054E-01    3.1323263887E-01    3.1717262044E-01
    3.2116216088E-01    3.2520188356E-01    3.2929241969E-01    3.3343440843E-01
    3.3762849698E-01    3.4187534067E-01    3.4617560308E-01    3.5052995612E-01
    3.5493908019E-01    3.5940366421E-01    3.6392440578E-01    3.6850201129E-01
    3.7313719598E-01    3.7783068412E-01    3.8258320907E-01    3.8739551342E-01
    3.9226834911E-01    3.9720247754E-01    4.0219866965E-01    4.0725770613E-01
    4.1238037745E-01    4.1756748404E-01    4.2281983640E-01    4.2813825523E-01
    4.3352357152E-01    4.3897662676E-01    4.4449827299E-01    4.5008937297E-01
    4.5575080034E-01    4.6148343970E-01    4.6728818678E-01    4.7316594859E-01
    4.7911764355E-01    4.8514420161E-01    4.9124656444E-01    4.9742568555E-01
    5.0368253043E-01    5.1001807673E-01    5.1643331439E-01    5.2292924581E-01
    5.2950688599E-01    5.3616726269E-01    5.4291141662E-01    5.4974040157E-01
    5.5665528457E-01    5.6365714609E-01    5.7074708019E-01    5.7792619468E-01
    5.8519561131E-01    5.9255646595E-01    6.0000990874E-01    6.0755710430E-01
    6.1519923190E-01    6.2293748563E-01    6.3077307460E-01    6.3870722315E-01
    6.4674117101E-01    6.5487617349E-01    6.6311350170E-01    6.7145444275E-01
    6.7990029992E-01    6.8845239289E-01    6.9711205795E-01    7.0588064819E-01
    7.1475953372E-01    7.2375010188E-01    7.3285375746E-01    7.4207192294E-01
    7.5140603866E-01    7.6085756310E-01    7.7042797309E-01    7.8011876402E-01
    7.8993145009E-01    7.9986756455E-01    8.0992865995E-01    8.2011630835E-01
    8.3043210159E-01    8.4087765154E-01    8.5145459033E-01    8.6216457064E-01
    8.7300926591E-01    8.8399037065E-01    8.9510960069E-01    9.0636869343E-01
    9.1776940812E-01    9.2931352614E-01    9.4100285130E-01    9.5283921006E-01
    9.6482445189E-01    9.7696044950E-01    9.8924909918E-01    1.0016923210E+00
    1.0142920594E+00    1.0270502829E+00    1.0399689851E+00    1.0530501846E+00
    1.0662959253E+00    1.0797082769E+00    1.0932893351E+00    1.1070412221E+00
    1.1209660864E+00    1.1350661040E+00    1.1493434780E+00    1.1638004393E+00
    1.1784392467E+00    1.1932621876E+00    1.2082715782E+00    1.2234697637E+00
    1.2388591189E+00    1.2544420483E+00    1.2702209868E+00    1.2861983999E+00
    1.3023767842E+00    1.3187586674E+00    1.3353466094E+00    1.3521432020E+00
    1.3691510698E+00    1.3863728702E+00    1.4038112941E+00    1.4214690665E+00
    1.4393489462E+00    1.4574537272E+00    1.4757862383E+00    1.4943493440E+00
    1.5131459448E+00    1.5321789777E+00    1.5514514167E+00    1.5709662732E+00
    1.5907265963E+00    1.6107354737E+00    1.6309960318E+00    1.6515114364E+00
    1.6722848930E+00    1.6933196474E+00    1.7146189866E+00    1.7361862384E+00
    1.7580247729E+00    1.7801380023E+00    1.8025293819E+00    1.8252024104E+00
    1.8481606304E+00    1.8714076294E+00    1.8949470395E+00    1.9187825390E+00
    1.9429178522E+00    1.9673567503E+00    1.9921030518E+00    2.0171606235E+00
    2.0425333807E+00    2.0682252878E+00    2.0942403594E+00    2.1205826603E+00
    2.1472563065E+00    2.1742654659E+00    2.2016143587E+00    2.2293072582E+00
    2.2573484915E+00    2.2857424401E+00    2.3144935407E+00    2.3436062855E+00
    2.3730852236E+00    2.4029349611E+00    2.4331601620E+00    2.4637655492E+00
    2.4947559048E+00    2.5261360711E+00    2.5579109512E+00    2.5900855102E+00
    2.6226647752E+00    2.6556538370E+00    2.6890578501E+00    2.7228820340E+00
    2.7571316737E+00    2.7918121208E+00    2.8269287943E+00    2.8624871812E+00
    2.8984928374E+00    2.9349513891E+00    2.9718685330E+00    3.0092500373E+00
    3.0471017431E+00    3.0854295647E+00    3.1242394909E+00    3.1635375860E+00
    3.2033299902E+00    3.2436229212E+00    3.2844226750E+00    3.3257356264E+00
    3.3675682308E+00    3.4099270246E+00    3.4528186265E+00    3.4962497383E+00
    3.5402271462E+00    3.5847577218E+00    3.6298484231E+00    3.6755062955E+00
    3.7217384734E+00    3.7685521804E+00    3.8159547314E+00    3.8639535331E+00
    3.9125560853E+00    3.9617699824E+00    4.0116029142E+00    4.0620626670E+00
    4.1131571254E+00    4.1648942730E+00    4.2172821938E+00    4.2703290735E+00
    4.3240432008E+00    4.3784329687E+00    4.4335068756E+00    4.4892735270E+00
    4.5457416365E+00    4.6029200274E+00    4.6608176339E+00    4.7194435027E+00
    4.7788067941E+00    4.8389167837E+00    4.8997828640E+00    4.9614145453E+00
    5.0238214578E+00    5.0870133525E+00    5.1510001035E+00    5.2157917087E+00
    5.2813982919E+00    5.3478301044E+00    5.4150975262E+00    5.4832110680E+00
    5.5521813727E+00    5.6220192171E+00    5.6927355134E+00    5.7643413111E+00
    5.8368477990E+00    5.9102663062E+00    5.9846083045E+00    6.0598854101E+00
    6.1361093850E+00    6.2132921396E+00    6.2914457337E+00    6.3705823789E+00
    6.4507144407E+00    6.5318544397E+00    6.6140150542E+00    6.6972091221E+00
    6.7814496425E+00    6.8667497782E+00    6.9531228575E+00    7.0405823764E+00
    7.1291420006E+00    7.2188155678E+00    7.3096170896E+00    7.4015607540E+00
    7.4946609272E+00    7.5889321565E+00    7.6843891719E+00    7.7810468887E+00
    7.8789204099E+00    7.9780250285E+00    8.0783762297E+00    8.1799896937E+00
    8.2828812976E+00    8.3870671186E+00    8.4925634360E+00    8.5993867336E+00
    8.7075537029E+00    8.8170812452E+00    8.9279864744E+00    9.0402867196E+00
    9.1539995280E+00    9.2691426675E+00    9.3857341293E+00    9.5037921313E+00
    9.6233351200E+00    9.7443817745E+00    9.8669510084E+00    9.9910619736E+00
    1.0116734062E+01    1.0243986912E+01    1.0372840405E+01    1.0503314675E+01
    1.0635430110E+01    1.0769207352E+01    1.0904667305E+01    1.1041831134E+01
    1.1180720272E+01    1.1321356420E+01    1.1463761553E+01    1.1607957922E+01
    1.1753968058E+01    1.1901814776E+01    1.2051521176E+01    1.2203110651E+01
    1.2356606887E+01    1.2512033868E+01    1.2669415880E+01    1.2828777514E+01
    1.2990143670E+01    1.3153539563E+01    1.3318990723E+01    1.3486523002E+01
    1.3656162578E+01    1.3827935957E+01    1.4001869980E+01    1.4177991823E+01
    1.4356329006E+01    1.4536909394E+01    1.4719761205E+01    1.4904913008E+01
    1.5092393734E+01    1.5282232677E+01
   </PP_R>
   <PP_RAB type="real"  size="1026" columns="4">
    5.2083333333E-07    5.2738461018E-07    5.3401829194E-07    5.4073541515E-07
    5.4753702936E-07    5.5442419735E-07    5.6139799525E-07    5.6845951273E-07
    5.7560985316E-07    5.8285013381E-07    5.9018148597E-07    5.9760505519E-07
    6.0512200142E-07    6.1273349919E-07    6.2044073782E-07    6.2824492157E-07
    6.3614726988E-07    6.4414901748E-07    6.5225141468E-07    6.6045572750E-07
    6.6876323786E-07    6.7717524384E-07    6.8569305983E-07    6.9431801675E-07
    7.0305146228E-07    7.1189476103E-07    7.2084929478E-07    7.2991646270E-07
    7.3909768156E-07    7.4839438593E-07    7.5780802845E-07    7.6734008001E-07
    7.7699203002E-07    7.8676538662E-07    7.9666167691E-07    8.0668244721E-07
    8.1682926328E-07    8.2710371058E-07    8.3750739452E-07    8.4804194070E-07
    8.5870899516E-07    8.6951022464E-07    8.8044731686E-07    8.9152198077E-07
    9.0273594681E-07    9.1409096717E-07    9.2558881610E-07    9.3723129017E-07
    9.4902020854E-07    9.6095741324E-07    9.7304476950E-07    9.8528416598E-07
    9.9767751511E-07    1.0102267534E-06    1.0229338417E-06    1.0358007654E-06
    1.0488295351E-06    1.0620221866E-06    1.0753807812E-06    1.0889074063E-06
    1.1026041753E-06    1.1164732285E-06    1.1305167329E-06    1.1447368828E-06
    1.1591359003E-06    1.1737160350E-06    1.1884795653E-06    1.2034287979E-06
    1.2185660687E-06    1.2338937430E-06    1.2494142156E-06    1.2651299118E-06
    1.2810432871E-06    1.2971568280E-06    1.3134730523E-06    1.3299945094E-06
    1.3467237809E-06    1.3636634807E-06    1.3808162557E-06    1.3981847861E-06
    1.4157717857E-06    1.4335800025E-06    1.4516122190E-06    1.4698712530E-06
    1.4883599573E-06    1.5070812209E-06    1.5260379690E-06    1.5452331637E-06
    1.5646698041E-06    1.5843509274E-06    1.6042796088E-06    1.6244589621E-06
    1.6448921405E-06    1.6655823365E-06    1.6865327832E-06    1.7077467541E-06
    1.7292275639E-06    1.7509785690E-06    1.7730031681E-06    1.7953048026E-06
    1.8178869570E-06    1.8407531600E-06    1.8639069844E-06    1.8873520481E-06
    1.9110920144E-06    1.9351305927E-06    1.9594715391E-06    1.9841186569E-06
    2.0090757972E-06    2.0343468598E-06    2.0599357932E-06    2.0858465957E-06
    2.1120833161E-06    2.1386500537E-06    2.1655509598E-06    2.1927902376E-06
    2.2203721433E-06    2.2483009867E-06    2.2765811317E-06    2.3052169972E-06
    2.3342130575E-06    2.3635738433E-06    2.3933039423E-06    2.4234080000E-06
    2.4538907201E-06    2.4847568656E-06    2.5160112594E-06    2.5476587851E-06
    2.5797043877E-06    2.6121530743E-06    2.6450099152E-06    2.6782800442E-06
    2.7119686600E-06    2.7460810264E-06    2.7806224735E-06    2.8155983985E-06
    2.8510142665E-06    2.8868756113E-06    2.9231880363E-06    2.9599572154E-06
    2.9971888938E-06    3.0348888890E-06    3.0730630918E-06    3.1117174670E-06
    3.1508580544E-06    3.1904909697E-06    3.2306224058E-06    3.2712586332E-06
    3.3124060014E-06    3.3540709397E-06    3.3962599585E-06    3.4389796498E-06
    3.4822366887E-06    3.5260378341E-06    3.5703899302E-06    3.6152999069E-06
    3.6607747816E-06    3.7068216597E-06    3.7534477364E-06    3.8006602968E-06
    3.8484667182E-06    3.8968744703E-06    3.9458911170E-06    3.9955243172E-06
    4.0457818262E-06    4.0966714968E-06    4.1482012807E-06    4.2003792295E-06
    4.2532134961E-06    4.3067123360E-06    4.3608841084E-06    4.4157372778E-06
    4.4712804152E-06    4.5275221992E-06    4.5844714178E-06    4.6421369694E-06
    4.7005278643E-06    4.7596532262E-06    4.8195222937E-06    4.8801444213E-06
    4.9415290814E-06    5.0036858655E-06    5.0666244857E-06    5.1303547763E-06
    5.1948866952E-06    5.2602303258E-06    5.3263958780E-06    5.3933936905E-06
    5.4612342316E-06    5.5299281018E-06    5.5994860344E-06    5.6699188982E-06
    5.7412376983E-06    5.8134535784E-06    5.8865778225E-06    5.9606218564E-06
    6.0355972496E-06    6.1115157171E-06    6.1883891214E-06    6.2662294741E-06
    6.3450489379E-06    6.4248598285E-06    6.5056746165E-06    6.5875059294E-06
    6.6703665535E-06    6.7542694359E-06    6.8392276867E-06    6.9252545807E-06
    7.0123635599E-06    7.1005682351E-06    7.1898823886E-06    7.2803199758E-06
    7.3718951278E-06    7.4646221534E-06    7.5585155415E-06    7.6535899629E-06
    7.7498602734E-06    7.8473415153E-06    7.9460489202E-06    8.0459979115E-06
    8.1472041063E-06    8.2496833184E-06    8.3534515602E-06    8.4585250459E-06
    8.5649201933E-06    8.6726536269E-06    8.7817421803E-06    8.8922028987E-06
    9.0040530420E-06    9.1173100868E-06    9.2319917299E-06    9.3481158905E-06
    9.4657007133E-06    9.5847645710E-06    9.7053260677E-06    9.8274040413E-06
    9.9510175668E-06    1.0076185959E-05    1.0202928776E-05    1.0331265821E-05
    1.0461217147E-05    1.0592803060E-05    1.0726044120E-05    1.0860961147E-05
    1.0997575220E-05    1.1135907687E-05    1.1275980162E-05    1.1417814532E-05
    1.1561432959E-05    1.1706857883E-05    1.1854112028E-05    1.2003218402E-05
    1.2154200303E-05    1.2307081322E-05    1.2461885348E-05    1.2618636569E-05
    1.2777359478E-05    1.2938078875E-05    1.3100819873E-05    1.3265607901E-05
    1.3432468707E-05    1.3601428364E-05    1.3772513271E-05    1.3945750162E-05
    1.4121166105E-05    1.4298788508E-05    1.4478645126E-05    1.4660764062E-05
    1.4845173773E-05    1.5031903072E-05    1.5220981136E-05    1.5412437510E-05
    1.5606302108E-05    1.5802605223E-05    1.6001377527E-05    1.6202650079E-05
    1.6406454327E-05    1.6612822118E-05    1.6821785696E-05    1.7033377712E-05
    1.7247631228E-05    1.7464579722E-05    1.7684257092E-05    1.7906697663E-05
    1.8131936191E-05    1.8360007872E-05    1.8590948341E-05    1.8824793684E-05
    1.9061580439E-05    1.9301345605E-05    1.9544126646E-05    1.9789961496E-05
    2.0038888567E-05    2.0290946756E-05    2.0546175446E-05    2.0804614519E-05
    2.1066304354E-05    2.1331285843E-05    2.1599600388E-05    2.1871289915E-05
    2.2146396875E-05    2.2424964255E-05    2.2707035581E-05    2.2992654928E-05
    2.3281866924E-05    2.3574716758E-05    2.3871250191E-05    2.4171513555E-05
    2.4475553766E-05    2.4783418333E-05    2.5095155360E-05    2.5410813556E-05
    2.5730442242E-05    2.6054091363E-05    2.6381811489E-05    2.6713653826E-05
    2.7049670226E-05    2.7389913193E-05    2.7734435888E-05    2.8083292146E-05
    2.8436536476E-05    2.8794224072E-05    2.9156410824E-05    2.9523153324E-05
    2.9894508878E-05    3.0270535509E-05    3.0651291973E-05    3.1036837764E-05
    3.1427233124E-05    3.1822539053E-05    3.2222817318E-05    3.2628130464E-05
    3.3038541822E-05    3.3454115519E-05    3.3874916490E-05    3.4301010486E-05
    3.4732464084E-05    3.5169344700E-05    3.5611720598E-05    3.6059660900E-05
    3.6513235597E-05    3.6972515562E-05    3.7437572557E-05    3.7908479249E-05
    3.8385309219E-05    3.8868136970E-05    3.9357037948E-05    3.9852088542E-05
    4.0353366107E-05    4.0860948967E-05    4.1374916433E-05    4.1895348815E-05
    4.2422327430E-05    4.2955934619E-05    4.3496253761E-05    4.4043369282E-05
    4.4597366668E-05    4.5158332483E-05    4.5726354380E-05    4.6301521113E-05
    4.6883922552E-05    4.7473649700E-05    4.8070794702E-05    4.8675450864E-05
    4.9287712664E-05    4.9907675769E-05    5.0535437050E-05    5.1171094597E-05
    5.1814747730E-05    5.2466497024E-05    5.3126444314E-05    5.3794692719E-05
    5.4471346655E-05    5.5156511849E-05    5.5850295360E-05    5.6552805594E-05
    5.7264152319E-05    5.7984446684E-05    5.8713801236E-05    5.9452329940E-05
    6.0200148191E-05    6.0957372838E-05    6.1724122198E-05    6.2500516078E-05
    6.3286675791E-05    6.4082724176E-05    6.4888785616E-05    6.5704986062E-05
    6.6531453045E-05    6.7368315703E-05    6.8215704797E-05    6.9073752734E-05
    6.9942593586E-05    7.0822363110E-05    7.1713198772E-05    7.2615239768E-05
    7.3528627042E-05    7.4453503315E-05    7.5390013098E-05    7.6338302724E-05
    7.7298520366E-05    7.8270816059E-05    7.9255341725E-05    8.0252251201E-05
    8.1261700253E-05    8.2283846612E-05    8.3318849989E-05    8.4366872106E-05
    8.5428076719E-05    8.6502629642E-05    8.7590698777E-05    8.8692454137E-05
    8.9808067873E-05    9.0937714303E-05    9.2081569936E-05    9.3239813501E-05
    9.4412625977E-05    9.5600190617E-05    9.6802692982E-05    9.8020320965E-05
    9.9253264822E-05    1.0050171720E-04    1.0176587318E-04    1.0304593029E-04
    1.0434208853E-04    1.0565455043E-04    1.0698352108E-04    1.0832920811E-04
    1.0969182181E-04    1.1107157507E-04    1.1246868350E-04    1.1388336538E-04
    1.1531584177E-04    1.1676633650E-04    1.1823507621E-04    1.1972229038E-04
    1.2122821141E-04    1.2275307459E-04    1.2429711819E-04    1.2586058347E-04
    1.2744371472E-04    1.2904675931E-04    1.3066996772E-04    1.3231359358E-04
    1.3397789370E-04    1.3566312814E-04    1.3736956023E-04    1.3909745658E-04
    1.4084708720E-04    1.4261872546E-04    1.4441264819E-04    1.4622913569E-04
    1.4806847178E-04    1.4993094388E-04    1.5181684299E-04    1.5372646379E-04
    1.5566010467E-04    1.5761806775E-04    1.5960065898E-04    1.6160818814E-04
    1.6364096890E-04    1.6569931890E-04    1.6778355975E-04    1.6989401712E-04
    1.7203102079E-04    1.7419490464E-04    1.7638600681E-04    1.7860466965E-04
    1.8085123983E-04    1.8312606839E-04    1.8542951077E-04    1.8776192688E-04
    1.9012368118E-04    1.9251514269E-04    1.9493668508E-04    1.9738868673E-04
    1.9987153076E-04    2.0238560513E-04    2.0493130265E-04    2.0750902111E-04
    2.1011916328E-04    2.1276213699E-04    2.1543835522E-04    2.1814823613E-04
    2.2089220315E-04    2.2367068502E-04    2.2648411589E-04    2.2933293537E-04
    2.3221758858E-04    2.3513852627E-04    2.3809620483E-04    2.4109108640E-04
    2.4412363895E-04    2.4719433631E-04    2.5030365829E-04    2.5345209073E-04
    2.5664012557E-04    2.5986826095E-04    2.6313700128E-04    2.6644685730E-04
    2.6979834618E-04    2.7319199160E-04    2.7662832383E-04    2.8010787980E-04
    2.8363120319E-04    2.8719884454E-04    2.9081136128E-04    2.9446931790E-04
    2.9817328594E-04    3.0192384417E-04    3.0572157862E-04    3.0956708268E-04
    3.1346095723E-04    3.1740381069E-04    3.2139625914E-04    3.2543892641E-04
    3.2953244417E-04    3.3367745205E-04    3.3787459771E-04    3.4212453697E-04
    3.4642793388E-04    3.5078546086E-04    3.5519779878E-04    3.5966563708E-04
    3.6418967386E-04    3.6877061603E-04    3.7340917935E-04    3.7810608862E-04
    3.8286207773E-04    3.8767788982E-04    3.9255427737E-04    3.9749200233E-04
    4.0249183622E-04    4.0755456027E-04    4.1268096556E-04    4.1787185309E-04
    4.2312803394E-04    4.2845032941E-04    4.3383957112E-04    4.3929660114E-04
    4.4482227215E-04    4.5041744754E-04    4.5608300158E-04    4.6181981951E-04
    4.6762879773E-04    4.7351084391E-04    4.7946687711E-04    4.8549782799E-04
    4.9160463889E-04    4.9778826402E-04    5.0404966958E-04    5.1038983392E-04
    5.1680974771E-04    5.2331041408E-04    5.2989284876E-04    5.3655808028E-04
    5.4330715009E-04    5.5014111275E-04    5.5706103608E-04    5.6406800133E-04
    5.7116310335E-04    5.7834745077E-04    5.8562216615E-04    5.9298838619E-04
    6.0044726187E-04    6.0799995865E-04    6.1564765667E-04    6.2339155088E-04
    6.3123285130E-04    6.3917278313E-04    6.4721258701E-04    6.5535351917E-04
    6.6359685165E-04    6.7194387249E-04    6.8039588593E-04    6.8895421261E-04
    6.9762018979E-04    7.0639517154E-04    7.1528052897E-04    7.2427765045E-04
    7.3338794177E-04    7.4261282646E-04    7.5195374591E-04    7.6141215966E-04
    7.7098954562E-04    7.8068740025E-04    7.9050723889E-04    8.0045059588E-04
    8.1051902492E-04    8.2071409919E-04    8.3103741172E-04    8.4149057553E-04
    8.5207522396E-04    8.6279301087E-04    8.7364561095E-04    8.8463471993E-04
    8.9576205488E-04    9.0702935448E-04    9.1843837926E-04    9.2999091191E-04
    9.4168875753E-04    9.5353374393E-04    9.6552772192E-04    9.7767256558E-04
    9.8997017257E-04    1.0024224644E-03    1.0150313868E-03    1.0277989099E-03
    1.0407270287E-03    1.0538177632E-03    1.0670731589E-03    1.0804952869E-03
    1.0940862445E-03    1.1078481553E-03    1.1217831696E-03    1.1358934649E-03
    1.1501812458E-03    1.1646487448E-03    1.1792982226E-03    1.1941319682E-03
    1.2091522993E-03    1.2243615629E-03    1.2397621355E-03    1.2553564234E-03
    1.2711468633E-03    1.2871359226E-03    1.3033260994E-03    1.3197199236E-03
    1.3363199567E-03    1.3531287925E-03    1.3701490574E-03    1.3873834110E-03
    1.4048345460E-03    1.4225051892E-03    1.4403981018E-03    1.4585160795E-03
    1.4768619534E-03    1.4954385899E-03    1.5142488917E-03    1.5332957980E-03
    1.5525822849E-03    1.5721113660E-03    1.5918860926E-03    1.6119095547E-03
    1.6321848809E-03    1.6527152393E-03    1.6735038379E-03    1.6945539248E-03
    1.7158687892E-03    1.7374517616E-03    1.7593062144E-03    1.7814355624E-03
    1.8038432633E-03    1.8265328183E-03    1.8495077729E-03    1.8727717168E-03
    1.8963282851E-03    1.9201811585E-03    1.9443340642E-03    1.9687907760E-03
    1.9935551153E-03    2.0186309517E-03    2.0440222034E-03    2.0697328376E-03
    2.0957668718E-03    2.1221283738E-03    2.1488214627E-03    2.1758503094E-03
    2.2032191370E-03    2.2309322222E-03    2.2589938950E-03    2.2874085403E-03
    2.3161805978E-03    2.3453145632E-03    2.3748149887E-03    2.4046864840E-03
    2.4349337164E-03    2.4655614122E-03    2.4965743569E-03    2.5279773965E-03
    2.5597754377E-03    2.5919734490E-03    2.6245764614E-03    2.6575895692E-03
    2.6910179308E-03    2.7248667695E-03    2.7591413741E-03    2.7938471001E-03
    2.8289893705E-03    2.8645736762E-03    2.9006055774E-03    2.9370907041E-03
    2.9740347572E-03    3.0114435092E-03    3.0493228055E-03    3.0876785646E-03
    3.1265167798E-03    3.1658435196E-03    3.2056649289E-03    3.2459872299E-03
    3.2868167230E-03    3.3281597878E-03    3.3700228844E-03    3.4124125540E-03
    3.4553354199E-03    3.4987981891E-03    3.5428076525E-03    3.5873706869E-03
    3.6324942553E-03    3.6781854082E-03    3.7244512851E-03    3.7712991151E-03
    3.8187362183E-03    3.8667700068E-03    3.9154079859E-03    3.9646577555E-03
    4.0145270110E-03    4.0650235445E-03    4.1161552461E-03    4.1679301054E-03
    4.2203562123E-03    4.2734417584E-03    4.3271950384E-03    4.3816244515E-03
    4.4367385024E-03    4.4925458026E-03    4.5490550723E-03    4.6062751411E-03
    4.6642149497E-03    4.7228835515E-03    4.7822901133E-03    4.8424439178E-03
    4.9033543639E-03    4.9650309692E-03    5.0274833706E-03    5.0907213266E-03
    5.1547547181E-03    5.2195935505E-03    5.2852479551E-03    5.3517281903E-03
    5.4190446440E-03    5.4872078345E-03    5.5562284123E-03    5.6261171622E-03
    5.6968850043E-03    5.7685429962E-03    5.8411023347E-03    5.9145743574E-03
    5.9889705443E-03    6.0643025201E-03    6.1405820555E-03    6.2178210693E-03
    6.2960316303E-03    6.3752259591E-03    6.4554164299E-03    6.5366155726E-03
    6.6188360748E-03    6.7020907836E-03    6.7863927078E-03    6.8717550196E-03
    6.9581910571E-03    7.0457143261E-03    7.1343385024E-03    7.2240774335E-03
    7.3149451414E-03    7.4069558244E-03    7.5001238593E-03    7.5944638038E-03
    7.6899903987E-03    7.7867185703E-03    7.8846634325E-03    7.9838402894E-03
    8.0842646376E-03    8.1859521686E-03    8.2889187713E-03    8.3931805343E-03
    8.4987537490E-03    8.6056549112E-03    8.7139007244E-03    8.8235081024E-03
    8.9344941715E-03    9.0468762735E-03    9.1606719683E-03    9.2758990367E-03
    9.3925754832E-03    9.5107195388E-03    9.6303496636E-03    9.7514845502E-03
    9.8741431261E-03    9.9983445569E-03    1.0124108249E-02    1.0251453854E-02
    1.0380401270E-02    1.0510970644E-02    1.0643182379E-02    1.0777057133E-02
    1.0912615824E-02    1.1049879633E-02    1.1188870009E-02    1.1329608668E-02
    1.1472117601E-02    1.1616419077E-02    1.1762535641E-02    1.1910490126E-02
    1.2060305649E-02    1.2212005619E-02    1.2365613740E-02    1.2521154013E-02
    1.2678650742E-02    1.2838128536E-02    1.2999612313E-02    1.3163127307E-02
    1.3328699066E-02    1.3496353461E-02    1.3666116689E-02    1.3838015276E-02
    1.4012076080E-02    1.4188326300E-02    1.4366793475E-02    1.4547505491E-02
    1.4730490584E-02    1.4915777345E-02    1.5103394728E-02    1.5293372047E-02
    1.5485738986E-02    1.5680525603E-02    1.5877762335E-02    1.6077479999E-02
    1.6279709802E-02    1.6484483343E-02    1.6691832618E-02    1.6901790025E-02
    1.7114388372E-02    1.7329660877E-02    1.7547641176E-02    1.7768363331E-02
    1.7991861828E-02    1.8218171590E-02    1.8447327978E-02    1.8679366799E-02
    1.8914324310E-02    1.9152237221E-02    1.9393142709E-02    1.9637078415E-02
    1.9884082454E-02    2.0134193422E-02    2.0387450398E-02    2.0643892955E-02
    2.0903561162E-02    2.1166495593E-02    2.1432737332E-02    2.1702327980E-02
    2.1975309661E-02    2.2251725029E-02    2.2531617273E-02    2.2815030129E-02
    2.3102007880E-02    2.3392595367E-02    2.3686837994E-02    2.3984781738E-02
    2.4286473153E-02    2.4591959379E-02    2.4901288148E-02    2.5214507794E-02
    2.5531667259E-02    2.5852816098E-02    2.6178004492E-02    2.6507283253E-02
    2.6840703831E-02    2.7178318324E-02    2.7520179484E-02    2.7866340728E-02
    2.8216856144E-02    2.8571780502E-02    2.8931169258E-02    2.9295078569E-02
    2.9663565295E-02    3.0036687013E-02    3.0414502026E-02    3.0797069365E-02
    3.1184448810E-02    3.1576700888E-02    3.1973886890E-02    3.2376068877E-02
    3.2783309690E-02    3.3195672963E-02    3.3613223126E-02    3.4036025425E-02
    3.4464145921E-02    3.4897651510E-02    3.5336609929E-02    3.5781089764E-02
    3.6231160468E-02    3.6686892364E-02    3.7148356662E-02    3.7615625466E-02
    3.8088771788E-02    3.8567869558E-02    3.9052993637E-02    3.9544219825E-02
    4.0041624877E-02    4.0545286516E-02    4.1055283437E-02    4.1571695330E-02
    4.2094602886E-02    4.2624087808E-02    4.3160232831E-02    4.3703121728E-02
    4.4252839327E-02    4.4809471522E-02    4.5373105288E-02    4.5943828694E-02
    4.6521730917E-02    4.7106902255E-02    4.7699434142E-02    4.8299419163E-02
    4.8906951067E-02    4.9522124781E-02    5.0145036427E-02    5.0775783338E-02
    5.1414464068E-02    5.2061178413E-02    5.2716027423E-02    5.3379113419E-02
    5.4050540010E-02    5.4730412109E-02    5.5418835945E-02    5.6115919088E-02
    5.6821770457E-02    5.7536500343E-02    5.8260220424E-02    5.8993043783E-02
    5.9735084926E-02    6.0486459797E-02    6.1247285800E-02    6.2017681817E-02
    6.2797768222E-02    6.3587666907E-02    6.4387501293E-02    6.5197396358E-02
    6.6017478649E-02    6.6847876305E-02    6.7688719078E-02    6.8540138350E-02
    6.9402267159E-02    7.0275240213E-02    7.1159193917E-02    7.2054266389E-02
    7.2960597487E-02    7.3878328827E-02    7.4807603806E-02    7.5748567626E-02
    7.6701367313E-02    7.7666151745E-02    7.8643071671E-02    7.9632279737E-02
    8.0633930508E-02    8.1648180496E-02    8.2675188178E-02    8.3715114026E-02
    8.4768120531E-02    8.5834372227E-02    8.6914035719E-02    8.8007279705E-02
    8.9114275008E-02    9.0235194598E-02    9.1370213620E-02    9.2519509425E-02
    9.3683261590E-02    9.4861651957E-02    9.6054864649E-02    9.7263086109E-02
    9.8486505124E-02    9.9725312856E-02    1.0097970287E-01    1.0224987117E-01
    1.0353601622E-01    1.0483833898E-01    1.0615704295E-01    1.0749233417E-01
    1.0884442129E-01    1.1021351556E-01    1.1159983093E-01    1.1300358399E-01
    1.1442499410E-01    1.1586428334E-01    1.1732167662E-01    1.1879740164E-01
    1.2029168900E-01    1.2180477218E-01    1.2333688761E-01    1.2488827467E-01
    1.2645917578E-01    1.2804983639E-01    1.2966050506E-01    1.3129143344E-01
    1.3294287637E-01    1.3461509190E-01    1.3630834131E-01    1.3802288917E-01
    1.3975900340E-01    1.4151695525E-01    1.4329701941E-01    1.4509947403E-01
    1.4692460073E-01    1.4877268470E-01    1.5064401470E-01    1.5253888314E-01
    1.5445758609E-01    1.5640042335E-01    1.5836769850E-01    1.6035971892E-01
    1.6237679588E-01    1.6441924453E-01    1.6648738403E-01    1.6858153753E-01
    1.7070203223E-01    1.7284919947E-01    1.7502337475E-01    1.7722489778E-01
    1.7945411257E-01    1.8171136743E-01    1.8399701506E-01    1.8631141260E-01
    1.8865492167E-01    1.9102790846E-01
   </PP_RAB>
 </PP_MESH>
  <PP_LOCAL type="real"  size="1026" columns="4">
   -5.7601895536E+01   -5.7624083367E+01   -5.7735805540E+01   -5.7725448960E+01
   -5.7728481116E+01   -5.7728664208E+01   -5.7728638935E+01   -5.7728668796E+01
   -5.7728647737E+01   -5.7728663398E+01   -5.7728670762E+01   -5.7728648910E+01
   -5.7728662215E+01   -5.7728665187E+01   -5.7728670354E+01   -5.7728666490E+01
   -5.7728671113E+01   -5.7728665933E+01   -5.7728674324E+01   -5.7728666859E+01
   -5.7728676162E+01   -5.7728667742E+01   -5.7728678378E+01   -5.7728675623E+01
   -5.7728679414E+01   -5.7728676596E+01   -5.7728675293E+01   -5.7728683103E+01
   -5.7728678772E+01   -5.7728678467E+01   -5.7728684779E+01   -5.7728685293E+01
   -5.7728682245E+01   -5.7728680507E+01   -5.7728685251E+01   -5.7728689409E+01
   -5.7728680947E+01   -5.7728689029E+01   -5.7728691975E+01   -5.7728686080E+01
   -5.7728687656E+01   -5.7728690146E+01   -5.7728691221E+01   -5.7728689764E+01
   -5.7728692529E+01   -5.7728691219E+01   -5.7728693544E+01   -5.7728692488E+01
   -5.7728695599E+01   -5.7728689858E+01   -5.7728698539E+01   -5.7728693984E+01
   -5.7728694383E+01   -5.7728698085E+01   -5.7728693959E+01   -5.7728695998E+01
   -5.7728701976E+01   -5.7728693440E+01   -5.7728696734E+01   -5.7728702177E+01
   -5.7728696746E+01   -5.7728699427E+01   -5.7728699446E+01   -5.7728701079E+01
   -5.7728698837E+01   -5.7728702494E+01   -5.7728698207E+01   -5.7728702620E+01
   -5.7728700802E+01   -5.7728702654E+01   -5.7728700658E+01   -5.7728702663E+01
   -5.7728703201E+01   -5.7728703595E+01   -5.7728701385E+01   -5.7728702340E+01
   -5.7728704725E+01   -5.7728704029E+01   -5.7728703826E+01   -5.7728702928E+01
   -5.7728704876E+01   -5.7728705272E+01   -5.7728704962E+01   -5.7728703206E+01
   -5.7728705580E+01   -5.7728706836E+01   -5.7728705688E+01   -5.7728704382E+01
   -5.7728705504E+01   -5.7728705738E+01   -5.7728706976E+01   -5.7728705922E+01
   -5.7728706279E+01   -5.7728706065E+01   -5.7728707064E+01   -5.7728706042E+01
   -5.7728707701E+01   -5.7728705848E+01   -5.7728706984E+01   -5.7728707019E+01
   -5.7728707320E+01   -5.7728707204E+01   -5.7728707483E+01   -5.7728706457E+01
   -5.7728708853E+01   -5.7728706667E+01   -5.7728707909E+01   -5.7728707251E+01
   -5.7728707408E+01   -5.7728708144E+01   -5.7728707410E+01   -5.7728707724E+01
   -5.7728707209E+01   -5.7728708172E+01   -5.7728707709E+01   -5.7728708146E+01
   -5.7728706781E+01   -5.7728708981E+01   -5.7728706999E+01   -5.7728708180E+01
   -5.7728707845E+01   -5.7728707723E+01   -5.7728707656E+01   -5.7728707727E+01
   -5.7728707938E+01   -5.7728707809E+01   -5.7728706993E+01   -5.7728708043E+01
   -5.7728707209E+01   -5.7728707665E+01   -5.7728707289E+01   -5.7728707432E+01
   -5.7728707018E+01   -5.7728707733E+01   -5.7728706734E+01   -5.7728707341E+01
   -5.7728706383E+01   -5.7728707241E+01   -5.7728706735E+01   -5.7728706639E+01
   -5.7728706438E+01   -5.7728706532E+01   -5.7728706095E+01   -5.7728706488E+01
   -5.7728705907E+01   -5.7728705848E+01   -5.7728705655E+01   -5.7728705642E+01
   -5.7728705629E+01   -5.7728705621E+01   -5.7728704513E+01   -5.7728705226E+01
   -5.7728704879E+01   -5.7728704469E+01   -5.7728704434E+01   -5.7728704049E+01
   -5.7728703902E+01   -5.7728704041E+01   -5.7728703302E+01   -5.7728703591E+01
   -5.7728703053E+01   -5.7728702672E+01   -5.7728702606E+01   -5.7728702292E+01
   -5.7728701799E+01   -5.7728702091E+01   -5.7728701339E+01   -5.7728701080E+01
   -5.7728701051E+01   -5.7728700493E+01   -5.7728700338E+01   -5.7728699764E+01
   -5.7728699599E+01   -5.7728699242E+01   -5.7728698688E+01   -5.7728698869E+01
   -5.7728697842E+01   -5.7728697693E+01   -5.7728697417E+01   -5.7728696861E+01
   -5.7728696482E+01   -5.7728695923E+01   -5.7728695596E+01   -5.7728695197E+01
   -5.7728694488E+01   -5.7728694379E+01   -5.7728693544E+01   -5.7728693051E+01
   -5.7728692778E+01   -5.7728691946E+01   -5.7728691548E+01   -5.7728690813E+01
   -5.7728690431E+01   -5.7728689752E+01   -5.7728689144E+01   -5.7728688439E+01
   -5.7728687803E+01   -5.7728687202E+01   -5.7728686514E+01   -5.7728685733E+01
   -5.7728685070E+01   -5.7728684293E+01   -5.7728683454E+01   -5.7728682918E+01
   -5.7728681874E+01   -5.7728681135E+01   -5.7728680259E+01   -5.7728679441E+01
   -5.7728678619E+01   -5.7728677565E+01   -5.7728676722E+01   -5.7728675676E+01
   -5.7728674768E+01   -5.7728673772E+01   -5.7728672648E+01   -5.7728671612E+01
   -5.7728670612E+01   -5.7728669406E+01   -5.7728668339E+01   -5.7728667029E+01
   -5.7728665919E+01   -5.7728664664E+01   -5.7728663457E+01   -5.7728662043E+01
   -5.7728660750E+01   -5.7728659422E+01   -5.7728657994E+01   -5.7728656553E+01
   -5.7728655072E+01   -5.7728653559E+01   -5.7728652017E+01   -5.7728650386E+01
   -5.7728648821E+01   -5.7728647137E+01   -5.7728645338E+01   -5.7728643667E+01
   -5.7728641861E+01   -5.7728639954E+01   -5.7728638106E+01   -5.7728636108E+01
   -5.7728634143E+01   -5.7728632119E+01   -5.7728629977E+01   -5.7728627852E+01
   -5.7728625648E+01   -5.7728623337E+01   -5.7728621097E+01   -5.7728618647E+01
   -5.7728616272E+01   -5.7728613701E+01   -5.7728611169E+01   -5.7728608586E+01
   -5.7728605801E+01   -5.7728603094E+01   -5.7728600236E+01   -5.7728597329E+01
   -5.7728594372E+01   -5.7728591271E+01   -5.7728588180E+01   -5.7728584962E+01
   -5.7728581641E+01   -5.7728578295E+01   -5.7728574788E+01   -5.7728571266E+01
   -5.7728567614E+01   -5.7728563876E+01   -5.7728560067E+01   -5.7728556114E+01
   -5.7728552096E+01   -5.7728547989E+01   -5.7728543740E+01   -5.7728539402E+01
   -5.7728534938E+01   -5.7728530394E+01   -5.7728525715E+01   -5.7728520896E+01
   -5.7728516012E+01   -5.7728510949E+01   -5.7728505769E+01   -5.7728500494E+01
   -5.7728495048E+01   -5.7728489466E+01   -5.7728483747E+01   -5.7728477895E+01
   -5.7728471906E+01   -5.7728465713E+01   -5.7728459424E+01   -5.7728452926E+01
   -5.7728446299E+01   -5.7728439495E+01   -5.7728432503E+01   -5.7728425352E+01
   -5.7728418013E+01   -5.7728410487E+01   -5.7728402762E+01   -5.7728394875E+01
   -5.7728386751E+01   -5.7728378429E+01   -5.7728369909E+01   -5.7728361171E+01
   -5.7728352204E+01   -5.7728343011E+01   -5.7728333580E+01   -5.7728323931E+01
   -5.7728314023E+01   -5.7728303858E+01   -5.7728293446E+01   -5.7728282770E+01
   -5.7728271816E+01   -5.7728260597E+01   -5.7728249079E+01   -5.7728237284E+01
   -5.7728225174E+01   -5.7728212778E+01   -5.7728200054E+01   -5.7728187002E+01
   -5.7728173638E+01   -5.7728159922E+01   -5.7728145867E+01   -5.7728131449E+01
   -5.7728116664E+01   -5.7728101519E+01   -5.7728085974E+01   -5.7728070056E+01
   -5.7728053703E+01   -5.7728036960E+01   -5.7728019789E+01   -5.7728002187E+01
   -5.7727984137E+01   -5.7727965615E+01   -5.7727946650E+01   -5.7727927181E+01
   -5.7727907229E+01   -5.7727886780E+01   -5.7727865801E+01   -5.7727844298E+01
   -5.7727822256E+01   -5.7727799634E+01   -5.7727776458E+01   -5.7727752691E+01
   -5.7727728324E+01   -5.7727703339E+01   -5.7727677720E+01   -5.7727651453E+01
   -5.7727624518E+01   -5.7727596907E+01   -5.7727568596E+01   -5.7727539566E+01
   -5.7727509805E+01   -5.7727479280E+01   -5.7727447994E+01   -5.7727415909E+01
   -5.7727383017E+01   -5.7727349291E+01   -5.7727314708E+01   -5.7727279250E+01
   -5.7727242902E+01   -5.7727205621E+01   -5.7727167403E+01   -5.7727128220E+01
   -5.7727088042E+01   -5.7727046849E+01   -5.7727004609E+01   -5.7726961305E+01
   -5.7726916897E+01   -5.7726871373E+01   -5.7726824695E+01   -5.7726776833E+01
   -5.7726727761E+01   -5.7726677441E+01   -5.7726625855E+01   -5.7726572960E+01
   -5.7726518728E+01   -5.7726463119E+01   -5.7726406107E+01   -5.7726347647E+01
   -5.7726287711E+01   -5.7726226253E+01   -5.7726163244E+01   -5.7726098638E+01
   -5.7726032398E+01   -5.7725964481E+01   -5.7725894841E+01   -5.7725823441E+01
   -5.7725750233E+01   -5.7725675173E+01   -5.7725598213E+01   -5.7725519303E+01
   -5.7725438396E+01   -5.7725355439E+01   -5.7725270386E+01   -5.7725183178E+01
   -5.7725093761E+01   -5.7725002083E+01   -5.7724908084E+01   -5.7724811703E+01
   -5.7724712884E+01   -5.7724611563E+01   -5.7724507677E+01   -5.7724401163E+01
   -5.7724291951E+01   -5.7724179975E+01   -5.7724065162E+01   -5.7723947445E+01
   -5.7723826748E+01   -5.7723702995E+01   -5.7723576111E+01   -5.7723446013E+01
   -5.7723312622E+01   -5.7723175856E+01   -5.7723035625E+01   -5.7722891847E+01
   -5.7722744428E+01   -5.7722593278E+01   -5.7722438302E+01   -5.7722279401E+01
   -5.7722116480E+01   -5.7721949434E+01   -5.7721778159E+01   -5.7721602549E+01
   -5.7721422494E+01   -5.7721237881E+01   -5.7721048593E+01   -5.7720854516E+01
   -5.7720655525E+01   -5.7720451497E+01   -5.7720242304E+01   -5.7720027817E+01
   -5.7719807899E+01   -5.7719582416E+01   -5.7719351223E+01   -5.7719114180E+01
   -5.7718871136E+01   -5.7718621939E+01   -5.7718366436E+01   -5.7718104463E+01
   -5.7717835860E+01   -5.7717560458E+01   -5.7717278085E+01   -5.7716988565E+01
   -5.7716691715E+01   -5.7716387352E+01   -5.7716075285E+01   -5.7715755318E+01
   -5.7715427253E+01   -5.7715090883E+01   -5.7714745999E+01   -5.7714392387E+01
   -5.7714029822E+01   -5.7713658081E+01   -5.7713276930E+01   -5.7712886132E+01
   -5.7712485442E+01   -5.7712074610E+01   -5.7711653380E+01   -5.7711221487E+01
   -5.7710778663E+01   -5.7710324631E+01   -5.7709859107E+01   -5.7709381799E+01
   -5.7708892411E+01   -5.7708390636E+01   -5.7707876161E+01   -5.7707348664E+01
   -5.7706807816E+01   -5.7706253280E+01   -5.7705684708E+01   -5.7705101746E+01
   -5.7704504028E+01   -5.7703891183E+01   -5.7703262828E+01   -5.7702618569E+01
   -5.7701958004E+01   -5.7701280721E+01   -5.7700586297E+01   -5.7699874298E+01
   -5.7699144280E+01   -5.7698395786E+01   -5.7697628349E+01   -5.7696841490E+01
   -5.7696034717E+01   -5.7695207526E+01   -5.7694359402E+01   -5.7693489814E+01
   -5.7692598220E+01   -5.7691684062E+01   -5.7690746770E+01   -5.7689785759E+01
   -5.7688800428E+01   -5.7687790163E+01   -5.7686754333E+01   -5.7685692290E+01
   -5.7684603373E+01   -5.7683486901E+01   -5.7682342177E+01   -5.7681168487E+01
   -5.7679965097E+01   -5.7678731258E+01   -5.7677466199E+01   -5.7676169130E+01
   -5.7674839241E+01   -5.7673475703E+01   -5.7672077666E+01   -5.7670644255E+01
   -5.7669174578E+01   -5.7667667716E+01   -5.7666122730E+01   -5.7664538656E+01
   -5.7662914506E+01   -5.7661249265E+01   -5.7659541896E+01   -5.7657791334E+01
   -5.7655996485E+01   -5.7654156232E+01   -5.7652269426E+01   -5.7650334890E+01
   -5.7648351419E+01   -5.7646317775E+01   -5.7644232690E+01   -5.7642094864E+01
   -5.7639902965E+01   -5.7637655626E+01   -5.7635351445E+01   -5.7632988988E+01
   -5.7630566782E+01   -5.7628083316E+01   -5.7625537044E+01   -5.7622926378E+01
   -5.7620249693E+01   -5.7617505321E+01   -5.7614691552E+01   -5.7611806634E+01
   -5.7608848770E+01   -5.7605816118E+01   -5.7602706789E+01   -5.7599518849E+01
   -5.7596250311E+01   -5.7592899143E+01   -5.7589463257E+01   -5.7585940517E+01
   -5.7582328730E+01   -5.7578625649E+01   -5.7574828970E+01   -5.7570936333E+01
   -5.7566945317E+01   -5.7562853439E+01   -5.7558658157E+01   -5.7554356863E+01
   -5.7549946884E+01   -5.7545425478E+01   -5.7540789839E+01   -5.7536037086E+01
   -5.7531164268E+01   -5.7526168359E+01   -5.7521046258E+01   -5.7515794787E+01
   -5.7510410687E+01   -5.7504890617E+01   -5.7499231155E+01   -5.7493428791E+01
   -5.7487479928E+01   -5.7481380880E+01   -5.7475127868E+01   -5.7468717019E+01
   -5.7462144363E+01   -5.7455405832E+01   -5.7448497255E+01   -5.7441414358E+01
   -5.7434152762E+01   -5.7426707976E+01   -5.7419075400E+01   -5.7411250319E+01
   -5.7403227899E+01   -5.7395003189E+01   -5.7386571114E+01   -5.7377926472E+01
   -5.7369063934E+01   -5.7359978038E+01   -5.7350663186E+01   -5.7341113645E+01
   -5.7331323537E+01   -5.7321286842E+01   -5.7310997387E+01   -5.7300448853E+01
   -5.7289634761E+01   -5.7278548475E+01   -5.7267183195E+01   -5.7255531955E+01
   -5.7243587618E+01   -5.7231342873E+01   -5.7218790230E+01   -5.7205922014E+01
   -5.7192730368E+01   -5.7179207238E+01   -5.7165344378E+01   -5.7151133341E+01
   -5.7136565475E+01   -5.7121631919E+01   -5.7106323596E+01   -5.7090631212E+01
   -5.7074545250E+01   -5.7058055961E+01   -5.7041153365E+01   -5.7023827242E+01
   -5.7006067127E+01   -5.6987862305E+01   -5.6969201809E+01   -5.6950074407E+01
   -5.6930468603E+01   -5.6910372630E+01   -5.6889774442E+01   -5.6868661709E+01
   -5.6847021814E+01   -5.6824841840E+01   -5.6802108574E+01   -5.6778808491E+01
   -5.6754927753E+01   -5.6730452203E+01   -5.6705367356E+01   -5.6679658393E+01
   -5.6653310158E+01   -5.6626307145E+01   -5.6598633497E+01   -5.6570272998E+01
   -5.6541209064E+01   -5.6511424737E+01   -5.6480902681E+01   -5.6449625170E+01
   -5.6417574087E+01   -5.6384730910E+01   -5.6351076713E+01   -5.6316592152E+01
   -5.6281257461E+01   -5.6245052446E+01   -5.6207956476E+01   -5.6169948476E+01
   -5.6131006923E+01   -5.6091109833E+01   -5.6050234761E+01   -5.6008358789E+01
   -5.5965458521E+01   -5.5921510078E+01   -5.5876489088E+01   -5.5830370680E+01
   -5.5783129480E+01   -5.5734739603E+01   -5.5685174647E+01   -5.5634407685E+01
   -5.5582411262E+01   -5.5529157390E+01   -5.5474617537E+01   -5.5418762628E+01
   -5.5361563035E+01   -5.5302988577E+01   -5.5243008511E+01   -5.5181591529E+01
   -5.5118705759E+01   -5.5054318751E+01   -5.4988397486E+01   -5.4920908363E+01
   -5.4851817204E+01   -5.4781089249E+01   -5.4708689153E+01   -5.4634580991E+01
   -5.4558728250E+01   -5.4481093836E+01   -5.4401640073E+01   -5.4320328704E+01
   -5.4237120893E+01   -5.4151977232E+01   -5.4064857739E+01   -5.3975721869E+01
   -5.3884528518E+01   -5.3791236030E+01   -5.3695802201E+01   -5.3598184297E+01
   -5.3498339057E+01   -5.3396222706E+01   -5.3291790970E+01   -5.3184999090E+01
   -5.3075801837E+01   -5.2964153528E+01   -5.2850008048E+01   -5.2733318869E+01
   -5.2614039073E+01   -5.2492121376E+01   -5.2367518155E+01   -5.2240181478E+01
   -5.2110063131E+01   -5.1977114655E+01   -5.1841287382E+01   -5.1702532469E+01
   -5.1560800943E+01   -5.1416043744E+01   -5.1268211771E+01   -5.1117255931E+01
   -5.0963127196E+01   -5.0805776655E+01   -5.0645155578E+01   -5.0481215477E+01
   -5.0313908176E+01   -5.0143185881E+01   -4.9969001258E+01   -4.9791307515E+01
   -4.9610058480E+01   -4.9425208700E+01   -4.9236713532E+01   -4.9044529240E+01
   -4.8848613107E+01   -4.8648923539E+01   -4.8445420189E+01   -4.8238064074E+01
   -4.8026817708E+01   -4.7811645232E+01   -4.7592512563E+01   -4.7369387536E+01
   -4.7142240065E+01   -4.6911042299E+01   -4.6675768799E+01   -4.6436396710E+01
   -4.6192905947E+01   -4.5945279389E+01   -4.5693503078E+01   -4.5437566425E+01
   -4.5177462430E+01   -4.4913187900E+01   -4.4644743686E+01   -4.4372134919E+01
   -4.4095371256E+01   -4.3814467137E+01   -4.3529442040E+01   -4.3240320758E+01
   -4.2947133662E+01   -4.2649916990E+01   -4.2348713126E+01   -4.2043570887E+01
   -4.1734545820E+01   -4.1421700492E+01   -4.1105104785E+01   -4.0784836185E+01
   -4.0460980082E+01   -4.0133630045E+01   -3.9802888107E+01   -3.9468865032E+01
   -3.9131680571E+01   -3.8791463701E+01   -3.8448352848E+01   -3.8102496080E+01
   -3.7754051277E+01   -3.7403186267E+01   -3.7050078913E+01   -3.6694917171E+01
   -3.6337899077E+01   -3.5979232688E+01   -3.5619135946E+01   -3.5257836465E+01
   -3.4895571228E+01   -3.4532586190E+01   -3.4169135762E+01   -3.3805482170E+01
   -3.3441894680E+01   -3.3078648662E+01   -3.2716024478E+01   -3.2354306184E+01
   -3.1993780015E+01   -3.1634732636E+01   -3.1277449130E+01   -3.0922210704E+01
   -3.0569292077E+01   -3.0218958518E+01   -2.9871462512E+01   -2.9527039994E+01
   -2.9185906137E+01   -2.8848250626E+01   -2.8514232387E+01   -2.8183973713E+01
   -2.7857553720E+01   -2.7535001106E+01   -2.7216287354E+01   -2.6901344942E+01
   -2.6590103144E+01   -2.6282493933E+01   -2.5978452063E+01   -2.5677915145E+01
   -2.5380823718E+01   -2.5087121317E+01   -2.4796754541E+01   -2.4509673106E+01
   -2.4225829906E+01   -2.3945181049E+01   -2.3667685904E+01   -2.3393307127E+01
   -2.3122010679E+01   -2.2853765835E+01   -2.2588545177E+01   -2.2326324569E+01
   -2.2067083115E+01   -2.1810803093E+01   -2.1557469856E+01   -2.1307071705E+01
   -2.1059599711E+01   -2.0815047496E+01   -2.0573410933E+01   -2.0334687785E+01
   -2.0098877239E+01   -1.9865979335E+01   -1.9635994252E+01   -1.9408921461E+01
   -1.9184758694E+01   -1.8963500740E+01   -1.8745138058E+01   -1.8529655213E+01
   -1.8317029164E+01   -1.8107227465E+01   -1.7900206453E+01   -1.7695909545E+01
   -1.7494265782E+01   -1.7295188811E+01   -1.7098576475E+01   -1.6904311207E+01
   -1.6712261387E+01   -1.6522283756E+01   -1.6334226907E+01   -1.6147935791E+01
   -1.5963257013E+01   -1.5780044648E+01   -1.5598166186E+01   -1.5417508194E+01
   -1.5237981290E+01   -1.5059524107E+01   -1.4882106035E+01   -1.4705728704E+01
   -1.4530426333E+01   -1.4356265229E+01   -1.4183342788E+01   -1.4011786334E+01
   -1.3841751951E+01   -1.3673423070E+01   -1.3507008008E+01   -1.3342734887E+01
   -1.3180841588E+01   -1.3021557898E+01   -1.2865077303E+01   -1.2711517693E+01
   -1.2560874072E+01   -1.2412972310E+01   -1.2267439356E+01   -1.2123709036E+01
   -1.1981078912E+01   -1.1838819888E+01   -1.1696318718E+01   -1.1553213655E+01
   -1.1409477640E+01   -1.1265418682E+01   -1.1121597740E+01   -1.0978694081E+01
   -1.0837364109E+01   -1.0698133528E+01   -1.0561343556E+01   -1.0427152598E+01
   -1.0295562104E+01   -1.0166461627E+01   -1.0039681235E+01   -9.9149262037E+00
   -9.7917629437E+00   -9.6701282600E+00   -9.5500044235E+00   -9.4313727910E+00
   -9.3142147905E+00   -9.1985120931E+00   -9.0842466100E+00   -8.9714004858E+00
   -8.8599560924E+00   -8.7498960244E+00   -8.6412030939E+00   -8.5338603270E+00
   -8.4278509606E+00   -8.3231584388E+00   -8.2197664105E+00   -8.1176587266E+00
   -8.0168194375E+00   -7.9172327908E+00   -7.8188832290E+00   -7.7217553870E+00
   -7.6258340900E+00   -7.5311043512E+00   -7.4375513695E+00   -7.3451605274E+00
   -7.2539173887E+00   -7.1638076963E+00   -7.0748173703E+00   -6.9869325053E+00
   -6.9001393688E+00   -6.8144243986E+00   -6.7297742014E+00   -6.6461755498E+00
   -6.5636153810E+00   -6.4820807944E+00   -6.4015590498E+00   -6.3220375651E+00
   -6.2435039147E+00   -6.1659458272E+00   -6.0893511838E+00   -6.0137080163E+00
   -5.9390045051E+00   -5.8652289775E+00   -5.7923699057E+00   -5.7204159054E+00
   -5.6493557334E+00   -5.5791782865E+00   -5.5098725993E+00   -5.4414278424E+00
   -5.3738333215E+00   -5.3070784745E+00   -5.2411528710E+00   -5.1760462099E+00
   -5.1117483182E+00   -5.0482491493E+00   -4.9855387811E+00   -4.9236074152E+00
   -4.8624453743E+00   -4.8020431020E+00   -4.7423911600E+00   -4.6834802276E+00
   -4.6253010995E+00   -4.5678446850E+00   -4.5111020062E+00   -4.4550641968E+00
   -4.3997225005E+00   -4.3450682698E+00   -4.2910929647E+00   -4.2377881512E+00
   -4.1851455001E+00   -4.1331567858E+00   -4.0818138848E+00   -4.0311087746E+00
   -3.9810335323E+00   -3.9315803337E+00   -3.8827414515E+00   -3.8345092548E+00
   -3.7868762071E+00   -3.7398348659E+00   -3.6933778811E+00   -3.6474979937E+00
   -3.6021880352E+00   -3.5574409260E+00   -3.5132496743E+00   -3.4696073755E+00
   -3.4265072105E+00   -3.3839424448E+00   -3.3419064279E+00   -3.3003925916E+00
   -3.2593944493E+00   -3.2189055951E+00   -3.1789197025E+00   -3.1394305237E+00
   -3.1004318883E+00   -3.0619177028E+00   -3.0238819491E+00   -2.9863186840E+00
   -2.9492220381E+00   -2.9125862150E+00   -2.8764054900E+00   -2.8406742098E+00
   -2.8053867911E+00   -2.7705377202E+00   -2.7361215518E+00   -2.7021329081E+00
   -2.6685664782E+00   -2.6354170173E+00   -2.6026793457E+00   -2.5703483478E+00
   -2.5384189719E+00   -2.5068862289E+00   -2.4757451918E+00   -2.4449909945E+00
   -2.4146188318E+00   -2.3846239578E+00   -2.3550016857E+00   -2.3257473876E+00
   -2.2968564910E+00   -2.2683244832E+00   -2.2401469051E+00   -2.2123193543E+00
   -2.1848374826E+00   -2.1576969958E+00   -2.1308936534E+00   -2.1044232671E+00
   -2.0782817010E+00   -2.0524648704E+00   -2.0269687414E+00   -2.0017893302E+00
   -1.9769227025E+00   -1.9523649729E+00   -1.9281123042E+00   -1.9041609067E+00
   -1.8805070383E+00   -1.8571470028E+00   -1.8340771502E+00   -1.8112938759E+00
   -1.7887936199E+00   -1.7665728665E+00   -1.7446281437E+00   -1.7229560226E+00
   -1.7015531169E+00   -1.6804160824E+00   -1.6595416163E+00   -1.6389264570E+00
   -1.6185673834E+00   -1.5984612142E+00   -1.5786048079E+00   -1.5589950619E+00
   -1.5396289121E+00   -1.5205033325E+00   -1.5016153347E+00   -1.4829619674E+00
   -1.4645403161E+00   -1.4463475022E+00   -1.4283806831E+00   -1.4106370515E+00
   -1.3931138349E+00   -1.3758082952E+00   -1.3587177284E+00   -1.3418394642E+00
   -1.3251708651E+00   -1.3087093268E+00
  </PP_LOCAL>
 <PP_NONLOCAL>
   <PP_BETA.1
       type="real"
       size="1026"
       columns="4"
       index="1"
       angular_momentum="0"
       cutoff_radius_index=" 868"
       cutoff_radius="    2.1205826603E+00" >
    0.0000000000E+00    4.1676236005E-04    4.2200458510E-04    4.2731274922E-04
    4.3268768182E-04    4.3813022274E-04    4.4364122240E-04    4.4922154189E-04
    4.5487205316E-04    4.6059363911E-04    4.6638719374E-04    4.7225362231E-04
    4.7819384147E-04    4.8420877938E-04    4.9029937589E-04    4.9646658266E-04
    5.0271136334E-04    5.0903469369E-04    5.1543756173E-04    5.2192096793E-04
    5.2848592533E-04    5.3513345973E-04    5.4186460980E-04    5.4868042732E-04
    5.5558197725E-04    5.6257033799E-04    5.6964660147E-04    5.7681187339E-04
    5.8406727332E-04    5.9141393493E-04    5.9885300616E-04    6.0638564938E-04
    6.1401304157E-04    6.2173637454E-04    6.2955685506E-04    6.3747570510E-04
    6.4549416200E-04    6.5361347866E-04    6.6183492374E-04    6.7015978185E-04
    6.7858935377E-04    6.8712495663E-04    6.9576792415E-04    7.0451960679E-04
    7.1338137204E-04    7.2235460455E-04    7.3144070641E-04    7.4064109734E-04
    7.4995721492E-04    7.5939051481E-04    7.6894247099E-04    7.7861457596E-04
    7.8840834102E-04    7.9832529644E-04    8.0836699178E-04    8.1853499608E-04
    8.2883089809E-04    8.3925630658E-04    8.4981285053E-04    8.6050217943E-04
    8.7132596350E-04    8.8228589398E-04    8.9338368338E-04    9.0462106575E-04
    9.1599979696E-04    9.2752165494E-04    9.3918844001E-04    9.5100197513E-04
    9.6296410618E-04    9.7507670227E-04    9.8734165602E-04    9.9976088385E-04
    1.0123363263E-03    1.0250699482E-03    1.0379637394E-03    1.0510197144E-03
    1.0642399134E-03    1.0776264018E-03    1.0911812716E-03    1.1049066405E-03
    1.1188046532E-03    1.1328774814E-03    1.1471273239E-03    1.1615564072E-03
    1.1761669860E-03    1.1909613431E-03    1.2059417903E-03    1.2211106682E-03
    1.2364703470E-03    1.2520232267E-03    1.2677717375E-03    1.2837183400E-03
    1.2998655259E-03    1.3162158184E-03    1.3327717721E-03    1.3495359739E-03
    1.3665110433E-03    1.3836996327E-03    1.4011044278E-03    1.4187281480E-03
    1.4365735473E-03    1.4546434139E-03    1.4729405713E-03    1.4914678784E-03
    1.5102282302E-03    1.5292245580E-03    1.5484598299E-03    1.5679370517E-03
    1.5876592665E-03    1.6076295560E-03    1.6278510407E-03    1.6483268801E-03
    1.6690602736E-03    1.6900544608E-03    1.7113127222E-03    1.7328383793E-03
    1.7546347956E-03    1.7767053768E-03    1.7990535714E-03    1.8216828714E-03
    1.8445968127E-03    1.8677989755E-03    1.8912929853E-03    1.9150825130E-03
    1.9391712757E-03    1.9635630374E-03    1.9882616093E-03    2.0132708506E-03
    2.0385946690E-03    2.0642370214E-03    2.0902019144E-03    2.1164934051E-03
    2.1431156016E-03    2.1700726635E-03    2.1973688030E-03    2.2250082852E-03
    2.2529954286E-03    2.2813346064E-03    2.3100302466E-03    2.3390868328E-03
    2.3685089053E-03    2.3983010611E-03    2.4284679555E-03    2.4590143019E-03
    2.4899448733E-03    2.5212645026E-03    2.5529780835E-03    2.5850905713E-03
    2.6176069836E-03    2.6505324011E-03    2.6838719683E-03    2.7176308947E-03
    2.7518144551E-03    2.7864279907E-03    2.8214769098E-03    2.8569666890E-03
    2.8929028733E-03    2.9292910780E-03    2.9661369887E-03    3.0034463625E-03
    3.0412250290E-03    3.0794788913E-03    3.1182139264E-03    3.1574361866E-03
    3.1971518006E-03    3.2373669738E-03    3.2780879899E-03    3.3193212114E-03
    3.3610730812E-03    3.4033501229E-03    3.4461589422E-03    3.4895062281E-03
    3.5333987536E-03    3.5778433768E-03    3.6228470421E-03    3.6684167815E-03
    3.7145597150E-03    3.7612830526E-03    3.8085940946E-03    3.8565002335E-03
    3.9050089544E-03    3.9541278369E-03    4.0038645556E-03    4.0542268820E-03
    4.1052226850E-03    4.1568599327E-03    4.2091466932E-03    4.2620911365E-03
    4.3157015348E-03    4.3699862648E-03    4.4249538083E-03    4.4806127540E-03
    4.5369717983E-03    4.5940397474E-03    4.6518255179E-03    4.7103381387E-03
    4.7695867523E-03    4.8295806161E-03    4.8903291040E-03    4.9518417077E-03
    5.0141280386E-03    5.0771978285E-03    5.1410609319E-03    5.2057273273E-03
    5.2712071186E-03    5.3375105367E-03    5.4046479413E-03    5.4726298223E-03
    5.5414668016E-03    5.6111696348E-03    5.6817492126E-03    5.7532165628E-03
    5.8255828517E-03    5.8988593863E-03    5.9730576156E-03    6.0481891328E-03
    6.1242656767E-03    6.2012991339E-03    6.2793015403E-03    6.3582850836E-03
    6.4382621042E-03    6.5192450981E-03    6.6012467185E-03    6.6842797774E-03
    6.7683572482E-03    6.8534922674E-03    6.9396981367E-03    7.0269883251E-03
    7.1153764711E-03    7.2048763844E-03    7.2955020488E-03    7.3872676238E-03
    7.4801874467E-03    7.5742760356E-03    7.6695480908E-03    7.7660184977E-03
    7.8637023287E-03    7.9626148460E-03    8.0627715036E-03    8.1641879499E-03
    8.2668800299E-03    8.3708637881E-03    8.4761554707E-03    8.5827715283E-03
    8.6907286182E-03    8.8000436072E-03    8.9107335744E-03    9.0228158135E-03
    9.1363078357E-03    9.2512273725E-03    9.3675923783E-03    9.4854210333E-03
    9.6047317463E-03    9.7255431576E-03    9.8478741420E-03    9.9717438114E-03
    1.0097171518E-02    1.0224176859E-02    1.0352779674E-02    1.0483000057E-02
    1.0614858351E-02    1.0748375156E-02    1.0883571333E-02    1.1020468001E-02
    1.1159086548E-02    1.1299448630E-02    1.1441576176E-02    1.1585491389E-02
    1.1731216752E-02    1.1878775031E-02    1.2028189279E-02    1.2179482836E-02
    1.2332679339E-02    1.2487802720E-02    1.2644877213E-02    1.2803927355E-02
    1.2964977994E-02    1.3128054288E-02    1.3293181712E-02    1.3460386063E-02
    1.3629693459E-02    1.3801130350E-02    1.3974723516E-02    1.4150500075E-02
    1.4328487484E-02    1.4508713547E-02    1.4691206418E-02    1.4875994603E-02
    1.5063106968E-02    1.5252572740E-02    1.5444421515E-02    1.5638683261E-02
    1.5835388321E-02    1.6034567422E-02    1.6236251674E-02    1.6440472582E-02
    1.6647262043E-02    1.6856652357E-02    1.7068676231E-02    1.7283366779E-02
    1.7500757537E-02    1.7720882457E-02    1.7943775920E-02    1.8169472741E-02
    1.8398008168E-02    1.8629417896E-02    1.8863738067E-02    1.9101005276E-02
    1.9341256581E-02    1.9584529501E-02    1.9830862031E-02    2.0080292640E-02
    2.0332860282E-02    2.0588604401E-02    2.0847564935E-02    2.1109782324E-02
    2.1375297516E-02    2.1644151975E-02    2.1916387684E-02    2.2192047153E-02
    2.2471173428E-02    2.2753810094E-02    2.3040001285E-02    2.3329791686E-02
    2.3623226547E-02    2.3920351685E-02    2.4221213490E-02    2.4525858939E-02
    2.4834335594E-02    2.5146691619E-02    2.5462975778E-02    2.5783237451E-02
    2.6107526636E-02    2.6435893959E-02    2.6768390681E-02    2.7105068709E-02
    2.7445980597E-02    2.7791179563E-02    2.8140719490E-02    2.8494654939E-02
    2.8853041155E-02    2.9215934075E-02    2.9583390340E-02    2.9955467301E-02
    3.0332223028E-02    3.0713716318E-02    3.1100006710E-02    3.1491154485E-02
    3.1887220682E-02    3.2288267107E-02    3.2694356339E-02    3.3105551742E-02
    3.3521917475E-02    3.3943518502E-02    3.4370420599E-02    3.4802690370E-02
    3.5240395251E-02    3.5683603524E-02    3.6132384328E-02    3.6586807666E-02
    3.7046944420E-02    3.7512866360E-02    3.7984646153E-02    3.8462357379E-02
    3.8946074538E-02    3.9435873062E-02    3.9931829331E-02    4.0434020677E-02
    4.0942525402E-02    4.1457422790E-02    4.1978793115E-02    4.2506717655E-02
    4.3041278707E-02    4.3582559597E-02    4.4130644692E-02    4.4685619416E-02
    4.5247570261E-02    4.5816584798E-02    4.6392751696E-02    4.6976160731E-02
    4.7566902802E-02    4.8165069941E-02    4.8770755333E-02    4.9384053326E-02
    5.0005059445E-02    5.0633870410E-02    5.1270584147E-02    5.1915299804E-02
    5.2568117769E-02    5.3229139679E-02    5.3898468442E-02    5.4576208246E-02
    5.5262464583E-02    5.5957344255E-02    5.6660955399E-02    5.7373407498E-02
    5.8094811399E-02    5.8825279329E-02    5.9564924913E-02    6.0313863191E-02
    6.1072210634E-02    6.1840085162E-02    6.2617606162E-02    6.3404894506E-02
    6.4202072568E-02    6.5009264243E-02    6.5826594965E-02    6.6654191726E-02
    6.7492183094E-02    6.8340699235E-02    6.9199871927E-02    7.0069834584E-02
    7.0950722275E-02    7.1842671740E-02    7.2745821417E-02    7.3660311455E-02
    7.4586283739E-02    7.5523881912E-02    7.6473251390E-02    7.7434539389E-02
    7.8407894945E-02    7.9393468933E-02    8.0391414092E-02    8.1401885046E-02
    8.2425038325E-02    8.3461032391E-02    8.4510027656E-02    8.5572186511E-02
    8.6647673341E-02    8.7736654558E-02    8.8839298618E-02    8.9955776046E-02
    9.1086259463E-02    9.2230923607E-02    9.3389945361E-02    9.4563503773E-02
    9.5751780087E-02    9.6954957764E-02    9.8173222510E-02    9.9406762299E-02
    1.0065576740E-01    1.0192043041E-01    1.0320094627E-01    1.0449751230E-01
    1.0581032821E-01    1.0713959616E-01    1.0848552074E-01    1.0984830906E-01
    1.1122817070E-01    1.1262531782E-01    1.1403996513E-01    1.1547232992E-01
    1.1692263215E-01    1.1839109439E-01    1.1987794192E-01    1.2138340272E-01
    1.2290770753E-01    1.2445108985E-01    1.2601378598E-01    1.2759603505E-01
    1.2919807907E-01    1.3082016293E-01    1.3246253444E-01    1.3412544439E-01
    1.3580914652E-01    1.3751389761E-01    1.3923995748E-01    1.4098758903E-01
    1.4275705829E-01    1.4454863440E-01    1.4636258970E-01    1.4819919973E-01
    1.5005874325E-01    1.5194150233E-01    1.5384776230E-01    1.5577781185E-01
    1.5773194304E-01    1.5971045132E-01    1.6171363556E-01    1.6374179813E-01
    1.6579524486E-01    1.6787428512E-01    1.6997923185E-01    1.7211040159E-01
    1.7426811447E-01    1.7645269431E-01    1.7866446862E-01    1.8090376861E-01
    1.8317092926E-01    1.8546628933E-01    1.8779019139E-01    1.9014298186E-01
    1.9252501105E-01    1.9493663316E-01    1.9737820633E-01    1.9985009269E-01
    2.0235265833E-01    2.0488627341E-01    2.0745131211E-01    2.1004815271E-01
    2.1267717761E-01    2.1533877332E-01    2.1803333054E-01    2.2076124416E-01
    2.2352291327E-01    2.2631874122E-01    2.2914913560E-01    2.3201450833E-01
    2.3491527558E-01    2.3785185791E-01    2.4082468019E-01    2.4383417167E-01
    2.4688076600E-01    2.4996490123E-01    2.5308701982E-01    2.5624756867E-01
    2.5944699913E-01    2.6268576702E-01    2.6596433261E-01    2.6928316065E-01
    2.7264272038E-01    2.7604348554E-01    2.7948593434E-01    2.8297054950E-01
    2.8649781821E-01    2.9006823219E-01    2.9368228759E-01    2.9734048508E-01
    3.0104332976E-01    3.0479133122E-01    3.0858500345E-01    3.1242486487E-01
    3.1631143831E-01    3.2024525094E-01    3.2422683431E-01    3.2825672425E-01
    3.3233546087E-01    3.3646358854E-01    3.4064165579E-01    3.4487021532E-01
    3.4914982392E-01    3.5348104240E-01    3.5786443559E-01    3.6230057218E-01
    3.6679002474E-01    3.7133336960E-01    3.7593118676E-01    3.8058405983E-01
    3.8529257592E-01    3.9005732553E-01    3.9487890249E-01    3.9975790377E-01
    4.0469492945E-01    4.0969058251E-01    4.1474546875E-01    4.1986019662E-01
    4.2503537708E-01    4.3027162342E-01    4.3556955113E-01    4.4092977768E-01
    4.4635292235E-01    4.5183960602E-01    4.5739045099E-01    4.6300608071E-01
    4.6868711960E-01    4.7443419277E-01    4.8024792578E-01    4.8612894435E-01
    4.9207787412E-01    4.9809534030E-01    5.0418196741E-01    5.1033837891E-01
    5.1656519689E-01    5.2286304171E-01    5.2923253160E-01    5.3567428229E-01
    5.4218890661E-01    5.4877701404E-01    5.5543921026E-01    5.6217609673E-01
    5.6898827012E-01    5.7587632189E-01    5.8284083769E-01    5.8988239684E-01
    5.9700157173E-01    6.0419892725E-01    6.1147502012E-01    6.1883039826E-01
    6.2626560010E-01    6.3378115386E-01    6.4137757683E-01    6.4905537457E-01
    6.5681504013E-01    6.6465705321E-01    6.7258187927E-01    6.8058996866E-01
    6.8868175565E-01    6.9685765745E-01    7.0511807323E-01    7.1346338304E-01
    7.2189394669E-01    7.3041010265E-01    7.3901216685E-01    7.4770043147E-01
    7.5647516361E-01    7.6533660404E-01    7.7428496577E-01    7.8332043266E-01
    7.9244315795E-01    8.0165326268E-01    8.1095083417E-01    8.2033592433E-01
    8.2980854797E-01    8.3936868105E-01    8.4901625883E-01    8.5875117401E-01
    8.6857327475E-01    8.7848236265E-01    8.8847819066E-01    8.9856046094E-01
    9.0872882254E-01    9.1898286920E-01    9.2932213686E-01    9.3974610125E-01
    9.5025417530E-01    9.6084570654E-01    9.7151997435E-01    9.8227618717E-01
    9.9311347959E-01    1.0040309094E+00    1.0150274545E+00    1.0261020096E+00
    1.0372533832E+00    1.0484802941E+00    1.0597813678E+00    1.0711551332E+00
    1.0826000186E+00    1.0941143483E+00    1.1056963386E+00    1.1173440934E+00
    1.1290556008E+00    1.1408287285E+00    1.1526612194E+00    1.1645506875E+00
    1.1764946131E+00    1.1884903383E+00    1.2005350620E+00    1.2126258355E+00
    1.2247595572E+00    1.2369329674E+00    1.2491426433E+00    1.2613849939E+00
    1.2736562540E+00    1.2859524792E+00    1.2982695401E+00    1.3106031166E+00
    1.3229486920E+00    1.3353015473E+00    1.3476567549E+00    1.3600091729E+00
    1.3723534386E+00    1.3846839624E+00    1.3969949217E+00    1.4092802543E+00
    1.4215336520E+00    1.4337485544E+00    1.4459181424E+00    1.4580353315E+00
    1.4700927655E+00    1.4820828103E+00    1.4939975468E+00    1.5058287652E+00
    1.5175679584E+00    1.5292063156E+00    1.5407347163E+00    1.5521437245E+00
    1.5634235823E+00    1.5745642048E+00    1.5855551742E+00    1.5963857346E+00
    1.6070447870E+00    1.6175208848E+00    1.6278022290E+00    1.6378766646E+00
    1.6477316770E+00    1.6573543883E+00    1.6667315555E+00    1.6758495678E+00
    1.6846944452E+00    1.6932518380E+00    1.7015070266E+00    1.7094449218E+00
    1.7170500669E+00    1.7243066397E+00    1.7311984562E+00    1.7377089750E+00
    1.7438213030E+00    1.7495182022E+00    1.7547820979E+00    1.7595950883E+00
    1.7639389557E+00    1.7677951791E+00    1.7711449486E+00    1.7739691817E+00
    1.7762485414E+00    1.7779634566E+00    1.7790941440E+00    1.7796206333E+00
    1.7795227941E+00    1.7787803652E+00    1.7773729876E+00    1.7752802387E+00
    1.7724816715E+00    1.7689568546E+00    1.7646854177E+00    1.7596470988E+00
    1.7538217957E+00    1.7471896212E+00    1.7397309617E+00    1.7314265403E+00
    1.7222574837E+00    1.7122053930E+00    1.7012524200E+00    1.6893813462E+00
    1.6765756685E+00    1.6628196875E+00    1.6480986024E+00    1.6323986093E+00
    1.6157070056E+00    1.5980122981E+00    1.5793043172E+00    1.5595743355E+00
    1.5388151906E+00    1.5170214143E+00    1.4941893643E+00    1.4703173624E+00
    1.4454058353E+00    1.4194574602E+00    1.3924773136E+00    1.3644730232E+00
    1.3354549224E+00    1.3054362068E+00    1.2744330917E+00    1.2424649702E+00
    1.2095545705E+00    1.1757281117E+00    1.1410154564E+00    1.1054502586E+00
    1.0690701063E+00    1.0319166552E+00    9.9403575289E-01    9.5547755017E-01
    9.1629659772E-01    8.7655192421E-01    8.3630709316E-01    7.9563023444E-01
    7.5459404653E-01    7.1327576452E-01    6.7175708896E-01    6.3012406958E-01
    5.8846693759E-01    5.4687987918E-01    5.0546074256E-01    4.6431066950E-01
    4.2353364164E-01    3.8323593081E-01    3.4352544115E-01    3.0451092987E-01
    2.6630109181E-01    2.2900349141E-01    1.9272332413E-01    1.5756198709E-01
    1.2361543696E-01    9.0972310494E-02    5.9711780629E-02    2.9901118134E-02
    1.5929256691E-03   -2.5177988369E-02   -5.0397728720E-02   -7.4068225220E-02
   -9.6195885407E-02   -1.1678974571E-01   -1.3586150173E-01   -1.5342553209E-01
   -1.6949891280E-01   -1.8410142198E-01   -1.9725553458E-01   -2.0898640650E-01
   -2.1932184752E-01   -2.2829228270E-01   -2.3593070170E-01   -2.4227259564E-01
   -2.4735588124E-01   -2.5122081185E-01   -2.5390987530E-01   -2.5546767845E-01
   -2.5594081776E-01   -2.5537773825E-01   -2.5382857697E-01   -2.5134499634E-01
   -2.4798000350E-01   -2.4378775931E-01   -2.3882337659E-01   -2.3314270905E-01
   -2.2680213234E-01   -2.1985831888E-01   -2.1236800831E-01   -2.0438777595E-01
   -1.9597380165E-01   -1.8718164199E-01   -1.7806600895E-01   -1.6868055837E-01
   -1.5907769201E-01   -1.4930837685E-01   -1.3942198562E-01   -1.2946616248E-01
   -1.1948671744E-01   -1.0952755317E-01   -9.9630627044E-02   -8.9835950999E-02
   -8.0181630603E-02   -7.0703944176E-02   -6.1437461388E-02   -5.2415199611E-02
   -4.3668814887E-02   -3.5228822762E-02   -2.7124842576E-02   -1.9385856794E-02
   -1.2040474692E-02   -5.1171869254E-03    1.3554060863E-03    7.3484136129E-03
    1.2832549622E-02    1.7778138815E-02    2.2155278823E-02    2.5934215007E-02
    2.9085996459E-02    3.1583492664E-02    3.3402856429E-02    3.4525514232E-02
    3.4940742067E-02    3.4648832941E-02    3.3664770400E-02    3.2022182738E-02
    2.9777164713E-02    2.7011334098E-02    2.3833280542E-02    2.0377435833E-02
    1.6799444939E-02    1.3267445947E-02    9.9493270803E-03    6.9969901491E-03
    4.5296630591E-03    2.6191521894E-03    1.2840484963E-03    4.7887059579E-04
    9.9033548028E-05    1.1675645840E-06    6.4990899577E-08   -2.5743417015E-11
    0.0000000000E+00    0.0000000000E+00    0.0000000000E+00    0.0000000000E+00
    0.0000000000E+00    0.0000000000E+00    0.0000000000E+00    0.0000000000E+00
 0. 0. 0. 0.
 0. 0. 0. 0.
 0. 0. 0. 0.
 0. 0. 0. 0.
 0. 0. 0. 0.
 0. 0. 0. 0.
 0. 0. 0. 0.
 0. 0. 0. 0.
 0. 0. 0. 0.
 0. 0. 0. 0.
 0. 0. 0. 0.
 0. 0. 0. 0.
 0. 0. 0. 0.
 0. 0. 0. 0.
 0. 0. 0. 0.
 0. 0. 0. 0.
 0. 0. 0. 0.
 0. 0. 0. 0.
 0. 0. 0. 0.
 0. 0. 0. 0.
 0. 0. 0. 0.
 0. 0. 0. 0.
 0. 0. 0. 0.
 0. 0. 0. 0.
 0. 0. 0. 0.
 0. 0. 0. 0.
 0. 0. 0. 0.
 0. 0. 0. 0.
 0. 0. 0. 0.
 0. 0. 0. 0.
 0. 0. 0. 0.
 0. 0. 0. 0.
 0. 0. 0. 0.
 0. 0. 0. 0.
 0. 0. 0. 0.
 0. 0. 0. 0.
 0. 0. 0. 0.
 0. 0. 0. 0.
 0. 0. 0. 0.
 0. 0.
   </PP_BETA.1>
   <PP_BETA.2
       type="real"
       size="1026"
       columns="4"
       index="2"
       angular_momentum="0"
       cutoff_radius_index=" 868"
       cutoff_radius="    2.1205826603E+00" >
    0.0000000000E+00   -4.7861200276E-04   -4.8463220034E-04   -4.9072812266E-04
   -4.9690072223E-04   -5.0315096354E-04   -5.0947982319E-04   -5.1588829008E-04
   -5.2237736555E-04   -5.2894806353E-04   -5.3560141069E-04   -5.4233844664E-04
   -5.4916022406E-04   -5.5606780886E-04   -5.6306228036E-04   -5.7014473146E-04
   -5.7731626881E-04   -5.8457801297E-04   -5.9193109862E-04   -5.9937667467E-04
   -6.0691590451E-04   -6.1454996617E-04   -6.2228005248E-04   -6.3010737128E-04
   -6.3803314561E-04   -6.4605861388E-04   -6.5418503008E-04   -6.6241366398E-04
   -6.7074580133E-04   -6.7918274403E-04   -6.8772581038E-04   -6.9637633523E-04
   -7.0513567026E-04   -7.1400518413E-04   -7.2298626270E-04   -7.3208030930E-04
   -7.4128874488E-04   -7.5061300828E-04   -7.6005455643E-04   -7.6961486459E-04
   -7.7929542658E-04   -7.8909775499E-04   -7.9902338147E-04   -8.0907385691E-04
   -8.1925075171E-04   -8.2955565603E-04   -8.3999018003E-04   -8.5055595412E-04
   -8.6125462923E-04   -8.7208787703E-04   -8.8305739025E-04   -8.9416488289E-04
   -9.0541209051E-04   -9.1680077051E-04   -9.2833270239E-04   -9.4000968803E-04
   -9.5183355198E-04   -9.6380614174E-04   -9.7592932805E-04   -9.8820500517E-04
   -1.0006350912E-03   -1.0132215284E-03   -1.0259662833E-03   -1.0388713474E-03
   -1.0519387371E-03   -1.0651704943E-03   -1.0785686863E-03   -1.0921354067E-03
   -1.1058727753E-03   -1.1197829386E-03   -1.1338680700E-03   -1.1481303704E-03
   -1.1625720684E-03   -1.1771954203E-03   -1.1920027113E-03   -1.2069962548E-03
   -1.2221783937E-03   -1.2375515002E-03   -1.2531179764E-03   -1.2688802546E-03
   -1.2848407976E-03   -1.3010020993E-03   -1.3173666849E-03   -1.3339371114E-03
   -1.3507159680E-03   -1.3677058763E-03   -1.3849094912E-03   -1.4023295006E-03
   -1.4199686264E-03   -1.4378296248E-03   -1.4559152867E-03   -1.4742284378E-03
   -1.4927719397E-03   -1.5115486897E-03   -1.5305616219E-03   -1.5498137069E-03
   -1.5693079529E-03   -1.5890474060E-03   -1.6090351504E-03   -1.6292743093E-03
   -1.6497680450E-03   -1.6705195596E-03   -1.6915320957E-03   -1.7128089365E-03
   -1.7343534064E-03   -1.7561688719E-03   -1.7782587416E-03   -1.8006264671E-03
   -1.8232755433E-03   -1.8462095091E-03   -1.8694319481E-03   -1.8929464888E-03
   -1.9167568052E-03   -1.9408666178E-03   -1.9652796938E-03   -1.9899998476E-03
   -2.0150309419E-03   -2.0403768878E-03   -2.0660416455E-03   -2.0920292252E-03
   -2.1183436874E-03   -2.1449891439E-03   -2.1719697579E-03   -2.1992897452E-03
   -2.2269533745E-03   -2.2549649683E-03   -2.2833289033E-03   -2.3120496115E-03
   -2.3411315804E-03   -2.3705793542E-03   -2.4003975339E-03   -2.4305907787E-03
   -2.4611638063E-03   -2.4921213937E-03   -2.5234683780E-03   -2.5552096571E-03
   -2.5873501906E-03   -2.6198950005E-03   -2.6528491718E-03   -2.6862178535E-03
   -2.7200062597E-03   -2.7542196695E-03   -2.7888634289E-03   -2.8239429508E-03
   -2.8594637165E-03   -2.8954312760E-03   -2.9318512491E-03   -2.9687293265E-03
   -3.0060712702E-03   -3.0438829150E-03   -3.0821701687E-03   -3.1209390137E-03
   -3.1601955076E-03   -3.1999457842E-03   -3.2401960542E-03   -3.2809526067E-03
   -3.3222218099E-03   -3.3640101119E-03   -3.4063240421E-03   -3.4491702119E-03
   -3.4925553158E-03   -3.5364861328E-03   -3.5809695267E-03   -3.6260124481E-03
   -3.6716219348E-03   -3.7178051129E-03   -3.7645691986E-03   -3.8119214985E-03
   -3.8598694112E-03   -3.9084204284E-03   -3.9575821360E-03   -4.0073622153E-03
   -4.0577684441E-03   -4.1088086983E-03   -4.1604909526E-03   -4.2128232822E-03
   -4.2658138636E-03   -4.3194709763E-03   -4.3738030040E-03   -4.4288184358E-03
   -4.4845258675E-03   -4.5409340029E-03   -4.5980516556E-03   -4.6558877497E-03
   -4.7144513219E-03   -4.7737515221E-03   -4.8337976157E-03   -4.8945989843E-03
   -4.9561651278E-03   -5.0185056653E-03   -5.0816303371E-03   -5.1455490058E-03
   -5.2102716581E-03   -5.2758084064E-03   -5.3421694902E-03   -5.4093652778E-03
   -5.4774062677E-03   -5.5463030908E-03   -5.6160665115E-03   -5.6867074295E-03
   -5.7582368816E-03   -5.8306660435E-03   -5.9040062315E-03   -5.9782689039E-03
   -6.0534656635E-03   -6.1296082587E-03   -6.2067085858E-03   -6.2847786907E-03
   -6.3638307707E-03   -6.4438771765E-03   -6.5249304142E-03   -6.6070031472E-03
   -6.6901081979E-03   -6.7742585502E-03   -6.8594673512E-03   -6.9457479132E-03
   -7.0331137162E-03   -7.1215784093E-03   -7.2111558136E-03   -7.3018599237E-03
   -7.3937049105E-03   -7.4867051228E-03   -7.5808750899E-03   -7.6762295239E-03
   -7.7727833218E-03   -7.8705515680E-03   -7.9695495363E-03   -8.0697926930E-03
   -8.1712966985E-03   -8.2740774102E-03   -8.3781508850E-03   -8.4835333816E-03
   -8.5902413630E-03   -8.6982914994E-03   -8.8077006705E-03   -8.9184859683E-03
   -9.0306646994E-03   -9.1442543884E-03   -9.2592727799E-03   -9.3757378418E-03
   -9.4936677678E-03   -9.6130809804E-03   -9.7339961334E-03   -9.8564321156E-03
   -9.9804080528E-03   -1.0105943312E-02   -1.0233057502E-02   -1.0361770480E-02
   -1.0492102351E-02   -1.0624073476E-02   -1.0757704467E-02   -1.0893016200E-02
   -1.1030029809E-02   -1.1168766698E-02   -1.1309248536E-02   -1.1451497267E-02
   -1.1595535110E-02   -1.1741384564E-02   -1.1889068408E-02   -1.2038609712E-02
   -1.2190031831E-02   -1.2343358417E-02   -1.2498613417E-02   -1.2655821081E-02
   -1.2815005962E-02   -1.2976192923E-02   -1.3139407139E-02   -1.3304674099E-02
   -1.3472019616E-02   -1.3641469825E-02   -1.3813051191E-02   -1.3986790509E-02
   -1.4162714913E-02   -1.4340851876E-02   -1.4521229220E-02   -1.4703875111E-02
   -1.4888818072E-02   -1.5076086985E-02   -1.5265711093E-02   -1.5457720008E-02
   -1.5652143711E-02   -1.5849012563E-02   -1.6048357305E-02   -1.6250209064E-02
   -1.6454599357E-02   -1.6661560098E-02   -1.6871123602E-02   -1.7083322588E-02
   -1.7298190189E-02   -1.7515759951E-02   -1.7736065843E-02   -1.7959142259E-02
   -1.8185024026E-02   -1.8413746408E-02   -1.8645345112E-02   -1.8879856291E-02
   -1.9117316556E-02   -1.9357762973E-02   -1.9601233077E-02   -1.9847764871E-02
   -2.0097396836E-02   -2.0350167938E-02   -2.0606117629E-02   -2.0865285857E-02
   -2.1127713071E-02   -2.1393440229E-02   -2.1662508800E-02   -2.1934960776E-02
   -2.2210838673E-02   -2.2490185544E-02   -2.2773044977E-02   -2.3059461111E-02
   -2.3349478636E-02   -2.3643142802E-02   -2.3940499430E-02   -2.4241594910E-02
   -2.4546476218E-02   -2.4855190916E-02   -2.5167787163E-02   -2.5484313722E-02
   -2.5804819967E-02   -2.6129355890E-02   -2.6457972109E-02   -2.6790719877E-02
   -2.7127651089E-02   -2.7468818289E-02   -2.7814274680E-02   -2.8164074130E-02
   -2.8518271183E-02   -2.8876921063E-02   -2.9240079690E-02   -2.9607803678E-02
   -2.9980150355E-02   -3.0357177762E-02   -3.0738944668E-02   -3.1125510578E-02
   -3.1516935739E-02   -3.1913281153E-02   -3.2314608584E-02   -3.2720980569E-02
   -3.3132460425E-02   -3.3549112262E-02   -3.3971000990E-02   -3.4398192331E-02
   -3.4830752827E-02   -3.5268749850E-02   -3.5712251616E-02   -3.6161327191E-02
   -3.6616046502E-02   -3.7076480351E-02   -3.7542700421E-02   -3.8014779291E-02
   -3.8492790445E-02   -3.8976808281E-02   -3.9466908128E-02   -3.9963166251E-02
   -4.0465659866E-02   -4.0974467152E-02   -4.1489667260E-02   -4.2011340328E-02
   -4.2539567490E-02   -4.3074430891E-02   -4.3616013698E-02   -4.4164400110E-02
   -4.4719675375E-02   -4.5281925802E-02   -4.5851238770E-02   -4.6427702743E-02
   -4.7011407286E-02   -4.7602443075E-02   -4.8200901911E-02   -4.8806876733E-02
   -4.9420461635E-02   -5.0041751874E-02   -5.0670843891E-02   -5.1307835319E-02
   -5.1952825003E-02   -5.2605913007E-02   -5.3267200638E-02   -5.3936790452E-02
   -5.4614786274E-02   -5.5301293214E-02   -5.5996417677E-02   -5.6700267384E-02
   -5.7412951383E-02   -5.8134580069E-02   -5.8865265196E-02   -5.9605119897E-02
   -6.0354258696E-02   -6.1112797527E-02   -6.1880853750E-02   -6.2658546169E-02
   -6.3445995046E-02   -6.4243322120E-02   -6.5050650623E-02   -6.5868105300E-02
   -6.6695812423E-02   -6.7533899812E-02   -6.8382496849E-02   -6.9241734499E-02
   -7.0111745329E-02   -7.0992663522E-02   -7.1884624901E-02   -7.2787766944E-02
   -7.3702228801E-02   -7.4628151319E-02   -7.5565677057E-02   -7.6514950306E-02
   -7.7476117108E-02   -7.8449325276E-02   -7.9434724415E-02   -8.0432465941E-02
   -8.1442703100E-02   -8.2465590990E-02   -8.3501286579E-02   -8.4549948729E-02
   -8.5611738214E-02   -8.6686817741E-02   -8.7775351971E-02   -8.8877507543E-02
   -8.9993453090E-02   -9.1123359264E-02   -9.2267398756E-02   -9.3425746320E-02
   -9.4598578790E-02   -9.5786075107E-02   -9.6988416336E-02   -9.8205785692E-02
   -9.9438368561E-02   -1.0068635252E-01   -1.0194992736E-01   -1.0322928512E-01
   -1.0452462008E-01   -1.0583612881E-01   -1.0716401020E-01   -1.0850846545E-01
   -1.0986969810E-01   -1.1124791410E-01   -1.1264332176E-01   -1.1405613182E-01
   -1.1548655747E-01   -1.1693481434E-01   -1.1840112058E-01   -1.1988569681E-01
   -1.2138876622E-01   -1.2291055453E-01   -1.2445129003E-01   -1.2601120364E-01
   -1.2759052887E-01   -1.2918950188E-01   -1.3080836152E-01   -1.3244734929E-01
   -1.3410670942E-01   -1.3578668887E-01   -1.3748753736E-01   -1.3920950735E-01
   -1.4095285414E-01   -1.4271783580E-01   -1.4450471327E-01   -1.4631375033E-01
   -1.4814521363E-01   -1.4999937272E-01   -1.5187650006E-01   -1.5377687104E-01
   -1.5570076401E-01   -1.5764846027E-01   -1.5962024412E-01   -1.6161640285E-01
   -1.6363722677E-01   -1.6568300920E-01   -1.6775404655E-01   -1.6985063825E-01
   -1.7197308682E-01   -1.7412169786E-01   -1.7629678007E-01   -1.7849864525E-01
   -1.8072760833E-01   -1.8298398734E-01   -1.8526810348E-01   -1.8758028104E-01
   -1.8992084751E-01   -1.9229013348E-01   -1.9468847272E-01   -1.9711620214E-01
   -1.9957366181E-01   -2.0206119494E-01   -2.0457914791E-01   -2.0712787021E-01
   -2.0970771451E-01   -2.1231903656E-01   -2.1496219526E-01   -2.1763755262E-01
   -2.2034547372E-01   -2.2308632674E-01   -2.2586048288E-01   -2.2866831642E-01
   -2.3151020463E-01   -2.3438652776E-01   -2.3729766903E-01   -2.4024401459E-01
   -2.4322595345E-01   -2.4624387751E-01   -2.4929818146E-01   -2.5238926276E-01
   -2.5551752159E-01   -2.5868336081E-01   -2.6188718586E-01   -2.6512940476E-01
   -2.6841042801E-01   -2.7173066852E-01   -2.7509054156E-01   -2.7849046465E-01
   -2.8193085752E-01   -2.8541214198E-01   -2.8893474185E-01   -2.9249908285E-01
   -2.9610559252E-01   -2.9975470007E-01   -3.0344683629E-01   -3.0718243343E-01
   -3.1096192504E-01   -3.1478574587E-01   -3.1865433169E-01   -3.2256811917E-01
   -3.2652754569E-01   -3.3053304918E-01   -3.3458506796E-01   -3.3868404052E-01
   -3.4283040536E-01   -3.4702460076E-01   -3.5126706455E-01   -3.5555823394E-01
   -3.5989854519E-01   -3.6428843348E-01   -3.6872833252E-01   -3.7321867440E-01
   -3.7775988919E-01   -3.8235240473E-01   -3.8699664627E-01   -3.9169303615E-01
   -3.9644199349E-01   -4.0124393376E-01   -4.0609926848E-01   -4.1100840481E-01
   -4.1597174510E-01   -4.2098968655E-01   -4.2606262066E-01   -4.3119093287E-01
   -4.3637500200E-01   -4.4161519980E-01   -4.4691189041E-01   -4.5226542978E-01
   -4.5767616517E-01   -4.6314443447E-01   -4.6867056568E-01   -4.7425487620E-01
   -4.7989767216E-01   -4.8559924778E-01   -4.9135988459E-01   -4.9717985069E-01
   -5.0305940001E-01   -5.0899877142E-01   -5.1499818795E-01   -5.2105785588E-01
   -5.2717796382E-01   -5.3335868177E-01   -5.3960016016E-01   -5.4590252877E-01
   -5.5226589570E-01   -5.5869034626E-01   -5.6517594184E-01   -5.7172271869E-01
   -5.7833068670E-01   -5.8499982811E-01   -5.9173009620E-01   -5.9852141391E-01
   -6.0537367238E-01   -6.1228672953E-01   -6.1926040846E-01   -6.2629449589E-01
   -6.3338874055E-01   -6.4054285139E-01   -6.4775649591E-01   -6.5502929824E-01
   -6.6236083733E-01   -6.6975064493E-01   -6.7719820361E-01   -6.8470294462E-01
   -6.9226424575E-01   -6.9988142910E-01   -7.0755375873E-01   -7.1528043829E-01
   -7.2306060854E-01   -7.3089334480E-01   -7.3877765430E-01   -7.4671247347E-01
   -7.5469666511E-01   -7.6272901553E-01   -7.7080823149E-01   -7.7893293718E-01
   -7.8710167102E-01   -7.9531288234E-01   -8.0356492806E-01   -8.1185606919E-01
   -8.2018446721E-01   -8.2854818046E-01   -8.3694516025E-01   -8.4537324705E-01
   -8.5383016642E-01   -8.6231352489E-01   -8.7082080573E-01   -8.7934936464E-01
   -8.8789642520E-01   -8.9645907437E-01   -9.0503425772E-01   -9.1361877469E-01
   -9.2220927359E-01   -9.3080224656E-01   -9.3939402446E-01   -9.4798077148E-01
   -9.5655847982E-01   -9.6512296413E-01   -9.7366985589E-01   -9.8219459766E-01
   -9.9069243719E-01   -9.9915842151E-01   -1.0075873908E+00   -1.0159739723E+00
   -1.0243125738E+00   -1.0325973777E+00   -1.0408223342E+00   -1.0489811548E+00
   -1.0570673058E+00   -1.0650740018E+00   -1.0729941984E+00   -1.0808205861E+00
   -1.0885455829E+00   -1.0961613278E+00   -1.1036596740E+00   -1.1110321815E+00
   -1.1182701109E+00   -1.1253644164E+00   -1.1323057384E+00   -1.1390843979E+00
   -1.1456903890E+00   -1.1521133725E+00   -1.1583426702E+00   -1.1643672576E+00
   -1.1701757589E+00   -1.1757564405E+00   -1.1810972058E+00   -1.1861855897E+00
   -1.1910087539E+00   -1.1955534820E+00   -1.1998061757E+00   -1.2037528507E+00
   -1.2073791338E+00   -1.2106702597E+00   -1.2136110698E+00   -1.2161860097E+00
   -1.2183791296E+00   -1.2201740835E+00   -1.2215541308E+00   -1.2225021376E+00
   -1.2230005803E+00   -1.2230315490E+00   -1.2225767529E+00   -1.2216175267E+00
   -1.2201348385E+00   -1.2181092989E+00   -1.2155211718E+00   -1.2123503870E+00
   -1.2085765542E+00   -1.2041789796E+00   -1.1991366837E+00   -1.1934284218E+00
   -1.1870327066E+00   -1.1799278331E+00   -1.1720919067E+00   -1.1635028730E+00
   -1.1541385511E+00   -1.1439766700E+00   -1.1329949081E+00   -1.1211709355E+00
   -1.1084824607E+00   -1.0949072804E+00   -1.0804233331E+00   -1.0650087572E+00
   -1.0486419531E+00   -1.0313016492E+00   -1.0129669731E+00   -9.9361752746E-01
   -9.7323347017E-01   -9.5179560022E-01   -9.2928544845E-01   -9.0568537368E-01
   -8.8097866439E-01   -8.5514964603E-01   -8.2818379399E-01   -8.0006785244E-01
   -7.7078995905E-01   -7.4033977572E-01   -7.0870862521E-01   -6.7588963379E-01
   -6.4187787982E-01   -6.0667054823E-01   -5.7026709068E-01   -5.3266939138E-01
   -4.9388193822E-01   -4.5391199905E-01   -4.1276980268E-01   -3.7046872423E-01
   -3.2702547441E-01   -2.8246029200E-01   -2.3679713904E-01   -1.9006389788E-01
   -1.4229256924E-01   -9.3519470304E-02   -4.3785431765E-02    6.8640074836E-03
    5.8378409306E-02    1.1070225051E-01    1.6377474395E-01    2.1752966837E-01
    2.7189520908E-01    3.2679381158E-01    3.8214205072E-01    4.3785051778E-01
    4.9382372843E-01    5.4996005466E-01    6.0615168360E-01    6.6228460712E-01
    7.1823864542E-01    7.7388750883E-01    8.2909890155E-01    8.8373467186E-01
    9.3765101297E-01    9.9069871910E-01    1.0427235015E+00    1.0935663692E+00
    1.1430640786E+00    1.1910496581E+00    1.2373530101E+00    1.2818015973E+00
    1.3242212155E+00    1.3644368577E+00    1.4022736725E+00    1.4375580188E+00
    1.4701186202E+00    1.4997878175E+00    1.5264029208E+00    1.5498076573E+00
    1.5698537126E+00    1.5864023583E+00    1.5993261569E+00    1.6085107337E+00
    1.6138565997E+00    1.6152810059E+00    1.6127198070E+00    1.6061293034E+00
    1.5954880286E+00    1.5807984379E+00    1.5620884513E+00    1.5394127894E+00
    1.5128540361E+00    1.4825233471E+00    1.4485607129E+00    1.4111346691E+00
    1.3704413332E+00    1.3267026271E+00    1.2801635273E+00    1.2310881619E+00
    1.1797545489E+00    1.1264477464E+00    1.0714511517E+00    1.0150356589E+00
    9.5744634466E-01    8.9888633140E-01    8.3949908201E-01    7.7938313303E-01
    7.1863536515E-01    6.5735843142E-01    5.9566074781E-01    5.3365645159E-01
    4.7146533532E-01    4.0921275154E-01    3.4702948543E-01    2.8505159297E-01
    2.2342020186E-01    1.6228127269E-01    1.0178531747E-01    4.2087073152E-02
   -1.6654872518E-02   -7.4278505135E-02   -1.3061885990E-01   -1.8550855293E-01
   -2.3877836488E-01   -2.9025789063E-01   -3.3977623456E-01   -3.8716277884E-01
   -4.3224800076E-01   -4.7486435637E-01   -5.1484722159E-01   -5.5203589325E-01
   -5.8627464912E-01   -6.1741386643E-01   -6.4531119816E-01   -6.6983280695E-01
   -6.9085465639E-01   -7.0826385993E-01   -7.2196008800E-01   -7.3185703443E-01
   -7.3788394292E-01   -7.3998719503E-01   -7.3813196003E-01   -7.3230390631E-01
   -7.2251097218E-01   -7.0878519139E-01   -6.9118456508E-01   -6.6979496724E-01
   -6.4473206500E-01   -6.1614322839E-01   -5.8420939631E-01   -5.4914685701E-01
   -5.1120889205E-01   -4.7068722280E-01   -4.2791318772E-01   -3.8325856687E-01
   -3.3713595586E-01   -2.8999857365E-01   -2.4233936525E-01   -1.9468922800E-01
   -1.4761414602E-01   -1.0171095803E-01   -5.7601407394E-02   -1.5924030541E-02
    2.2676661935E-02    5.7564351653E-02    8.8129122927E-02    1.1381038188E-01
    1.3412495610E-01    1.4870040067E-01    1.5731273629E-01    1.5992661045E-01
    1.5673419414E-01    1.4818713869E-01    1.3501397895E-01    1.1821411831E-01
    9.9019845977E-02    7.8820640701E-02    5.9049832519E-02    4.1042319449E-02
    2.5881301138E-02    1.4259945182E-02    6.4135150390E-03    2.0289468952E-03
    2.8300042649E-04    1.6086964245E-07   -2.9590019788E-08   -2.4815000169E-10
    0.0000000000E+00    0.0000000000E+00    0.0000000000E+00    0.0000000000E+00
    0.0000000000E+00    0.0000000000E+00    0.0000000000E+00    0.0000000000E+00
 0. 0. 0. 0.
 0. 0. 0. 0.
 0. 0. 0. 0.
 0. 0. 0. 0.
 0. 0. 0. 0.
 0. 0. 0. 0.
 0. 0. 0. 0.
 0. 0. 0. 0.
 0. 0. 0. 0.
 0. 0. 0. 0.
 0. 0. 0. 0.
 0. 0. 0. 0.
 0. 0. 0. 0.
 0. 0. 0. 0.
 0. 0. 0. 0.
 0. 0. 0. 0.
 0. 0. 0. 0.
 0. 0. 0. 0.
 0. 0. 0. 0.
 0. 0. 0. 0.
 0. 0. 0. 0.
 0. 0. 0. 0.
 0. 0. 0. 0.
 0. 0. 0. 0.
 0. 0. 0. 0.
 0. 0. 0. 0.
 0. 0. 0. 0.
 0. 0. 0. 0.
 0. 0. 0. 0.
 0. 0. 0. 0.
 0. 0. 0. 0.
 0. 0. 0. 0.
 0. 0. 0. 0.
 0. 0. 0. 0.
 0. 0. 0. 0.
 0. 0. 0. 0.
 0. 0. 0. 0.
 0. 0. 0. 0.
 0. 0. 0. 0.
 0. 0.
   </PP_BETA.2>
   <PP_BETA.3
       type="real"
       size="1026"
       columns="4"
       index="3"
       angular_momentum="1"
       cutoff_radius_index=" 868"
       cutoff_radius="    2.1205826603E+00" >
    0.0000000000E+00   -3.7002361995E-08   -3.7939081494E-08   -3.8899512806E-08
   -3.9884259296E-08   -4.0893934262E-08   -4.1929168143E-08   -4.2990610077E-08
   -4.4078923501E-08   -4.5194786300E-08   -4.6338897279E-08   -4.7511972197E-08
   -4.8714744737E-08   -4.9947963196E-08   -5.1212401546E-08   -5.2508850155E-08
   -5.3838117877E-08   -5.5201036210E-08   -5.6598458303E-08   -5.8031253210E-08
   -5.9500322826E-08   -6.1006580069E-08   -6.2550968248E-08   -6.4134453389E-08
   -6.5758025905E-08   -6.7422698134E-08   -6.9129510432E-08   -7.0879533140E-08
   -7.2673857485E-08   -7.4513605303E-08   -7.6399925635E-08   -7.8333997995E-08
   -8.0317033593E-08   -8.2350268079E-08   -8.4434975714E-08   -8.6572456673E-08
   -8.8764048985E-08   -9.1011121364E-08   -9.3315078928E-08   -9.5677361092E-08
   -9.8099445301E-08   -1.0058284430E-07   -1.0312911091E-07   -1.0573983664E-07
   -1.0841665397E-07   -1.1116123409E-07   -1.1397529436E-07   -1.1686059216E-07
   -1.1981893202E-07   -1.2285216311E-07   -1.2596217944E-07   -1.2915092704E-07
   -1.3242039812E-07   -1.3577263629E-07   -1.3920973705E-07   -1.4273384845E-07
   -1.4634717254E-07   -1.5005196740E-07   -1.5385055197E-07   -1.5774529665E-07
   -1.6173863758E-07   -1.6583307053E-07   -1.7003115432E-07   -1.7433551317E-07
   -1.7874883782E-07   -1.8327388522E-07   -1.8791348488E-07   -1.9267053810E-07
   -1.9754801523E-07   -2.0254896713E-07   -2.0767651729E-07   -2.1293387411E-07
   -2.1832431935E-07   -2.2385122564E-07   -2.2951804505E-07   -2.3532832187E-07
   -2.4128568582E-07   -2.4739386084E-07   -2.5365666553E-07   -2.6007801464E-07
   -2.6666192006E-07   -2.7341249770E-07   -2.8033396747E-07   -2.8743065492E-07
   -2.9470699463E-07   -3.0216753815E-07   -3.0981694491E-07   -3.1765999694E-07
   -3.2570159599E-07   -3.3394676973E-07   -3.4240067266E-07   -3.5106858553E-07
   -3.5995592680E-07   -3.6906825288E-07   -3.7841125995E-07   -3.8799078372E-07
   -3.9781281654E-07   -4.0788349340E-07   -4.1820911141E-07   -4.2879612385E-07
   -4.3965114710E-07   -4.5078096655E-07   -4.6219253891E-07   -4.7389299714E-07
   -4.8588965282E-07   -4.9819000461E-07   -5.1080174191E-07   -5.2373274673E-07
   -5.3699110154E-07   -5.5058509229E-07   -5.6452321795E-07   -5.7881418748E-07
   -5.9346693378E-07   -6.0849061775E-07   -6.2389462590E-07   -6.3968858943E-07
   -6.5588237905E-07   -6.7248611521E-07   -6.8951017717E-07   -7.0696520549E-07
   -7.2486210899E-07   -7.4321207499E-07   -7.6202657255E-07   -7.8131736001E-07
   -8.0109649659E-07   -8.2137634376E-07   -8.4216957783E-07   -8.6348919387E-07
   -8.8534851879E-07   -9.0776121450E-07   -9.3074129025E-07   -9.5430310775E-07
   -9.7846139662E-07   -1.0032312528E-06   -1.0286281622E-06   -1.0546679963E-06
   -1.0813670316E-06   -1.1087419553E-06   -1.1368098784E-06   -1.1655883430E-06
   -1.1950953368E-06   -1.2253493033E-06   -1.2563691526E-06   -1.2881742708E-06
   -1.3207845384E-06   -1.3542203401E-06   -1.3885025703E-06   -1.4236526584E-06
   -1.4596925747E-06   -1.4966448442E-06   -1.5345325641E-06   -1.5733794143E-06
   -1.6132096773E-06   -1.6540482455E-06   -1.6959206459E-06   -1.7388530486E-06
   -1.7828722900E-06   -1.8280058814E-06   -1.8742820324E-06   -1.9217296691E-06
   -1.9703784465E-06   -2.0202587710E-06   -2.0714018206E-06   -2.1238395589E-06
   -2.1776047636E-06   -2.2327310367E-06   -2.2892528367E-06   -2.3472054896E-06
   -2.4066252193E-06   -2.4675491620E-06   -2.5300153978E-06   -2.5940629714E-06
   -2.6597319132E-06   -2.7270632685E-06   -2.7960991201E-06   -2.8668826201E-06
   -2.9394580073E-06   -3.0138706448E-06   -3.0901670428E-06   -3.1683948866E-06
   -3.2486030733E-06   -3.3308417345E-06   -3.4151622702E-06   -3.5016173852E-06
   -3.5902611149E-06   -3.6811488633E-06   -3.7743374405E-06   -3.8698850883E-06
   -3.9678515282E-06   -4.0682979922E-06   -4.1712872620E-06   -4.2768837080E-06
   -4.3851533315E-06   -4.4961638028E-06   -4.6099845046E-06   -4.7266865821E-06
   -4.8463429733E-06   -4.9690284680E-06   -5.0948197476E-06   -5.2237954347E-06
   -5.3560361405E-06   -5.4916245224E-06   -5.6306453229E-06   -5.7731854341E-06
   -5.9193339481E-06   -6.0691822097E-06   -6.2228238785E-06   -6.3803549836E-06
   -6.5418739857E-06   -6.7074818375E-06   -6.8772820468E-06   -7.0513807443E-06
   -7.2298867425E-06   -7.4129116150E-06   -7.6005697532E-06   -7.7929784493E-06
   -7.9902579611E-06   -8.1925315927E-06   -8.3999257697E-06   -8.6125701168E-06
   -8.8305975406E-06   -9.0541443131E-06   -9.2833501527E-06   -9.5183583212E-06
   -9.7593157002E-06   -1.0006372890E-05   -1.0259684312E-05   -1.0519408285E-05
   -1.0785707139E-05   -1.1058747319E-05   -1.1338699478E-05   -1.1625738590E-05
   -1.1920044057E-05   -1.2221799825E-05   -1.2531194496E-05   -1.2848421445E-05
   -1.3173678944E-05   -1.3507170279E-05   -1.3849103890E-05   -1.4199693487E-05
   -1.4559158192E-05   -1.4927722675E-05   -1.5305617290E-05   -1.5693078226E-05
   -1.6090347649E-05   -1.6497673854E-05   -1.6915311423E-05   -1.7343521382E-05
   -1.7782571364E-05   -1.8232735778E-05   -1.8694295978E-05   -1.9167540439E-05
   -1.9652764940E-05   -2.0150272751E-05   -2.0660374810E-05   -2.1183389931E-05
   -2.1719645001E-05   -2.2269475174E-05   -2.2833224097E-05   -2.3411244106E-05
   -2.4003896466E-05   -2.4611551577E-05   -2.5234589221E-05   -2.5873398793E-05
   -2.6528379542E-05   -2.7199940825E-05   -2.7888502362E-05   -2.8594494494E-05
   -2.9318358456E-05   -3.0060546657E-05   -3.0821522949E-05   -3.1601762931E-05
   -3.2401754240E-05   -3.3221996855E-05   -3.4063003411E-05   -3.4925299517E-05
   -3.5809424092E-05   -3.6715929690E-05   -3.7645382852E-05   -3.8598364465E-05
   -3.9575470113E-05   -4.0577310455E-05   -4.1604511613E-05   -4.2657715549E-05
   -4.3737580482E-05   -4.4844781286E-05   -4.5980009920E-05   -4.7143975854E-05
   -4.8337406518E-05   -4.9561047754E-05   -5.0815664279E-05   -5.2102040170E-05
   -5.3420979346E-05   -5.4773306077E-05   -5.6159865489E-05   -5.7581524108E-05
   -5.9039170383E-05   -6.0533715256E-05   -6.2066092720E-05   -6.3637260411E-05
   -6.5248200200E-05   -6.6899918810E-05   -6.8593448444E-05   -7.0329847428E-05
   -7.2110200873E-05   -7.3935621355E-05   -7.5807249604E-05   -7.7726255227E-05
   -7.9693837424E-05   -8.1711225748E-05   -8.3779680874E-05   -8.5900495376E-05
   -8.8074994542E-05   -9.0304537201E-05   -9.2590516568E-05   -9.4934361120E-05
   -9.7337535482E-05   -9.9801541342E-05   -1.0232791839E-04   -1.0491824530E-04
   -1.0757414065E-04   -1.1029726403E-04   -1.1308931699E-04   -1.1595204416E-04
   -1.1888723431E-04   -1.2189672147E-04   -1.2498238608E-04   -1.2814615617E-04
   -1.3139000856E-04   -1.3471597008E-04   -1.3812611886E-04   -1.4162258559E-04
   -1.4520755490E-04   -1.4888326668E-04   -1.5265201750E-04   -1.5651616204E-04
   -1.6047811455E-04   -1.6454035036E-04   -1.6870540745E-04   -1.7297588800E-04
   -1.7735446001E-04   -1.8184385900E-04   -1.8644688970E-04   -1.9116642779E-04
   -1.9600542169E-04   -2.0096689442E-04   -2.0605394548E-04   -2.1126975277E-04
   -2.1661757460E-04   -2.2210075167E-04   -2.2772270923E-04   -2.3348695913E-04
   -2.3939710209E-04   -2.4545682987E-04   -2.5166992765E-04   -2.5804027633E-04
   -2.6457185496E-04   -2.7126874324E-04   -2.7813512406E-04   -2.8517528610E-04
   -2.9239362648E-04   -2.9979465355E-04   -3.0738298967E-04   -3.1516337407E-04
   -3.2314066586E-04   -3.3131984699E-04   -3.3970602541E-04   -3.4830443823E-04
   -3.5712045496E-04   -3.6615958091E-04   -3.7542746054E-04   -3.8492988105E-04
   -3.9467277594E-04   -4.0466222873E-04   -4.1490447671E-04   -4.2540591486E-04
   -4.3617309982E-04   -4.4721275396E-04   -4.5853176955E-04   -4.7013721311E-04
   -4.8203632973E-04   -4.9423654762E-04   -5.0674548271E-04   -5.1957094343E-04
   -5.3272093548E-04   -5.4620366691E-04   -5.6002755313E-04   -5.7420122222E-04
   -5.8873352023E-04   -6.0363351669E-04   -6.1891051030E-04   -6.3457403461E-04
   -6.5063386403E-04   -6.6710001985E-04   -6.8398277646E-04   -7.0129266778E-04
   -7.1904049372E-04   -7.3723732696E-04   -7.5589451975E-04   -7.7502371101E-04
   -7.9463683351E-04   -8.1474612129E-04   -8.3536411724E-04   -8.5650368087E-04
   -8.7817799628E-04   -9.0040058033E-04   -9.2318529101E-04   -9.4654633603E-04
   -9.7049828163E-04   -9.9505606154E-04   -1.0202349863E-03   -1.0460507526E-03
   -1.0725194533E-03   -1.0996575869E-03   -1.1274820681E-03   -1.1560102382E-03
   -1.1852598758E-03   -1.2152492077E-03   -1.2459969201E-03   -1.2775221704E-03
   -1.3098445987E-03   -1.3429843403E-03   -1.3769620377E-03   -1.4117988536E-03
   -1.4475164839E-03   -1.4841371708E-03   -1.5216837171E-03   -1.5601794995E-03
   -1.5996484835E-03   -1.6401152381E-03   -1.6816049505E-03   -1.7241434421E-03
   -1.7677571840E-03   -1.8124733136E-03   -1.8583196506E-03   -1.9053247150E-03
   -1.9535177438E-03   -2.0029287092E-03   -2.0535883371E-03   -2.1055281258E-03
   -2.1587803650E-03   -2.2133781560E-03   -2.2693554318E-03   -2.3267469775E-03
   -2.3855884521E-03   -2.4459164098E-03   -2.5077683224E-03   -2.5711826022E-03
   -2.6361986254E-03   -2.7028567560E-03   -2.7711983705E-03   -2.8412658828E-03
   -2.9131027701E-03   -2.9867535993E-03   -3.0622640539E-03   -3.1396809618E-03
   -3.2190523237E-03   -3.3004273421E-03   -3.3838564507E-03   -3.4693913455E-03
   -3.5570850153E-03   -3.6469917742E-03   -3.7391672940E-03   -3.8336686378E-03
   -3.9305542943E-03   -4.0298842127E-03   -4.1317198391E-03   -4.2361241528E-03
   -4.3431617044E-03   -4.4528986543E-03   -4.5654028120E-03   -4.6807436767E-03
   -4.7989924786E-03   -4.9202222215E-03   -5.0445077259E-03   -5.1719256737E-03
   -5.3025546531E-03   -5.4364752058E-03   -5.5737698740E-03   -5.7145232495E-03
   -5.8588220232E-03   -6.0067550364E-03   -6.1584133327E-03   -6.3138902114E-03
   -6.4732812824E-03   -6.6366845217E-03   -6.8042003288E-03   -6.9759315848E-03
   -7.1519837125E-03   -7.3324647375E-03   -7.5174853505E-03   -7.7071589714E-03
   -7.9016018146E-03   -8.1009329558E-03   -8.3052744004E-03   -8.5147511533E-03
   -8.7294912901E-03   -8.9496260305E-03   -9.1752898124E-03   -9.4066203683E-03
   -9.6437588031E-03   -9.8868496738E-03   -1.0136041070E-02   -1.0391484700E-02
   -1.0653335968E-02   -1.0921754072E-02   -1.1196902082E-02   -1.1478947034E-02
   -1.1768060025E-02   -1.2064416303E-02   -1.2368195365E-02   -1.2679581053E-02
   -1.2998761657E-02   -1.3325930016E-02   -1.3661283618E-02   -1.4005024714E-02
   -1.4357360419E-02   -1.4718502826E-02   -1.5088669117E-02   -1.5468081677E-02
   -1.5856968215E-02   -1.6255561878E-02   -1.6664101373E-02   -1.7082831093E-02
   -1.7512001241E-02   -1.7951867958E-02   -1.8402693453E-02   -1.8864746137E-02
   -1.9338300754E-02   -1.9823638524E-02   -2.0321047276E-02   -2.0830821596E-02
   -2.1353262963E-02   -2.1888679905E-02   -2.2437388137E-02   -2.2999710722E-02
   -2.3575978216E-02   -2.4166528827E-02   -2.4771708570E-02   -2.5391871430E-02
   -2.6027379522E-02   -2.6678603253E-02   -2.7345921488E-02   -2.8029721722E-02
   -2.8730400245E-02   -2.9448362314E-02   -3.0184022328E-02   -3.0937804003E-02
   -3.1710140546E-02   -3.2501474836E-02   -3.3312259602E-02   -3.4142957604E-02
   -3.4994041814E-02   -3.5865995600E-02   -3.6759312909E-02   -3.7674498454E-02
   -3.8612067892E-02   -3.9572548019E-02   -4.0556476945E-02   -4.1564404289E-02
   -4.2596891356E-02   -4.3654511327E-02   -4.4737849437E-02   -4.5847503163E-02
   -4.6984082400E-02   -4.8148209644E-02   -4.9340520165E-02   -5.0561662183E-02
   -5.1812297041E-02   -5.3093099368E-02   -5.4404757249E-02   -5.5747972383E-02
   -5.7123460233E-02   -5.8531950185E-02   -5.9974185681E-02   -6.1450924365E-02
   -6.2962938208E-02   -6.4511013630E-02   -6.6095951617E-02   -6.7718567818E-02
   -6.9379692646E-02   -7.1080171355E-02   -7.2820864115E-02   -7.4602646065E-02
   -7.6426407358E-02   -7.8293053190E-02   -8.0203503814E-02   -8.2158694531E-02
   -8.4159575666E-02   -8.6207112528E-02   -8.8302285341E-02   -9.0446089160E-02
   -9.2639533751E-02   -9.4883643461E-02   -9.7179457045E-02   -9.9528027473E-02
   -1.0193042170E-01   -1.0438772042E-01   -1.0690101774E-01   -1.0947142087E-01
   -1.1210004975E-01   -1.1478803662E-01   -1.1753652557E-01   -1.2034667201E-01
   -1.2321964215E-01   -1.2615661237E-01   -1.2915876853E-01   -1.3222730528E-01
   -1.3536342524E-01   -1.3856833816E-01   -1.4184326000E-01   -1.4518941193E-01
   -1.4860801922E-01   -1.5210031015E-01   -1.5566751471E-01   -1.5931086328E-01
   -1.6303158524E-01   -1.6683090739E-01   -1.7071005236E-01   -1.7467023686E-01
   -1.7871266981E-01   -1.8283855040E-01   -1.8704906596E-01   -1.9134538973E-01
   -1.9572867850E-01   -2.0020007010E-01   -2.0476068072E-01   -2.0941160209E-01
   -2.1415389849E-01   -2.1898860360E-01   -2.2391671713E-01   -2.2893920133E-01
   -2.3405697722E-01   -2.3927092070E-01   -2.4458185837E-01   -2.4999056323E-01
   -2.5549775000E-01   -2.6110407038E-01   -2.6681010789E-01   -2.7261637261E-01
   -2.7852329550E-01   -2.8453122261E-01   -2.9064040883E-01   -2.9685101149E-01
   -3.0316308355E-01   -3.0957656655E-01   -3.1609128319E-01   -3.2270692957E-01
   -3.2942306712E-01   -3.3623911414E-01   -3.4315433697E-01   -3.5016784085E-01
   -3.5727856026E-01   -3.6448524904E-01   -3.7178646995E-01   -3.7918058391E-01
   -3.8666573879E-01   -3.9423985777E-01   -4.0190062728E-01   -4.0964548449E-01
   -4.1747160433E-01   -4.2537588613E-01   -4.3335493973E-01   -4.4140507119E-01
   -4.4952226799E-01   -4.5770218386E-01   -4.6594012308E-01   -4.7423102434E-01
   -4.8256944426E-01   -4.9094954031E-01   -4.9936505349E-01   -5.0780929046E-01
   -5.1627510538E-01   -5.2475488133E-01   -5.3324051141E-01   -5.4172337954E-01
   -5.5019434093E-01   -5.5864370236E-01   -5.6706120218E-01   -5.7543599029E-01
   -5.8375660784E-01   -5.9201096700E-01   -6.0018633071E-01   -6.0826929255E-01
   -6.1624575668E-01   -6.2410091817E-01   -6.3181924355E-01   -6.3938445190E-01
   -6.4677949642E-01   -6.5398654680E-01   -6.6098697224E-01   -6.6776132560E-01
   -6.7428932853E-01   -6.8054985793E-01   -6.8652093388E-01   -6.9217970920E-01
   -6.9750246084E-01   -7.0246458334E-01   -7.0704058465E-01   -7.1120408442E-01
   -7.1492781512E-01   -7.1818362627E-01   -7.2094249206E-01   -7.2317452255E-01
   -7.2484897904E-01   -7.2593429366E-01   -7.2639809374E-01   -7.2620723120E-01
   -7.2532781746E-01   -7.2372526417E-01   -7.2136433026E-01   -7.1820917562E-01
   -7.1422342197E-01   -7.0937022134E-01   -7.0361233253E-01   -6.9691220613E-01
   -6.8923207844E-01   -6.8053407490E-01   -6.7078032331E-01   -6.5993307754E-01
   -6.4795485185E-01   -6.3480856660E-01   -6.2045770542E-01   -6.0486648453E-01
   -5.8800003428E-01   -5.6982459340E-01   -5.5030771615E-01   -5.2941849252E-01
   -5.0712778171E-01   -4.8340845881E-01   -4.5823567480E-01   -4.3158712948E-01
   -4.0344335742E-01   -3.7378802615E-01   -3.4260824642E-01   -3.0989489355E-01
   -2.7564293920E-01   -2.3985179236E-01   -2.0252564847E-01   -1.6367384495E-01
   -1.2331122155E-01   -8.1458483511E-02   -3.8142565131E-02    6.6030087229E-03
    5.2737766169E-02    1.0021394015E-01    1.4897613214E-01    1.9896099176E-01
    2.5009691658E-01    3.0230377688E-01    3.5549267052E-01    4.0956571342E-01
    4.6441587159E-01    5.1992684103E-01    5.7597298207E-01    6.3241931527E-01
    6.8912158620E-01    7.4592640654E-01    8.0267147940E-01    8.5918591681E-01
    9.1529065718E-01    9.7079899088E-01    1.0255172015E+00    1.0792453306E+00
    1.1317780719E+00    1.1829058035E+00    1.2324157604E+00    1.2800933552E+00
    1.3257236469E+00    1.3690929618E+00    1.4099906644E+00    1.4482110756E+00
    1.4835555338E+00    1.5158345892E+00    1.5448703188E+00    1.5704987479E+00
    1.5925723553E+00    1.6109626349E+00    1.6255623979E+00    1.6362821507E+00
    1.6430424825E+00    1.6457734916E+00    1.6444155778E+00    1.6389202458E+00
    1.6292509123E+00    1.6153837160E+00    1.5973083218E+00    1.5750287182E+00
    1.5485639988E+00    1.5179491231E+00    1.4832356498E+00    1.4444924340E+00
    1.4018062806E+00    1.3552825455E+00    1.3050456739E+00    1.2512396657E+00
    1.1940284577E+00    1.1335962105E+00    1.0701474863E+00    1.0039073080E+00
    9.3512108234E-01    8.6405437602E-01    7.9099252837E-01    7.1624008736E-01
    6.4012005336E-01    5.6297291626E-01    4.8515547141E-01    4.0703940072E-01
    3.2900960555E-01    2.5146227994E-01    1.7480271373E-01    9.9442817618E-02
    2.5798364625E-02   -4.5714054179E-02   -1.1468035799E-01   -1.8069258218E-01
   -2.4335274998E-01   -3.0227699156E-01   -3.5709988524E-01   -4.0747898696E-01
   -4.5309950570E-01   -4.9367907224E-01   -5.2897253848E-01   -5.5877673348E-01
   -5.8293509104E-01   -6.0134205249E-01   -6.1394713765E-01   -6.2075856653E-01
   -6.2184630627E-01   -6.1734441028E-01   -6.0745251275E-01   -5.9243633969E-01
   -5.7262710018E-01   -5.4841962755E-01   -5.2026915162E-01   -4.8868659970E-01
   -4.5423234718E-01   -4.1750836918E-01   -3.7914878391E-01   -3.3980882779E-01
   -3.0015236389E-01   -2.6083810087E-01   -2.2250478979E-01   -1.8575577134E-01
   -1.5114336168E-01   -1.1915368234E-01   -9.0192641763E-02   -6.4573839125E-02
   -4.2509156491E-02   -2.4102706879E-02   -9.3486050718E-03    1.8672580207E-03
    9.7615559063E-03    1.4644351448E-02    1.6906851493E-02    1.7006447087E-02
    1.5449154206E-02    1.2769329949E-02    9.5064568448E-03    6.1814252658E-03
    3.2656195850E-03    1.1423856726E-03    9.0023135050E-05    1.8932870954E-06
    3.8524229410E-11    0.0000000000E+00    0.0000000000E+00    0.0000000000E+00
 0. 0. 0. 0.
 0. 0. 0. 0.
 0. 0. 0. 0.
 0. 0. 0. 0.
 0. 0. 0. 0.
 0. 0. 0. 0.
 0. 0. 0. 0.
 0. 0. 0. 0.
 0. 0. 0. 0.
 0. 0. 0. 0.
 0. 0. 0. 0.
 0. 0. 0. 0.
 0. 0. 0. 0.
 0. 0. 0. 0.
 0. 0. 0. 0.
 0. 0. 0. 0.
 0. 0. 0. 0.
 0. 0. 0. 0.
 0. 0. 0. 0.
 0. 0. 0. 0.
 0. 0. 0. 0.
 0. 0. 0. 0.
 0. 0. 0. 0.
 0. 0. 0. 0.
 0. 0. 0. 0.
 0. 0. 0. 0.
 0. 0. 0. 0.
 0. 0. 0. 0.
 0. 0. 0. 0.
 0. 0. 0. 0.
 0. 0. 0. 0.
 0. 0. 0. 0.
 0. 0. 0. 0.
 0. 0. 0. 0.
 0. 0. 0. 0.
 0. 0. 0. 0.
 0. 0. 0. 0.
 0. 0. 0. 0.
 0. 0. 0. 0.
 0. 0.
   </PP_BETA.3>
   <PP_BETA.4
       type="real"
       size="1026"
       columns="4"
       index="4"
       angular_momentum="1"
       cutoff_radius_index=" 868"
       cutoff_radius="    2.1205826603E+00" >
    0.0000000000E+00   -3.4484295876E-10   -3.5357159978E-10   -3.6252333839E-10
   -3.7170109400E-10   -3.8111074707E-10   -3.9075943172E-10   -4.0065046451E-10
   -4.1079297809E-10   -4.2119092251E-10   -4.3185529981E-10   -4.4278755323E-10
   -4.5399713045E-10   -4.6548969277E-10   -4.7727382141E-10   -4.8935613703E-10
   -5.0174338192E-10   -5.1444579221E-10   -5.2746792314E-10   -5.4082251161E-10
   -5.5451127882E-10   -5.6855149588E-10   -5.8294389746E-10   -5.9770232566E-10
   -6.1283262799E-10   -6.2834508130E-10   -6.4425237980E-10   -6.6056080815E-10
   -6.7728413355E-10   -6.9442871921E-10   -7.1200769940E-10   -7.3003396009E-10
   -7.4851428905E-10   -7.6746335957E-10   -7.8689093821E-10   -8.0681198829E-10
   -8.2723663520E-10   -8.4817912957E-10   -8.6964925696E-10   -8.9166486109E-10
   -9.1423749971E-10   -9.3738167981E-10   -9.6111190542E-10   -9.8544250898E-10
   -1.0103895811E-09   -1.0359673728E-09   -1.0621920761E-09   -1.0890831680E-09
   -1.1166520936E-09   -1.1449194587E-09   -1.1739042934E-09   -1.2036222581E-09
   -1.2340924055E-09   -1.2653344610E-09   -1.2973647892E-09   -1.3302069586E-09
   -1.3638823968E-09   -1.3984101664E-09   -1.4338102249E-09   -1.4701086276E-09
   -1.5073249792E-09   -1.5454821427E-09   -1.5846066413E-09   -1.6247209704E-09
   -1.6658510449E-09   -1.7080219848E-09   -1.7512614784E-09   -1.7955940576E-09
   -1.8410514593E-09   -1.8876576377E-09   -1.9354435550E-09   -1.9844401619E-09
   -2.0346767323E-09   -2.0861847424E-09   -2.1389970282E-09   -2.1931464402E-09
   -2.2486662424E-09   -2.3055919099E-09   -2.3639596107E-09   -2.4238030002E-09
   -2.4851602804E-09   -2.5480735933E-09   -2.6125786717E-09   -2.6787171337E-09
   -2.7465294184E-09   -2.8160580037E-09   -2.8873456580E-09   -2.9604413414E-09
   -3.0353852379E-09   -3.1122265169E-09   -3.1910117466E-09   -3.2717933817E-09
   -3.3546201048E-09   -3.4395436720E-09   -3.5266150979E-09   -3.6158929598E-09
   -3.7074306716E-09   -3.8012847271E-09   -3.8975159490E-09   -3.9961831821E-09
   -4.0973456369E-09   -4.2010724973E-09   -4.3074231772E-09   -4.4164671867E-09
   -4.5282700205E-09   -4.6429050732E-09   -4.7604406768E-09   -4.8809539714E-09
   -5.0045156408E-09   -5.1312069193E-09   -5.2611040665E-09   -5.3942910659E-09
   -5.5308483329E-09   -5.6708636707E-09   -5.8144247723E-09   -5.9616185402E-09
   -6.1125392363E-09   -6.2672797707E-09   -6.4259385411E-09   -6.5886115981E-09
   -6.7554061519E-09   -6.9264213115E-09   -7.1017672756E-09   -7.2815504821E-09
   -7.4658866688E-09   -7.6548869226E-09   -7.8486732483E-09   -8.0473659870E-09
   -8.2510873273E-09   -8.4599672951E-09   -8.6741351061E-09   -8.8937243903E-09
   -9.1188719441E-09   -9.3497224869E-09   -9.5864134983E-09   -9.8290986596E-09
   -1.0077926078E-08   -1.0333053537E-08   -1.0594639845E-08   -1.0862848072E-08
   -1.1137846700E-08   -1.1419807776E-08   -1.1708904987E-08   -1.2005322211E-08
   -1.2309243587E-08   -1.2620859225E-08   -1.2940361797E-08   -1.3267955792E-08
   -1.3603840167E-08   -1.3948231150E-08   -1.4301338211E-08   -1.4663384535E-08
   -1.5034597628E-08   -1.5415207953E-08   -1.5805453885E-08   -1.6205580229E-08
   -1.6615835489E-08   -1.7036476270E-08   -1.7467767858E-08   -1.7909977461E-08
   -1.8363380741E-08   -1.8828264044E-08   -1.9304914125E-08   -1.9793635879E-08
   -2.0294726060E-08   -2.0808505440E-08   -2.1335288808E-08   -2.1875411046E-08
   -2.2429204311E-08   -2.2997020782E-08   -2.3579212548E-08   -2.4176141868E-08
   -2.4788183431E-08   -2.5415719755E-08   -2.6059144621E-08   -2.6718858427E-08
   -2.7395274114E-08   -2.8088815928E-08   -2.8799913575E-08   -2.9529016826E-08
   -3.0276576559E-08   -3.1043064017E-08   -3.1828955369E-08   -3.2634745160E-08
   -3.3460933389E-08   -3.4308039876E-08   -3.5176592895E-08   -3.6067134900E-08
   -3.6980223888E-08   -3.7916429830E-08   -3.8876338543E-08   -3.9860550951E-08
   -4.0869680418E-08   -4.1904358438E-08   -4.2965233413E-08   -4.4052967219E-08
   -4.5168240268E-08   -4.6311749931E-08   -4.7484211408E-08   -4.8686358544E-08
   -4.9918940374E-08   -5.1182730622E-08   -5.2478518362E-08   -5.3807113256E-08
   -5.5169346920E-08   -5.6566071297E-08   -5.7998157607E-08   -5.9466503403E-08
   -6.0972027511E-08   -6.2515670545E-08   -6.4098398342E-08   -6.5721198745E-08
   -6.7385087986E-08   -6.9091105671E-08   -7.0840320664E-08   -7.2633824636E-08
   -7.4472740137E-08   -7.6358219944E-08   -7.8291439122E-08   -8.0273606397E-08
   -8.2305964871E-08   -8.4389784631E-08   -8.6526369894E-08   -8.8717053183E-08
   -9.0963206683E-08   -9.3266238520E-08   -9.5627584117E-08   -9.8048722917E-08
   -1.0053117020E-07   -1.0307647891E-07   -1.0568623895E-07   -1.0836208431E-07
   -1.1110568914E-07   -1.1391876900E-07   -1.1680308362E-07   -1.1976043927E-07
   -1.2279268393E-07   -1.2590171674E-07   -1.2908948171E-07   -1.3235797298E-07
   -1.3570923613E-07   -1.3914536871E-07   -1.4266851846E-07   -1.4628089127E-07
   -1.4998474917E-07   -1.5378240693E-07   -1.5767624507E-07   -1.6166869562E-07
   -1.6576226014E-07   -1.6995949990E-07   -1.7426304254E-07   -1.7867558070E-07
   -1.8319987760E-07   -1.8783876465E-07   -1.9259514217E-07   -1.9747199257E-07
   -2.0247236620E-07   -2.0759939328E-07   -2.1285628444E-07   -2.1824633110E-07
   -2.2377290808E-07   -2.2943947464E-07   -2.3524958017E-07   -2.4120686224E-07
   -2.4731505078E-07   -2.5357797265E-07   -2.5999954857E-07   -2.6658380362E-07
   -2.7333485847E-07   -2.8025693979E-07   -2.8735438779E-07   -2.9463165103E-07
   -3.0209328153E-07   -3.0974395943E-07   -3.1758847528E-07   -3.2563174751E-07
   -3.3387881345E-07   -3.4233484291E-07   -3.5100513730E-07   -3.5989512394E-07
   -3.6901038283E-07   -3.7835662335E-07   -3.8793970604E-07   -3.9776564031E-07
   -4.0784058482E-07   -4.1817085746E-07   -4.2876293603E-07   -4.3962346559E-07
   -4.5075925285E-07   -4.6217728879E-07   -4.7388473018E-07   -4.8588892606E-07
   -4.9819740805E-07   -5.1081789719E-07   -5.2375831486E-07   -5.3702678190E-07
   -5.5063162722E-07   -5.6458138782E-07   -5.7888482969E-07   -5.9355092395E-07
   -6.0858888841E-07   -6.2400816162E-07   -6.3981842995E-07   -6.5602962691E-07
   -6.7265193579E-07   -6.8969580153E-07   -7.0717193302E-07   -7.2509131692E-07
   -7.4346521484E-07   -7.6230518111E-07   -7.8162305916E-07   -8.0143099931E-07
   -8.2174145810E-07   -8.4256721627E-07   -8.6392137312E-07   -8.8581736695E-07
   -9.0826897777E-07   -9.3129034194E-07   -9.5489595239E-07   -9.7910067307E-07
   -1.0039197500E-06   -1.0293688173E-06   -1.0554639121E-06   -1.0822214763E-06
   -1.1096583821E-06   -1.1377919214E-06   -1.1666398409E-06   -1.1962203321E-06
   -1.2265520624E-06   -1.2576541683E-06   -1.2895462842E-06   -1.3222485418E-06
   -1.3557815992E-06   -1.3901666327E-06   -1.4254253723E-06   -1.4615800998E-06
   -1.4986536741E-06   -1.5366695376E-06   -1.5756517370E-06   -1.6156249414E-06
   -1.6566144504E-06   -1.6986462156E-06   -1.7417468597E-06   -1.7859436854E-06
   -1.8312647069E-06   -1.8777386580E-06   -1.9253950109E-06   -1.9742640030E-06
   -2.0243766515E-06   -2.0757647727E-06   -2.1284610065E-06   -2.1824988412E-06
   -2.2379126258E-06   -2.2947376021E-06   -2.3530099263E-06   -2.4127666872E-06
   -2.4740459430E-06   -2.5368867316E-06   -2.6013291078E-06   -2.6674141705E-06
   -2.7351840817E-06   -2.8046821086E-06   -2.8759526345E-06   -2.9490412083E-06
   -3.0239945613E-06   -3.1008606471E-06   -3.1796886683E-06   -3.2605291150E-06
   -3.3434337986E-06   -3.4284558851E-06   -3.5156499322E-06   -3.6050719295E-06
   -3.6967793377E-06   -3.7908311194E-06   -3.8872877954E-06   -3.9862114700E-06
   -4.0876658898E-06   -4.1917164793E-06   -4.2984303809E-06   -4.4078765250E-06
   -4.5201256501E-06   -4.6352503769E-06   -4.7533252401E-06   -4.8744267544E-06
   -4.9986334706E-06   -5.1260260172E-06   -5.2566871749E-06   -5.3907019280E-06
   -5.5281575221E-06   -5.6691435371E-06   -5.8137519448E-06   -5.9620771809E-06
   -6.1142162096E-06   -6.2702685961E-06   -6.4303365854E-06   -6.5945251702E-06
   -6.7629421697E-06   -6.9356983193E-06   -7.1129073392E-06   -7.2946860324E-06
   -7.4811543649E-06   -7.6724355611E-06   -7.8686561963E-06   -8.0699462908E-06
   -8.2764394089E-06   -8.4882727713E-06   -8.7055873481E-06   -8.9285279784E-06
   -9.1572434776E-06   -9.3918867563E-06   -9.6326149381E-06   -9.8795894916E-06
   -1.0132976349E-05   -1.0392946044E-05   -1.0659673848E-05   -1.0933339912E-05
   -1.1214129410E-05   -1.1502232696E-05   -1.1797845452E-05   -1.2101168856E-05
   -1.2412409749E-05   -1.2731780795E-05   -1.3059500681E-05   -1.3395794280E-05
   -1.3740892852E-05   -1.4095034243E-05   -1.4458463086E-05   -1.4831431006E-05
   -1.5214196848E-05   -1.5607026902E-05   -1.6010195126E-05   -1.6423983404E-05
   -1.6848681785E-05   -1.7284588744E-05   -1.7732011460E-05   -1.8191266084E-05
   -1.8662678030E-05   -1.9146582279E-05   -1.9643323688E-05   -2.0153257303E-05
   -2.0676748702E-05   -2.1214174335E-05   -2.1765921887E-05   -2.2332390641E-05
   -2.2913991873E-05   -2.3511149241E-05   -2.4124299214E-05   -2.4753891487E-05
   -2.5400389437E-05   -2.6064270586E-05   -2.6746027079E-05   -2.7446166189E-05
   -2.8165210829E-05   -2.8903700101E-05   -2.9662189842E-05   -3.0441253227E-05
   -3.1241481353E-05   -3.2063483883E-05   -3.2907889688E-05   -3.3775347538E-05
   -3.4666526799E-05   -3.5582118177E-05   -3.6522834470E-05   -3.7489411380E-05
   -3.8482608324E-05   -3.9503209305E-05   -4.0552023805E-05   -4.1629887722E-05
   -4.2737664331E-05   -4.3876245301E-05   -4.5046551755E-05   -4.6249535355E-05
   -4.7486179449E-05   -4.8757500261E-05   -5.0064548127E-05   -5.1408408797E-05
   -5.2790204769E-05   -5.4211096700E-05   -5.5672284866E-05   -5.7175010690E-05
   -5.8720558328E-05   -6.0310256334E-05   -6.1945479382E-05   -6.3627650082E-05
   -6.5358240846E-05   -6.7138775873E-05   -6.8970833183E-05   -7.0856046763E-05
   -7.2796108795E-05   -7.4792771999E-05   -7.6847852050E-05   -7.8963230132E-05
   -8.1140855585E-05   -8.3382748681E-05   -8.5691003512E-05   -8.8067791011E-05
   -9.0515362129E-05   -9.3036051105E-05   -9.5632278940E-05   -9.8306556988E-05
   -1.0106149072E-04   -1.0389978367E-04   -1.0682424152E-04   -1.0983777645E-04
   -1.1294341159E-04   -1.1614428573E-04   -1.1944365826E-04   -1.2284491426E-04
   -1.2635156995E-04   -1.2996727823E-04   -1.3369583461E-04   -1.3754118338E-04
   -1.4150742398E-04   -1.4559881779E-04   -1.4981979516E-04   -1.5417496276E-04
   -1.5866911134E-04   -1.6330722375E-04   -1.6809448342E-04   -1.7303628321E-04
   -1.7813823464E-04   -1.8340617758E-04   -1.8884619043E-04   -1.9446460069E-04
   -2.0026799610E-04   -2.0626323628E-04   -2.1245746491E-04   -2.1885812246E-04
   -2.2547295963E-04   -2.3231005126E-04   -2.3937781099E-04   -2.4668500667E-04
   -2.5424077635E-04   -2.6205464515E-04   -2.7013654289E-04   -2.7849682252E-04
   -2.8714627952E-04   -2.9609617206E-04   -3.0535824233E-04   -3.1494473866E-04
   -3.2486843888E-04   -3.3514267468E-04   -3.4578135715E-04   -3.5679900356E-04
   -3.6821076540E-04   -3.8003245773E-04   -3.9228059001E-04   -4.0497239827E-04
   -4.1812587894E-04   -4.3175982422E-04   -4.4589385914E-04   -4.6054848041E-04
   -4.7574509710E-04   -4.9150607329E-04   -5.0785477271E-04   -5.2481560551E-04
   -5.4241407734E-04   -5.6067684060E-04   -5.7963174833E-04   -5.9930791048E-04
   -6.1973575302E-04   -6.4094707970E-04   -6.6297513687E-04   -6.8585468134E-04
   -7.0962205142E-04   -7.3431524140E-04   -7.5997397946E-04   -7.8663980943E-04
   -8.1435617621E-04   -8.4316851542E-04   -8.7312434717E-04   -9.0427337428E-04
   -9.3666758514E-04   -9.7036136144E-04   -1.0054115909E-03   -1.0418777853E-03
   -1.0798222042E-03   -1.1193099841E-03   -1.1604092742E-03   -1.2031913778E-03
   -1.2477309010E-03   -1.2941059077E-03   -1.3423980823E-03   -1.3926928996E-03
   -1.4450798028E-03   -1.4996523896E-03   -1.5565086066E-03   -1.6157509536E-03
   -1.6774866959E-03   -1.7418280874E-03   -1.8088926036E-03   -1.8788031850E-03
   -1.9516884916E-03   -2.0276831693E-03   -2.1069281277E-03   -2.1895708312E-03
   -2.2757656024E-03   -2.3656739395E-03   -2.4594648479E-03   -2.5573151862E-03
   -2.6594100279E-03   -2.7659430388E-03   -2.8771168709E-03   -2.9931435739E-03
   -3.1142450242E-03   -3.2406533729E-03   -3.3726115126E-03   -3.5103735648E-03
   -3.6542053877E-03   -3.8043851056E-03   -3.9612036612E-03   -4.1249653902E-03
   -4.2959886204E-03   -4.4746062960E-03   -4.6611666264E-03   -4.8560337631E-03
   -5.0595885025E-03   -5.2722290186E-03   -5.4943716233E-03   -5.7264515582E-03
   -5.9689238165E-03   -6.2222639980E-03   -6.4869691954E-03   -6.7635589158E-03
   -7.0525760366E-03   -7.3545877961E-03   -7.6701868219E-03   -7.9999921961E-03
   -8.3446505578E-03   -8.7048372464E-03   -9.0812574826E-03   -9.4746475917E-03
   -9.8857762665E-03   -1.0315445873E-02   -1.0764493796E-02   -1.1233793832E-02
   -1.1724257622E-02   -1.2236836123E-02   -1.2772521135E-02   -1.3332346857E-02
   -1.3917391498E-02   -1.4528778924E-02   -1.5167680347E-02   -1.5835316062E-02
   -1.6532957220E-02   -1.7261927635E-02   -1.8023605642E-02   -1.8819425982E-02
   -1.9650881720E-02   -2.0519526202E-02   -2.1426975034E-02   -2.2374908092E-02
   -2.3365071546E-02   -2.4399279915E-02   -2.5479418118E-02   -2.6607443548E-02
   -2.7785388136E-02   -2.9015360420E-02   -3.0299547591E-02   -3.1640217527E-02
   -3.3039720796E-02   -3.4500492612E-02   -3.6025054753E-02   -3.7616017407E-02
   -3.9276080944E-02   -4.1008037605E-02   -4.2814773077E-02   -4.4699267952E-02
   -4.6664599045E-02   -4.8713940551E-02   -5.0850565019E-02   -5.3077844128E-02
   -5.5399249226E-02   -5.7818351617E-02   -6.0338822565E-02   -6.2964432980E-02
   -6.5699052752E-02   -6.8546649709E-02   -7.1511288147E-02   -7.4597126898E-02
   -7.7808416899E-02   -8.1149498202E-02   -8.4624796391E-02   -8.8238818348E-02
   -9.1996147310E-02   -9.5901437173E-02   -9.9959405963E-02   -1.0417482843E-01
   -1.0855252768E-01   -1.1309736580E-01   -1.1781423338E-01   -1.2270803783E-01
   -1.2778369050E-01   -1.3304609246E-01   -1.3850011879E-01   -1.4415060145E-01
   -1.5000231049E-01   -1.5605993359E-01   -1.6232805384E-01   -1.6881112554E-01
   -1.7551344814E-01   -1.8243913800E-01   -1.8959209801E-01   -1.9697598488E-01
   -2.0459417418E-01   -2.1244972267E-01   -2.2054532834E-01   -2.2888328754E-01
   -2.3746544951E-01   -2.4629316807E-01   -2.5536725041E-01   -2.6468790288E-01
   -2.7425467388E-01   -2.8406639367E-01   -2.9412111112E-01   -3.0441602745E-01
   -3.1494742696E-01   -3.2571060469E-01   -3.3669979135E-01   -3.4790807524E-01
   -3.5932732171E-01   -3.7094808997E-01   -3.8275954775E-01   -3.9474938386E-01
   -4.0690371913E-01   -4.1920701595E-01   -4.3164198692E-01   -4.4418950315E-01
   -4.5682850256E-01   -4.6953589913E-01   -4.8228649343E-01   -4.9505288559E-01
   -5.0780539134E-01   -5.2051196221E-01   -5.3313811084E-01   -5.4564684280E-01
   -5.5799859591E-01   -5.7015118859E-01   -5.8205977876E-01   -5.9367683470E-01
   -6.0495211968E-01   -6.1583269218E-01   -6.2626292335E-01   -6.3618453391E-01
   -6.4553665235E-01   -6.5425589657E-01   -6.6227648098E-01   -6.6953035129E-01
   -6.7594734897E-01   -6.8145540748E-01   -6.8598078225E-01   -6.8944831602E-01
   -6.9178174137E-01   -6.9290402162E-01   -6.9273773109E-01   -6.9120547534E-01
   -6.8823035126E-01   -6.8373644668E-01   -6.7764937774E-01   -6.6989686210E-01
   -6.6040932446E-01   -6.4912052984E-01   -6.3596823876E-01   -6.2089487660E-01
   -6.0384820783E-01   -5.8478200346E-01   -5.6365668797E-01   -5.4043994903E-01
   -5.1510729078E-01   -4.8764250765E-01   -4.5803805276E-01   -4.2629527018E-01
   -3.9242445683E-01   -3.5644471438E-01   -3.1838354685E-01   -2.7827615390E-01
   -2.3616436391E-01   -1.9209514634E-01   -1.4611879299E-01   -9.8290062283E-02
   -4.8672339173E-02    2.6613243112E-03    5.5627860825E-02    1.1013385842E-01
    1.6607525258E-01    2.2333704339E-01    2.8179304152E-01    3.4130564722E-01
    4.0172566661E-01    4.6289217012E-01    5.2463239802E-01    5.8676171883E-01
    6.4908364625E-01    7.1138992134E-01    7.7346066673E-01    8.3506462054E-01
    8.9595945756E-01    9.5589220785E-01    1.0145997796E+00    1.0718095995E+00
    1.1272403778E+00    1.1806030129E+00    1.2316016439E+00    1.2799348668E+00
    1.3252971248E+00    1.3673802870E+00    1.4058754286E+00    1.4404748257E+00
    1.4708741766E+00    1.4967750621E+00    1.5178876530E+00    1.5339336754E+00
    1.5446496345E+00    1.5497903021E+00    1.5491324596E+00    1.5424788897E+00
    1.5296625962E+00    1.5105512278E+00    1.4850516676E+00    1.4531147411E+00
    1.4147399810E+00    1.3699803722E+00    1.3189469886E+00    1.2618134106E+00
    1.1988198033E+00    1.1302765123E+00    1.0565670213E+00    9.7815010062E-01
    8.9556096269E-01    8.0941122917E-01    7.2038751041E-01    6.2924839370E-01
    5.3681964114E-01    4.4398740760E-01    3.5168930684E-01    2.6090318102E-01
    1.7263346706E-01    8.7895105989E-02    7.6950115686E-03   -6.6988793392E-02
   -1.3523014514E-01   -1.9617943234E-01   -2.4908944893E-01   -2.9334162090E-01
   -3.2847157862E-01   -3.5419280599E-01   -3.7041690191E-01   -3.7726890001E-01
   -3.7509617741E-01   -3.6446980038E-01   -3.4617770902E-01   -3.2120987371E-01
   -2.9073625177E-01   -2.5607888045E-01   -2.1867942454E-01   -1.8006302891E-01
   -1.4179846737E-01   -1.0545376790E-01   -7.2546143172E-02   -4.4490970724E-02
   -2.2534140254E-02   -7.6663934449E-03   -5.9538065230E-04   -1.2476916647E-05
   -1.0525378890E-10   -0.0000000000E+00   -0.0000000000E+00   -0.0000000000E+00
 0. 0. 0. 0.
 0. 0. 0. 0.
 0. 0. 0. 0.
 0. 0. 0. 0.
 0. 0. 0. 0.
 0. 0. 0. 0.
 0. 0. 0. 0.
 0. 0. 0. 0.
 0. 0. 0. 0.
 0. 0. 0. 0.
 0. 0. 0. 0.
 0. 0. 0. 0.
 0. 0. 0. 0.
 0. 0. 0. 0.
 0. 0. 0. 0.
 0. 0. 0. 0.
 0. 0. 0. 0.
 0. 0. 0. 0.
 0. 0. 0. 0.
 0. 0. 0. 0.
 0. 0. 0. 0.
 0. 0. 0. 0.
 0. 0. 0. 0.
 0. 0. 0. 0.
 0. 0. 0. 0.
 0. 0. 0. 0.
 0. 0. 0. 0.
 0. 0. 0. 0.
 0. 0. 0. 0.
 0. 0. 0. 0.
 0. 0. 0. 0.
 0. 0. 0. 0.
 0. 0. 0. 0.
 0. 0. 0. 0.
 0. 0. 0. 0.
 0. 0. 0. 0.
 0. 0. 0. 0.
 0. 0. 0. 0.
 0. 0. 0. 0.
 0. 0.
   </PP_BETA.4>
   <PP_DIJ type="real"  size="  16" columns="4">
    1.1884945960E+01    0.0000000000E+00    0.0000000000E+00    0.0000000000E+00
    0.0000000000E+00   -2.9850801506E+00    0.0000000000E+00    0.0000000000E+00
    0.0000000000E+00    0.0000000000E+00   -7.9092115250E+00    0.0000000000E+00
    0.0000000000E+00    0.0000000000E+00    0.0000000000E+00   -4.3964757102E+00
   </PP_DIJ>
 </PP_NONLOCAL>
 <PP_PSWFC>
   <PP_CHI.1
       type="real"
       size="1026"
       columns="4"
       index="1"
       occupation=" 2.000"
       pseudo_energy="   -0.5850004481E+01"
       label="2S"
       l="0" >
    0.0000000000E+00    1.4047477021E-04    1.4224172532E-04    1.4403090599E-04
    1.4584259179E-04    1.4767706578E-04    1.4953461462E-04    1.5141552854E-04
    1.5332010145E-04    1.5524863093E-04    1.5720141833E-04    1.5917876877E-04
    1.6118099122E-04    1.6320839852E-04    1.6526130747E-04    1.6734003883E-04
    1.6944491741E-04    1.7157627211E-04    1.7373443595E-04    1.7591974614E-04
    1.7813254416E-04    1.8037317574E-04    1.8264199100E-04    1.8493934445E-04
    1.8726559504E-04    1.8962110626E-04    1.9200624616E-04    1.9442138743E-04
    1.9686690744E-04    1.9934318829E-04    2.0185061693E-04    2.0438958514E-04
    2.0696048963E-04    2.0956373212E-04    2.1219971937E-04    2.1486886325E-04
    2.1757158083E-04    2.2030829441E-04    2.2307943161E-04    2.2588542542E-04
    2.2872671429E-04    2.3160374217E-04    2.3451695860E-04    2.3746681879E-04
    2.4045378364E-04    2.4347831989E-04    2.4654090012E-04    2.4964200286E-04
    2.5278211267E-04    2.5596172020E-04    2.5918132227E-04    2.6244142194E-04
    2.6574252861E-04    2.6908515810E-04    2.7246983268E-04    2.7589708122E-04
    2.7936743925E-04    2.8288144900E-04    2.8643965954E-04    2.9004262687E-04
    2.9369091394E-04    2.9738509081E-04    3.0112573470E-04    3.0491343010E-04
    3.0874876883E-04    3.1263235018E-04    3.1656478097E-04    3.2054667565E-04
    3.2457865639E-04    3.2866135319E-04    3.3279540400E-04    3.3698145476E-04
    3.4122015956E-04    3.4551218069E-04    3.4985818879E-04    3.5425886295E-04
    3.5871489076E-04    3.6322696849E-04    3.6779580118E-04    3.7242210269E-04
    3.7710659591E-04    3.8185001279E-04    3.8665309450E-04    3.9151659154E-04
    3.9644126383E-04    4.0142788086E-04    4.0647722181E-04    4.1159007564E-04
    4.1676724124E-04    4.2200952756E-04    4.2731775371E-04    4.3269274912E-04
    4.3813535364E-04    4.4364641768E-04    4.4922680237E-04    4.5487737964E-04
    4.6059903241E-04    4.6639265470E-04    4.7225915177E-04    4.7819944028E-04
    4.8421444841E-04    4.9030511601E-04    4.9647239476E-04    5.0271724831E-04
    5.0904065243E-04    5.1544359517E-04    5.2192707699E-04    5.2849211096E-04
    5.3513972287E-04    5.4187095142E-04    5.4868684838E-04    5.5558847876E-04
    5.6257692093E-04    5.6965326686E-04    5.7681862224E-04    5.8407410667E-04
    5.9142085384E-04    5.9886001168E-04    6.0639274257E-04    6.1402022353E-04
    6.2174364636E-04    6.2956421786E-04    6.3748316000E-04    6.4550171014E-04
    6.5362112118E-04    6.6184266181E-04    6.7016761665E-04    6.7859728649E-04
    6.8713298849E-04    6.9577605635E-04    7.0452784058E-04    7.1338970866E-04
    7.2236304527E-04    7.3144925251E-04    7.4064975012E-04    7.4996597568E-04
    7.5939938488E-04    7.6895145170E-04    7.7862366868E-04    7.8841754710E-04
    7.9833461728E-04    8.0837642879E-04    8.1854455066E-04    8.2884057169E-04
    8.3926610064E-04    8.4982276653E-04    8.6051221885E-04    8.7133612784E-04
    8.8229618475E-04    8.9339410213E-04    9.0463161402E-04    9.1601047631E-04
    9.2753246698E-04    9.3919938633E-04    9.5101305736E-04    9.6297532596E-04
    9.7508806126E-04    9.8735315589E-04    9.9977252630E-04    1.0123481130E-03
    1.0250818810E-03    1.0379758199E-03    1.0510319445E-03    1.0642522948E-03
    1.0776389364E-03    1.0911939611E-03    1.1049194868E-03    1.1188176582E-03
    1.1328906469E-03    1.1471406518E-03    1.1615698995E-03    1.1761806446E-03
    1.1909751701E-03    1.2059557875E-03    1.2211248377E-03    1.2364846908E-03
    1.2520377468E-03    1.2677864359E-03    1.2837332189E-03    1.2998805874E-03
    1.3162310645E-03    1.3327872050E-03    1.3495515959E-03    1.3665268564E-03
    1.3837156391E-03    1.4011206298E-03    1.4187445479E-03    1.4365901472E-03
    1.4546602162E-03    1.4729575782E-03    1.4914850923E-03    1.5102456534E-03
    1.5292421928E-03    1.5484776788E-03    1.5679551170E-03    1.5876775506E-03
    1.6076480614E-03    1.6278697698E-03    1.6483458354E-03    1.6690794575E-03
    1.6900738760E-03    1.7113323710E-03    1.7328582644E-03    1.7546549194E-03
    1.7767257420E-03    1.7990741805E-03    1.8217037271E-03    1.8446179174E-03
    1.8678203320E-03    1.8913145962E-03    1.9151043810E-03    1.9391934035E-03
    1.9635854276E-03    1.9882842646E-03    2.0132937737E-03    2.0386178626E-03
    2.0642604883E-03    2.0902256573E-03    2.1165174267E-03    2.1431399046E-03
    2.1700972507E-03    2.1973936772E-03    2.2250334490E-03    2.2530208850E-03
    2.2813603580E-03    2.3100562961E-03    2.3391131831E-03    2.3685355590E-03
    2.3983280211E-03    2.4284952245E-03    2.4590418826E-03    2.4899727685E-03
    2.5212927149E-03    2.5530066157E-03    2.5851194260E-03    2.6176361635E-03
    2.6505619088E-03    2.6839018065E-03    2.7176610660E-03    2.7518449620E-03
    2.7864588358E-03    2.8215080957E-03    2.8569982180E-03    2.8929347480E-03
    2.9293233007E-03    2.9661695617E-03    3.0034792882E-03    3.0412583097E-03
    3.0795125291E-03    3.1182479234E-03    3.1574705451E-03    3.1971865224E-03
    3.2374020609E-03    3.2781234441E-03    3.3193570347E-03    3.3611092751E-03
    3.4033866890E-03    3.4461958822E-03    3.4895435433E-03    3.5334364452E-03
    3.5778814460E-03    3.6228854901E-03    3.6684556091E-03    3.7145989231E-03
    3.7613226418E-03    3.8086340655E-03    3.8565405864E-03    3.9050496895E-03
    3.9541689541E-03    4.0039060549E-03    4.0542687629E-03    4.1052649470E-03
    4.1569025750E-03    4.2091897149E-03    4.2621345363E-03    4.3157453112E-03
    4.3700304161E-03    4.4249983325E-03    4.4806576488E-03    4.5370170612E-03
    4.5940853754E-03    4.6518715078E-03    4.7103844870E-03    4.7696334550E-03
    4.8296276690E-03    4.8903765025E-03    4.9518894467E-03    5.0141761125E-03
    5.0772462315E-03    5.1411096576E-03    5.2057763688E-03    5.2712564685E-03
    5.3375601870E-03    5.4046978836E-03    5.4726800476E-03    5.5415173003E-03
    5.6112203966E-03    5.6818002266E-03    5.7532678174E-03    5.8256343346E-03
    5.8989110844E-03    5.9731095152E-03    6.0482412192E-03    6.1243179345E-03
    6.2013515467E-03    6.2793540910E-03    6.3583377538E-03    6.4383148749E-03
    6.5192979490E-03    6.6012996282E-03    6.6843327236E-03    6.7684102073E-03
    6.8535452147E-03    6.9397510460E-03    7.0270411691E-03    7.1154292210E-03
    7.2049290102E-03    7.2955545187E-03    7.3873199044E-03    7.4802395035E-03
    7.5743278319E-03    7.6695995884E-03    7.7660696565E-03    7.8637531068E-03
    7.9626651995E-03    8.0628213864E-03    8.1642373139E-03    8.2669288248E-03
    8.3709119614E-03    8.4762029673E-03    8.5828182906E-03    8.6907745861E-03
    8.8000887179E-03    8.9107777623E-03    9.0228590100E-03    9.1363499692E-03
    9.2512683683E-03    9.3676321583E-03    9.4854595161E-03    9.6047688469E-03
    9.7255787872E-03    9.8479082081E-03    9.9717762176E-03    1.0097202164E-02
    1.0224205638E-02    1.0352806479E-02    1.0483024772E-02    1.0614880858E-02
    1.0748395331E-02    1.0883589045E-02    1.1020483117E-02    1.1159098928E-02
    1.1299458127E-02    1.1441582637E-02    1.1585494656E-02    1.1731216659E-02
    1.1878771407E-02    1.2028181943E-02    1.2179471603E-02    1.2332664014E-02
    1.2487783101E-02    1.2644853088E-02    1.2803898505E-02    1.2964944191E-02
    1.3128015294E-02    1.3293137280E-02    1.3460335935E-02    1.3629637368E-02
    1.3801068016E-02    1.3974654649E-02    1.4150424373E-02    1.4328404634E-02
    1.4508623223E-02    1.4691108279E-02    1.4875888295E-02    1.5062992124E-02
    1.5252448977E-02    1.5444288436E-02    1.5638540451E-02    1.5835235351E-02
    1.6034403844E-02    1.6236077024E-02    1.6440286375E-02    1.6647063776E-02
    1.6856441508E-02    1.7068452255E-02    1.7283129112E-02    1.7500505590E-02
    1.7720615620E-02    1.7943493557E-02    1.8169174192E-02    1.8397692747E-02
    1.8629084889E-02    1.8863386733E-02    1.9100634844E-02    1.9340866249E-02
    1.9584118437E-02    1.9830429370E-02    2.0079837483E-02    2.0332381694E-02
    2.0588101411E-02    2.0847036533E-02    2.1109227461E-02    2.1374715103E-02
    2.1643540879E-02    2.1915746728E-02    2.2191375114E-02    2.2470469036E-02
    2.2753072029E-02    2.3039228174E-02    2.3328982106E-02    2.3622379016E-02
    2.3919464664E-02    2.4220285382E-02    2.4524888083E-02    2.4833320266E-02
    2.5145630026E-02    2.5461866059E-02    2.5782077671E-02    2.6106314786E-02
    2.6434627953E-02    2.6767068350E-02    2.7103687801E-02    2.7444538773E-02
    2.7789674393E-02    2.8139148450E-02    2.8493015407E-02    2.8851330407E-02
    2.9214149283E-02    2.9581528565E-02    2.9953525491E-02    3.0330198014E-02
    3.0711604808E-02    3.1097805283E-02    3.1488859590E-02    3.1884828630E-02
    3.2285774067E-02    3.2691758332E-02    3.3102844635E-02    3.3519096977E-02
    3.3940580154E-02    3.4367359773E-02    3.4799502257E-02    3.5237074858E-02
    3.5680145666E-02    3.6128783619E-02    3.6583058514E-02    3.7043041017E-02
    3.7508802673E-02    3.7980415920E-02    3.8457954094E-02    3.8941491446E-02
    3.9431103148E-02    3.9926865310E-02    4.0428854984E-02    4.0937150183E-02
    4.1451829886E-02    4.1972974054E-02    4.2500663641E-02    4.3034980605E-02
    4.3576007921E-02    4.4123829592E-02    4.4678530664E-02    4.5240197234E-02
    4.5808916469E-02    4.6384776612E-02    4.6967867001E-02    4.7558278076E-02
    4.8156101398E-02    4.8761429659E-02    4.9374356695E-02    4.9994977503E-02
    5.0623388250E-02    5.1259686292E-02    5.1903970184E-02    5.2556339695E-02
    5.3216895826E-02    5.3885740817E-02    5.4562978171E-02    5.5248712659E-02
    5.5943050344E-02    5.6646098589E-02    5.7357966076E-02    5.8078762820E-02
    5.8808600185E-02    5.9547590900E-02    6.0295849073E-02    6.1053490209E-02
    6.1820631225E-02    6.2597390466E-02    6.3383887723E-02    6.4180244247E-02
    6.4986582767E-02    6.5803027508E-02    6.6629704204E-02    6.7466740121E-02
    6.8314264068E-02    6.9172406420E-02    7.0041299129E-02    7.0921075750E-02
    7.1811871451E-02    7.2713823035E-02    7.3627068956E-02    7.4551749340E-02
    7.5488006001E-02    7.6435982459E-02    7.7395823961E-02    7.8367677497E-02
    7.9351691821E-02    8.0348017466E-02    8.1356806771E-02    8.2378213889E-02
    8.3412394817E-02    8.4459507409E-02    8.5519711395E-02    8.6593168406E-02
    8.7680041987E-02    8.8780497622E-02    8.9894702750E-02    9.1022826787E-02
    9.2165041146E-02    9.3321519256E-02    9.4492436581E-02    9.5677970645E-02
    9.6878301044E-02    9.8093609473E-02    9.9324079746E-02    1.0056989781E-01
    1.0183125178E-01    1.0310833192E-01    1.0440133074E-01    1.0571044292E-01
    1.0703586540E-01    1.0837779739E-01    1.0973644036E-01    1.1111199807E-01
    1.1250467664E-01    1.1391468447E-01    1.1534223238E-01    1.1678753352E-01
    1.1825080345E-01    1.1973226016E-01    1.2123212407E-01    1.2275061804E-01
    1.2428796743E-01    1.2584440007E-01    1.2742014630E-01    1.2901543902E-01
    1.3063051364E-01    1.3226560814E-01    1.3392096311E-01    1.3559682170E-01
    1.3729342970E-01    1.3901103553E-01    1.4074989025E-01    1.4251024756E-01
    1.4429236389E-01    1.4609649830E-01    1.4792291260E-01    1.4977187129E-01
    1.5164364162E-01    1.5353849355E-01    1.5545669983E-01    1.5739853595E-01
    1.5936428018E-01    1.6135421356E-01    1.6336861993E-01    1.6540778593E-01
    1.6747200097E-01    1.6956155731E-01    1.7167674999E-01    1.7381787688E-01
    1.7598523864E-01    1.7817913878E-01    1.8039988358E-01    1.8264778218E-01
    1.8492314649E-01    1.8722629124E-01    1.8955753394E-01    1.9191719490E-01
    1.9430559720E-01    1.9672306669E-01    1.9916993196E-01    2.0164652435E-01
    2.0415317790E-01    2.0669022934E-01    2.0925801809E-01    2.1185688622E-01
    2.1448717841E-01    2.1714924192E-01    2.1984342660E-01    2.2257008479E-01
    2.2532957133E-01    2.2812224351E-01    2.3094846100E-01    2.3380858584E-01
    2.3670298234E-01    2.3963201709E-01    2.4259605884E-01    2.4559547847E-01
    2.4863064892E-01    2.5170194509E-01    2.5480974384E-01    2.5795442380E-01
    2.6113636538E-01    2.6435595065E-01    2.6761356320E-01    2.7090958813E-01
    2.7424441186E-01    2.7761842205E-01    2.8103200750E-01    2.8448555802E-01
    2.8797946425E-01    2.9151411759E-01    2.9508991004E-01    2.9870723401E-01
    3.0236648220E-01    3.0606804742E-01    3.0981232241E-01    3.1359969967E-01
    3.1743057126E-01    3.2130532859E-01    3.2522436223E-01    3.2918806167E-01
    3.3319681510E-01    3.3725100917E-01    3.4135102873E-01    3.4549725657E-01
    3.4969007316E-01    3.5392985633E-01    3.5821698102E-01    3.6255181891E-01
    3.6693473815E-01    3.7136610300E-01    3.7584627344E-01    3.8037560487E-01
    3.8495444768E-01    3.8958314687E-01    3.9426204163E-01    3.9899146489E-01
    4.0377174292E-01    4.0860319481E-01    4.1348613203E-01    4.1842085788E-01
    4.2340766700E-01    4.2844684483E-01    4.3353866703E-01    4.3868339887E-01
    4.4388129468E-01    4.4913259718E-01    4.5443753683E-01    4.5979633117E-01
    4.6520918407E-01    4.7067628508E-01    4.7619780860E-01    4.8177391313E-01
    4.8740474048E-01    4.9309041490E-01    4.9883104223E-01    5.0462670898E-01
    5.1047748147E-01    5.1638340478E-01    5.2234450183E-01    5.2836077233E-01
    5.3443219171E-01    5.4055871006E-01    5.4674025100E-01    5.5297671047E-01
    5.5926795561E-01    5.6561382345E-01    5.7201411968E-01    5.7846861734E-01
    5.8497705544E-01    5.9153913757E-01    5.9815453051E-01    6.0482286271E-01
    6.1154372277E-01    6.1831665795E-01    6.2514117248E-01    6.3201672599E-01
    6.3894273175E-01    6.4591855502E-01    6.5294351122E-01    6.6001686412E-01
    6.6713782398E-01    6.7430554565E-01    6.8151912659E-01    6.8877760491E-01
    6.9607995730E-01    7.0342509696E-01    7.1081187145E-01    7.1823906056E-01
    7.2570537406E-01    7.3320944946E-01    7.4074984973E-01    7.4832506095E-01
    7.5593348997E-01    7.6357346197E-01    7.7124321806E-01    7.7894091281E-01
    7.8666461172E-01    7.9441228875E-01    8.0218182375E-01    8.0997099991E-01
    8.1777750118E-01    8.2559890964E-01    8.3343270298E-01    8.4127625184E-01
    8.4912681723E-01    8.5698154793E-01    8.6483747791E-01    8.7269152381E-01
    8.8054048234E-01    8.8838102782E-01    8.9620970973E-01    9.0402295027E-01
    9.1181704204E-01    9.1958814572E-01    9.2733228789E-01    9.3504535894E-01
    9.4272311098E-01    9.5036115600E-01    9.5795496405E-01    9.6549986162E-01
    9.7299103014E-01    9.8042350464E-01    9.8779217264E-01    9.9509177315E-01
    1.0023168960E+00    1.0094619813E+00    1.0165213193E+00    1.0234890501E+00
    1.0303591644E+00    1.0371255038E+00    1.0437817619E+00    1.0503214856E+00
    1.0567380769E+00    1.0630247946E+00    1.0691747573E+00    1.0751809461E+00
    1.0810362082E+00    1.0867332606E+00    1.0922646948E+00    1.0976229819E+00
    1.1028004779E+00    1.1077894302E+00    1.1125819843E+00    1.1171701914E+00
    1.1215460166E+00    1.1257013478E+00    1.1296280051E+00    1.1333177517E+00
    1.1367623047E+00    1.1399533474E+00    1.1428825418E+00    1.1455415425E+00
    1.1479220112E+00    1.1500156322E+00    1.1518141284E+00    1.1533092789E+00
    1.1544929368E+00    1.1553570485E+00    1.1558936733E+00    1.1560950042E+00
    1.1559533901E+00    1.1554613576E+00    1.1546116350E+00    1.1533971762E+00
    1.1518111859E+00    1.1498471451E+00    1.1474988377E+00    1.1447603775E+00
    1.1416262356E+00    1.1380912692E+00    1.1341507492E+00    1.1298003899E+00
    1.1250363776E+00    1.1198553998E+00    1.1142546751E+00    1.1082319812E+00
    1.1017856848E+00    1.0949147695E+00    1.0876188639E+00    1.0798982682E+00
    1.0717539811E+00    1.0631877241E+00    1.0542019656E+00    1.0447999427E+00
    1.0349856818E+00    1.0247640169E+00    1.0141406055E+00    1.0031219424E+00
    9.9171537084E-01    9.7992909035E-01    9.6777216174E-01    9.5525450863E-01
    9.4238691534E-01    9.2918102098E-01    9.1564930957E-01    9.0180509586E-01
    8.8766250686E-01    8.7323645880E-01    8.5854262947E-01    8.4359742583E-01
    8.2841794678E-01    8.1302194122E-01    7.9742776121E-01    7.8165431039E-01
    7.6572098789E-01    7.4964762759E-01    7.3345443324E-01    7.1716190951E-01
    7.0079078936E-01    6.8436195812E-01    6.6789637464E-01    6.5141499013E-01
    6.3493866507E-01    6.1848808496E-01    6.0208367540E-01    5.8574551740E-01
    5.6949326344E-01    5.5334605521E-01    5.3732244376E-01    5.2144031289E-01
    5.0571680662E-01    4.9016826151E-01    4.7481014469E-01    4.5965699820E-01
    4.4472239065E-01    4.3001887645E-01    4.1555796356E-01    4.0135008993E-01
    3.8740460913E-01    3.7372978546E-01    3.6033279847E-01    3.4721975696E-01
    3.3439572225E-01    3.2186474030E-01    3.0962988219E-01    2.9769329226E-01
    2.8605624306E-01    2.7471919606E-01    2.6368186716E-01    2.5294329553E-01
    2.4250191467E-01    2.3235562426E-01    2.2250186145E-01    2.1293767034E-01
    2.0365976850E-01    1.9466460951E-01    1.8594844094E-01    1.7750735712E-01
    1.6933734686E-01    1.6143433604E-01    1.5379422584E-01    1.4641292893E-01
    1.3928639980E-01    1.3241065793E-01    1.2578179856E-01    1.1939587774E-01
    1.1324876156E-01    1.0733613585E-01    1.0165353213E-01    9.6196349027E-02
    9.0959869614E-02    8.5939275130E-02    8.1129656240E-02    7.6526022584E-02
    7.2123311357E-02    6.7916395506E-02    6.3900091902E-02    6.0069169718E-02
    5.6418359118E-02    5.2942360271E-02    4.9635852643E-02    4.6493504501E-02
    4.3509982529E-02    4.0679961471E-02    3.7998133702E-02    3.5459218650E-02
    3.3057971996E-02    3.0789194586E-02    2.8647741008E-02    2.6628527792E-02
    2.4726541194E-02    2.2936844537E-02    2.1254585092E-02    1.9675000486E-02
    1.8193424615E-02    1.6805293065E-02    1.5506148031E-02    1.4291642745E-02
    1.3157545393E-02    1.2099742546E-02    1.1114242105E-02    1.0197175761E-02
    9.3448009901E-03    8.5535025869E-03    7.8197937567E-03    7.1403167752E-03
    6.5118432350E-03    5.9312738937E-03    5.3956381431E-03    4.9020931183E-03
    4.4479224661E-03    4.0305347938E-03    3.6474618198E-03    3.2963562472E-03
    2.9749893833E-03    2.6812485271E-03    2.4131341474E-03    2.1687568734E-03
    1.9463343217E-03    1.7441877801E-03    1.5607387720E-03    1.3945055209E-03
    1.2440993367E-03    1.1082209441E-03    9.8565677208E-04    8.7527522278E-04
    7.7602293764E-04    6.8692107701E-04    6.0706162865E-04    5.3560375926E-04
    4.7177022209E-04    4.1484383234E-04    3.6416402085E-04    3.1912347543E-04
    2.7916487783E-04    2.4377774338E-04    2.1249536898E-04    1.8489189425E-04
    1.6057947955E-04    1.3920560371E-04    1.2045048338E-04    1.0402461513E-04
    8.9666440750E-05    7.7140135514E-05    6.6233518400E-05    5.6756082928E-05
    4.8537146571E-05    4.1424116311E-05    3.5280867448E-05    2.9986232413E-05
    2.5432595988E-05    2.1524593037E-05    1.8177904641E-05    1.5318148284E-05
    1.2879857626E-05    1.0805547272E-05    9.0448578591E-06    7.5537767976E-06
    6.2939299726E-06    5.2319397834E-06    4.3388449627E-06    3.5895777303E-06
    2.9624939615E-06    2.4389522065E-06    2.0029375645E-06    1.6407266014E-06
    1.3405896931E-06    1.0925273803E-06    8.8803752539E-07    7.1991027271E-07
    5.8204801929E-07    4.6930781007E-07    3.7736377115E-07    3.0258738982E-07
    2.4194363688E-07    1.9290110563E-07    1.5335451123E-07    1.2155805409E-07
    9.6068300250E-08    7.5695371420E-08    5.9461366178E-08    4.6565052884E-08
    3.6351983922E-08    2.8289280351E-08    2.1944426387E-08    1.6967494770E-08
    1.3076297547E-08    1.0044022548E-08    7.6889745365E-09    5.8660920697E-09
    4.4599571603E-09    3.3790553574E-09    2.5510793854E-09    1.9191004808E-09
    1.4384585067E-09    1.0742452308E-09    7.9927524055E-10    5.9245619187E-10
    4.3748480386E-10    3.2180752523E-10    2.3579539098E-10    1.7209151903E-10
    1.2509718983E-10    9.0568713019E-11    6.5302492198E-11    4.6890009483E-11
    3.3528004166E-11    2.3872034297E-11    1.6923989550E-11    1.1946057790E-11
    8.3952121691E-12    5.8735450160E-12    4.0907839247E-12    2.8361300300E-12
    1.9571969305E-12    1.3443328673E-12    9.1900484580E-13    6.2523307423E-13
    4.2330497830E-13    2.8518448498E-13    1.9117581730E-13    1.2751100518E-13
    8.4614111298E-14    5.5858689988E-14    3.6682891822E-14    2.3962544864E-14
    1.5569339377E-14    1.0061118149E-14    6.4659404033E-15    4.1323463639E-15
    2.6260990545E-15    1.6593739445E-15
   </PP_CHI.1>
   <PP_CHI.2
       type="real"
       size="1026"
       columns="4"
       index="2"
       occupation=" 6.000"
       pseudo_energy="   -0.3421440551E+01"
       label="2P"
       l="1" >
    0.0000000000E+00    9.2565851340E-09    9.4909167030E-09    9.7311804040E-09
    9.9775264095E-09    1.0230108694E-08    1.0489085129E-08    1.0754617584E-08
    1.1026872024E-08    1.1306018619E-08    1.1592231844E-08    1.1885690590E-08
    1.2186578280E-08    1.2495082978E-08    1.2811397510E-08    1.3135719582E-08
    1.3468251906E-08    1.3809202326E-08    1.4158783948E-08    1.4517215269E-08
    1.4884720323E-08    1.5261528812E-08    1.5647876252E-08    1.6044004125E-08
    1.6450160022E-08    1.6866597805E-08    1.7293577760E-08    1.7731366764E-08
    1.8180238450E-08    1.8640473376E-08    1.9112359204E-08    1.9596190879E-08
    2.0092270811E-08    2.0600909067E-08    2.1122423560E-08    2.1657140256E-08
    2.2205393369E-08    2.2767525576E-08    2.3343888227E-08    2.3934841568E-08
    2.4540754964E-08    2.5162007130E-08    2.5798986369E-08    2.6452090814E-08
    2.7121728677E-08    2.7808318502E-08    2.8512289432E-08    2.9234081470E-08
    2.9974145760E-08    3.0732944867E-08    3.1510953064E-08    3.2308656631E-08
    3.3126554161E-08    3.3965156864E-08    3.4824988896E-08    3.5706587679E-08
    3.6610504240E-08    3.7537303558E-08    3.8487564912E-08    3.9461882246E-08
    4.0460864540E-08    4.1485136190E-08    4.2535337400E-08    4.3612124580E-08
    4.4716170756E-08    4.5848165993E-08    4.7008817826E-08    4.8198851698E-08
    4.9419011421E-08    5.0670059633E-08    5.1952778280E-08    5.3267969104E-08
    5.4616454141E-08    5.5999076237E-08    5.7416699578E-08    5.8870210223E-08
    6.0360516664E-08    6.1888550390E-08    6.3455266473E-08    6.5061644161E-08
    6.6708687492E-08    6.8397425922E-08    7.0128914967E-08    7.1904236864E-08
    7.3724501246E-08    7.5590845839E-08    7.7504437168E-08    7.9466471290E-08
    8.1478174539E-08    8.3540804296E-08    8.5655649772E-08    8.7824032813E-08
    9.0047308728E-08    9.2326867139E-08    9.4664132842E-08    9.7060566704E-08
    9.9517666575E-08    1.0203696822E-07    1.0462004629E-07    1.0726851528E-07
    1.0998403059E-07    1.1276828948E-07    1.1562303222E-07    1.1855004311E-07
    1.2155115163E-07    1.2462823357E-07    1.2778321220E-07    1.3101805949E-07
    1.3433479733E-07    1.3773549877E-07    1.4122228937E-07    1.4479734849E-07
    1.4846291065E-07    1.5222126696E-07    1.5607476649E-07    1.6002581783E-07
    1.6407689049E-07    1.6823051654E-07    1.7248929212E-07    1.7685587910E-07
    1.8133300675E-07    1.8592347341E-07    1.9063014827E-07    1.9545597317E-07
    2.0040396438E-07    2.0547721458E-07    2.1067889469E-07    2.1601225596E-07
    2.2148063188E-07    2.2708744038E-07    2.3283618590E-07    2.3873046158E-07
    2.4477395153E-07    2.5097043314E-07    2.5732377941E-07    2.6383796137E-07
    2.7051705061E-07    2.7736522177E-07    2.8438675518E-07    2.9158603952E-07
    2.9896757458E-07    3.0653597406E-07    3.1429596844E-07    3.2225240798E-07
    3.3041026570E-07    3.3877464053E-07    3.4735076048E-07    3.5614398589E-07
    3.6515981281E-07    3.7440387642E-07    3.8388195457E-07    3.9359997134E-07
    4.0356400082E-07    4.1378027085E-07    4.2425516692E-07    4.3499523617E-07
    4.4600719150E-07    4.5729791573E-07    4.6887446592E-07    4.8074407779E-07
    4.9291417022E-07    5.0539234992E-07    5.1818641614E-07    5.3130436558E-07
    5.4475439738E-07    5.5854491825E-07    5.7268454769E-07    5.8718212343E-07
    6.0204670692E-07    6.1728758898E-07    6.3291429566E-07    6.4893659415E-07
    6.6536449889E-07    6.8220827785E-07    6.9947845893E-07    7.1718583653E-07
    7.3534147832E-07    7.5395673217E-07    7.7304323319E-07    7.9261291105E-07
    8.1267799742E-07    8.3325103362E-07    8.5434487843E-07    8.7597271619E-07
    8.9814806497E-07    9.2088478506E-07    9.4419708763E-07    9.6809954360E-07
    9.9260709276E-07    1.0177350531E-06    1.0434991304E-06    1.0699154280E-06
    1.0970004569E-06    1.1247711461E-06    1.1532448531E-06    1.1824393750E-06
    1.2123729591E-06    1.2430643150E-06    1.2745326256E-06    1.3067975597E-06
    1.3398792838E-06    1.3737984751E-06    1.4085763340E-06    1.4442345979E-06
    1.4807955542E-06    1.5182820546E-06    1.5567175295E-06    1.5961260020E-06
    1.6365321038E-06    1.6779610900E-06    1.7204388547E-06    1.7639919481E-06
    1.8086475921E-06    1.8544336978E-06    1.9013788830E-06    1.9495124897E-06
    1.9988646031E-06    2.0494660696E-06    2.1013485166E-06    2.1545443724E-06
    2.2090868859E-06    2.2650101477E-06    2.3223491117E-06    2.3811396164E-06
    2.4414184076E-06    2.5032231613E-06    2.5665925074E-06    2.6315660535E-06
    2.6981844101E-06    2.7664892156E-06    2.8365231625E-06    2.9083300241E-06
    2.9819546817E-06    3.0574431530E-06    3.1348426204E-06    3.2142014608E-06
    3.2955692758E-06    3.3789969226E-06    3.4645365459E-06    3.5522416104E-06
    3.6421669343E-06    3.7343687235E-06    3.8289046066E-06    3.9258336713E-06
    4.0252165009E-06    4.1271152126E-06    4.2315934958E-06    4.3387166523E-06
    4.4485516372E-06    4.5611671002E-06    4.6766334292E-06    4.7950227937E-06
    4.9164091903E-06    5.0408684887E-06    5.1684784794E-06    5.2993189220E-06
    5.4334715953E-06    5.5710203481E-06    5.7120511522E-06    5.8566521553E-06
    6.0049137369E-06    6.1569285644E-06    6.3127916507E-06    6.4726004144E-06
    6.6364547398E-06    6.8044570402E-06    6.9767123210E-06    7.1533282460E-06
    7.3344152046E-06    7.5200863804E-06    7.7104578225E-06    7.9056485174E-06
    8.1057804639E-06    8.3109787493E-06    8.5213716271E-06    8.7370905977E-06
    8.9582704903E-06    9.1850495474E-06    9.4175695108E-06    9.6559757106E-06
    9.9004171558E-06    1.0151046628E-05    1.0408020775E-05    1.0671500211E-05
    1.0941649616E-05    1.1218637840E-05    1.1502638005E-05    1.1793827618E-05
    1.2092388676E-05    1.2398507786E-05    1.2712376279E-05    1.3034190327E-05
    1.3364151071E-05    1.3702464742E-05    1.4049342791E-05    1.4405002022E-05
    1.4769664729E-05    1.5143558832E-05    1.5526918020E-05    1.5919981898E-05
    1.6322996137E-05    1.6736212626E-05    1.7159889631E-05    1.7594291957E-05
    1.8039691109E-05    1.8496365467E-05    1.8964600459E-05    1.9444688737E-05
    1.9936930360E-05    2.0441632984E-05    2.0959112053E-05    2.1489690997E-05
    2.2033701431E-05    2.2591483365E-05    2.3163385418E-05    2.3749765032E-05
    2.4350988697E-05    2.4967432180E-05    2.5599480763E-05    2.6247529476E-05
    2.6911983352E-05    2.7593257677E-05    2.8291778247E-05    2.9007981638E-05
    2.9742315477E-05    3.0495238721E-05    3.1267221946E-05    3.2058747640E-05
    3.2870310501E-05    3.3702417754E-05    3.4555589461E-05    3.5430358847E-05
    3.6327272638E-05    3.7246891396E-05    3.8189789873E-05    3.9156557372E-05
    4.0147798110E-05    4.1164131600E-05    4.2206193035E-05    4.3274633688E-05
    4.4370121317E-05    4.5493340580E-05    4.6644993470E-05    4.7825799745E-05
    4.9036497383E-05    5.0277843042E-05    5.1550612532E-05    5.2855601302E-05
    5.4193624933E-05    5.5565519650E-05    5.6972142847E-05    5.8414373616E-05
    5.9893113303E-05    6.1409286069E-05    6.2963839463E-05    6.4557745021E-05
    6.6191998869E-05    6.7867622346E-05    6.9585662641E-05    7.1347193449E-05
    7.3153315641E-05    7.5005157952E-05    7.6903877686E-05    7.8850661437E-05
    8.0846725835E-05    8.2893318301E-05    8.4991717828E-05    8.7143235781E-05
    8.9349216716E-05    9.1611039219E-05    9.3930116765E-05    9.6307898606E-05
    9.8745870672E-05    1.0124555650E-04    1.0380851819E-04    1.0643635737E-04
    1.0913071621E-04    1.1189327843E-04    1.1472577038E-04    1.1762996208E-04
    1.2060766836E-04    1.2366074998E-04    1.2679111477E-04    1.3000071887E-04
    1.3329156791E-04    1.3666571828E-04    1.4012527841E-04    1.4367241007E-04
    1.4730932977E-04    1.5103831009E-04    1.5486168112E-04    1.5878183192E-04
    1.6280121200E-04    1.6692233285E-04    1.7114776954E-04    1.7548016227E-04
    1.7992221806E-04    1.8447671243E-04    1.8914649114E-04    1.9393447193E-04
    1.9884364641E-04    2.0387708184E-04    2.0903792313E-04    2.1432939474E-04
    2.1975480271E-04    2.2531753675E-04    2.3102107232E-04    2.3686897281E-04
    2.4286489178E-04    2.4901257521E-04    2.5531586386E-04    2.6177869567E-04
    2.6840510817E-04    2.7519924108E-04    2.8216533881E-04    2.8930775316E-04
    2.9663094603E-04    3.0413949218E-04    3.1183808208E-04    3.1973152488E-04
    3.2782475136E-04    3.3612281703E-04    3.4463090527E-04    3.5335433058E-04
    3.6229854187E-04    3.7146912588E-04    3.8087181063E-04    3.9051246904E-04
    4.0039712254E-04    4.1053194485E-04    4.2092326584E-04    4.3157757543E-04
    4.4250152768E-04    4.5370194491E-04    4.6518582196E-04    4.7696033054E-04
    4.8903282371E-04    5.0141084044E-04    5.1410211033E-04    5.2711455841E-04
    5.4045631006E-04    5.5413569612E-04    5.6816125800E-04    5.8254175306E-04
    5.9728616004E-04    6.1240368465E-04    6.2790376528E-04    6.4379607892E-04
    6.6009054711E-04    6.7679734218E-04    6.9392689355E-04    7.1148989420E-04
    7.2949730736E-04    7.4796037327E-04    7.6689061623E-04    7.8629985173E-04
    8.0620019378E-04    8.2660406248E-04    8.4752419169E-04    8.6897363699E-04
    8.9096578374E-04    9.1351435545E-04    9.3663342223E-04    9.6033740960E-04
    9.8464110738E-04    1.0095596789E-03    1.0351086705E-03    1.0613040210E-03
    1.0881620716E-03    1.1156995762E-03    1.1439337116E-03    1.1728820884E-03
    1.2025627614E-03    1.2329942416E-03    1.2641955066E-03    1.2961860136E-03
    1.3289857102E-03    1.3626150479E-03    1.3970949936E-03    1.4324470438E-03
    1.4686932369E-03    1.5058561672E-03    1.5439589992E-03    1.5830254812E-03
    1.6230799606E-03    1.6641473988E-03    1.7062533864E-03    1.7494241590E-03
    1.7936866139E-03    1.8390683261E-03    1.8855975654E-03    1.9333033143E-03
    1.9822152853E-03    2.0323639395E-03    2.0837805053E-03    2.1364969977E-03
    2.1905462379E-03    2.2459618734E-03    2.3027783991E-03    2.3610311780E-03
    2.4207564634E-03    2.4819914206E-03    2.5447741504E-03    2.6091437119E-03
    2.6751401469E-03    2.7428045039E-03    2.8121788640E-03    2.8833063660E-03
    2.9562312332E-03    3.0309988004E-03    3.1076555413E-03    3.1862490975E-03
    3.2668283069E-03    3.3494432343E-03    3.4341452012E-03    3.5209868175E-03
    3.6100220135E-03    3.7013060727E-03    3.7948956654E-03    3.8908488832E-03
    3.9892252745E-03    4.0900858802E-03    4.1934932711E-03    4.2995115858E-03
    4.4082065695E-03    4.5196456137E-03    4.6338977970E-03    4.7510339272E-03
    4.8711265833E-03    4.9942501602E-03    5.1204809127E-03    5.2498970021E-03
    5.3825785425E-03    5.5186076497E-03    5.6580684900E-03    5.8010473309E-03
    5.9476325925E-03    6.0979149009E-03    6.2519871418E-03    6.4099445163E-03
    6.5718845976E-03    6.7379073893E-03    6.9081153844E-03    7.0826136266E-03
    7.2615097725E-03    7.4449141554E-03    7.6329398504E-03    7.8257027415E-03
    8.0233215898E-03    8.2259181034E-03    8.4336170089E-03    8.6465461250E-03
    8.8648364371E-03    9.0886221739E-03    9.3180408861E-03    9.5532335263E-03
    9.7943445311E-03    1.0041521905E-02    1.0294917308E-02    1.0554686138E-02
    1.0820987627E-02    1.1093984930E-02    1.1373845218E-02    1.1660739774E-02
    1.1954844093E-02    1.2256337982E-02    1.2565405659E-02    1.2882235861E-02
    1.3207021951E-02    1.3539962024E-02    1.3881259025E-02    1.4231120855E-02
    1.4589760494E-02    1.4957396117E-02    1.5334251217E-02    1.5720554726E-02
    1.6116541147E-02    1.6522450678E-02    1.6938529350E-02    1.7365029154E-02
    1.7802208186E-02    1.8250330784E-02    1.8709667671E-02    1.9180496102E-02
    1.9663100011E-02    2.0157770168E-02    2.0664804327E-02    2.1184507391E-02
    2.1717191567E-02    2.2263176534E-02    2.2822789608E-02    2.3396365913E-02
    2.3984248555E-02    2.4586788798E-02    2.5204346245E-02    2.5837289018E-02
    2.6485993947E-02    2.7150846760E-02    2.7832242273E-02    2.8530584588E-02
    2.9246287290E-02    2.9979773653E-02    3.0731476843E-02    3.1501840128E-02
    3.2291317089E-02    3.3100371838E-02    3.3929479231E-02    3.4779125097E-02
    3.5649806456E-02    3.6542031752E-02    3.7456321081E-02    3.8393206423E-02
    3.9353231883E-02    4.0336953926E-02    4.1344941624E-02    4.2377776894E-02
    4.3436054752E-02    4.4520383557E-02    4.5631385266E-02    4.6769695686E-02
    4.7935964734E-02    4.9130856687E-02    5.0355050450E-02    5.1609239808E-02
    5.2894133697E-02    5.4210456459E-02    5.5558948110E-02    5.6940364603E-02
    5.8355478091E-02    5.9805077195E-02    6.1289967262E-02    6.2810970632E-02
    6.4368926899E-02    6.5964693171E-02    6.7599144326E-02    6.9273173272E-02
    7.0987691196E-02    7.2743627814E-02    7.4541931617E-02    7.6383570112E-02
    7.8269530056E-02    8.0200817688E-02    8.2178458948E-02    8.4203499697E-02
    8.6277005922E-02    8.8400063936E-02    9.0573780566E-02    9.2799283331E-02
    9.5077720610E-02    9.7410261796E-02    9.9798097433E-02    1.0224243935E-01
    1.0474452075E-01    1.0730559632E-01    1.0992694232E-01    1.1260985658E-01
    1.1535565858E-01    1.1816568947E-01    1.2104131198E-01    1.2398391046E-01
    1.2699489076E-01    1.3007568013E-01    1.3322772713E-01    1.3645250139E-01
    1.3975149348E-01    1.4312621460E-01    1.4657819636E-01    1.5010899039E-01
    1.5372016803E-01    1.5741331985E-01    1.6119005523E-01    1.6505200177E-01
    1.6900080478E-01    1.7303812657E-01    1.7716564577E-01    1.8138505655E-01
    1.8569806779E-01    1.9010640210E-01    1.9461179489E-01    1.9921599325E-01
    2.0392075477E-01    2.0872784630E-01    2.1363904261E-01    2.1865612487E-01
    2.2378087917E-01    2.2901509480E-01    2.3436056247E-01    2.3981907242E-01
    2.4539241239E-01    2.5108236543E-01    2.5689070767E-01    2.6281920579E-01
    2.6886961454E-01    2.7504367389E-01    2.8134310624E-01    2.8776961325E-01
    2.9432487268E-01    3.0101053493E-01    3.0782821946E-01    3.1477951097E-01
    3.2186595543E-01    3.2908905584E-01    3.3645026785E-01    3.4395099512E-01
    3.5159258444E-01    3.5937632065E-01    3.6730342131E-01    3.7537503108E-01
    3.8359221593E-01    3.9195595704E-01    4.0046714441E-01    4.0912657023E-01
    4.1793492201E-01    4.2689277534E-01    4.3600058643E-01    4.4525868435E-01
    4.5466726293E-01    4.6422637242E-01    4.7393591080E-01    4.8379561483E-01
    4.9380505074E-01    5.0396360469E-01    5.1427047284E-01    5.2472465117E-01
    5.3532492501E-01    5.4606985825E-01    5.5695778223E-01    5.6798678444E-01
    5.7915469685E-01    5.9045908406E-01    6.0189723111E-01    6.1346613116E-01
    6.2516247288E-01    6.3698262767E-01    6.4892263670E-01    6.6097819782E-01
    6.7314465233E-01    6.8541697167E-01    6.9778974403E-01    7.1025716102E-01
    7.2281300429E-01    7.3545063223E-01    7.4816296688E-01    7.6094248088E-01
    7.7378118478E-01    7.8667061462E-01    7.9960181982E-01    8.1256535158E-01
    8.2555125182E-01    8.3854904267E-01    8.5154771667E-01    8.6453572784E-01
    8.7750098354E-01    8.9043083743E-01    9.0331208348E-01    9.1613095127E-01
    9.2887310264E-01    9.4152362979E-01    9.5406705511E-01    9.6648733270E-01
    9.7876785183E-01    9.9089144252E-01    1.0028403833E+00    1.0145964113E+00
    1.0261407352E+00    1.0374540504E+00    1.0485165575E+00    1.0593079838E+00
    1.0698076078E+00    1.0799942869E+00    1.0898464898E+00    1.0993423310E+00
    1.1084596104E+00    1.1171758564E+00    1.1254683734E+00    1.1333142932E+00
    1.1406906314E+00    1.1475743477E+00    1.1539424113E+00    1.1597718706E+00
    1.1650399276E+00    1.1697240173E+00    1.1738018912E+00    1.1772517061E+00
    1.1800521166E+00    1.1821823727E+00    1.1836224213E+00    1.1843530111E+00
    1.1843558023E+00    1.1836134788E+00    1.1821098632E+00    1.1798300351E+00
    1.1767604508E+00    1.1728890639E+00    1.1682054479E+00    1.1627009176E+00
    1.1563686500E+00    1.1492038037E+00    1.1412036356E+00    1.1323676137E+00
    1.1226975252E+00    1.1121975790E+00    1.1008745004E+00    1.0887376184E+00
    1.0757989420E+00    1.0620732263E+00    1.0475780263E+00    1.0323337359E+00
    1.0163636126E+00    9.9969378488E-01    9.8235324214E-01    9.6437380485E-01
    9.4579007461E-01    9.2663936245E-01    9.0696159451E-01    8.8679919440E-01
    8.6619694141E-01    8.4520180422E-01    8.2386274990E-01    8.0223052824E-01
    7.8035743168E-01    7.5829703173E-01    7.3610389258E-01    7.1383326357E-01
    6.9154075209E-01    6.6928197911E-01    6.4711221994E-01    6.2508603312E-01
    6.0325688080E-01    5.8167674441E-01    5.6039573962E-01    5.3946173512E-01
    5.1891997981E-01    4.9881274353E-01    4.7917897621E-01    4.6005399084E-01
    4.4146917546E-01    4.2345173925E-01    4.0602449781E-01    3.8920570230E-01
    3.7300891682E-01    3.5744294794E-01    3.4251182963E-01    3.2821486631E-01
    3.1454673592E-01    3.0149765407E-01    2.8905359961E-01    2.7719660084E-01
    2.6590508099E-01    2.5515426056E-01    2.4491661316E-01    2.3516237112E-01
    2.2586007607E-01    2.1697716947E-01    2.0848061725E-01    2.0033756285E-01
    1.9251600218E-01    1.8498547408E-01    1.7771775964E-01    1.7068758325E-01
    1.6387330816E-01    1.5725761789E-01    1.5082817246E-01    1.4457817585E-01
    1.3850526258E-01    1.3260788618E-01    1.2688441017E-01    1.2133310492E-01
    1.1595214782E-01    1.1073962224E-01    1.0569351664E-01    1.0081172403E-01
    9.6092042120E-02    9.1532174285E-02    8.7129731273E-02    8.2882233714E-02
    7.8787115307E-02    7.4841726587E-02    7.1043339214E-02    6.7389150665E-02
    6.3876289264E-02    6.0501819464E-02    5.7262747337E-02    5.4156026190E-02
    5.1178562289E-02    4.8327220637E-02    4.5598830769E-02    4.2990192553E-02
    4.0498081961E-02    3.8119256781E-02    3.5850462281E-02    3.3688436773E-02
    3.1629917085E-02    2.9671643925E-02    2.7810367111E-02    2.6042850672E-02
    2.4365877793E-02    2.2776255602E-02    2.1270819791E-02    1.9846439041E-02
    1.8500019277E-02    1.7228507702E-02    1.6028896640E-02    1.4898227150E-02
    1.3833592425E-02    1.2832140962E-02    1.1891079489E-02    1.1007675667E-02
    1.0179260540E-02    9.4032307457E-03    8.6770504785E-03    7.9982532095E-03
    7.3644431605E-03    6.7732965367E-03    6.2225625197E-03    5.7100640274E-03
    5.2336982440E-03    4.7914369287E-03    4.3813265105E-03    4.0014879775E-03
    3.6501165709E-03    3.3254812937E-03    3.0259242457E-03    2.7498597959E-03
    2.4957736032E-03    2.2622214985E-03    2.0478282383E-03    1.8512861423E-03
    1.6713536244E-03    1.5068536287E-03    1.3566719804E-03    1.2197556593E-03
    1.0951110077E-03    9.8180187862E-04    8.7894773422E-04    7.8572170179E-04
    7.0134859541E-04    6.2510291096E-04    5.5630680203E-04    4.9432804452E-04
    4.3857799735E-04    3.8850956670E-04    3.4361518112E-04    3.0342478462E-04
    2.6750385453E-04    2.3545145071E-04    2.0689830231E-04    1.8150493768E-04
    1.5895986277E-04    1.3897779269E-04    1.2129794055E-04    1.0568236717E-04
    9.1914394588E-05    7.9797085827E-05    6.9151792618E-05    5.9816772378E-05
    5.1645875105E-05    4.4507300396E-05    3.8282424287E-05    3.2864695209E-05
    2.8158597941E-05    2.4078684108E-05    2.0548667470E-05    1.7500581971E-05
    1.4874000317E-05    1.2615310676E-05    1.0677048927E-05    9.0172838346E-06
    7.5990524040E-06    6.3898426717E-06    5.3611211663E-06    4.4879022855E-06
    3.7483568782E-06    3.1234573741E-06    2.5966568747E-06    2.1535997026E-06
    1.7818610020E-06    1.4707130844E-06    1.2109163230E-06    9.9453251223E-07
    8.1475872275E-07    6.6577980136E-07    5.4263777947E-07    4.4111657071E-07
    3.5764045121E-07    2.8918492677E-07    2.3319869860E-07    1.8753554251E-07
    1.5039501540E-07    1.2027099753E-07    9.5907167940E-08    7.6258595263E-08
    6.0458704762E-08    4.7790956764E-08    3.7664640049E-08    2.9594247497E-08
    2.3181959730E-08    1.8102816239E-08    1.4092202420E-08    1.0935325502E-08
    8.4583925720E-09    6.5212401910E-09    5.0111975971E-09    3.8379944887E-09
    2.9295501876E-09    2.2285037769E-09    1.6893649070E-09    1.2761825816E-09
    9.6064461968E-10    7.2053386408E-10    5.3847877932E-10    4.0094605534E-10
    2.9743138881E-10    2.1981192085E-10    1.6183002309E-10    1.1868338386E-10
    8.6700779298E-11    6.3086633403E-11    4.5720577734E-11    3.3000804658E-11
    2.3722146459E-11    1.6981574456E-11    1.2105257545E-11    8.5924995937E-12
    6.0728340263E-12    4.2733297320E-12
   </PP_CHI.2>
   <PP_CHI.3
       type="real"
       size="1026"
       columns="4"
       index="3"
       occupation=" 2.000"
       pseudo_energy="   -0.3439298161E+00"
       label="3S"
       l="0" >
    0.0000000000E+00   -3.3730565537E-05   -3.4154843827E-05   -3.4584458880E-05
   -3.5019477825E-05   -3.5459968635E-05   -3.5906000138E-05   -3.6357642025E-05
   -3.6814964868E-05   -3.7278040125E-05   -3.7746940150E-05   -3.8221738212E-05
   -3.8702508498E-05   -3.9189326129E-05   -3.9682267173E-05   -4.0181408651E-05
   -4.0686828556E-05   -4.1198605860E-05   -4.1716820530E-05   -4.2241553538E-05
   -4.2772886875E-05   -4.3310903562E-05   -4.3855687665E-05   -4.4407324309E-05
   -4.4965899687E-05   -4.5531501078E-05   -4.6104216859E-05   -4.6684136517E-05
   -4.7271350666E-05   -4.7865951059E-05   -4.8468030604E-05   -4.9077683378E-05
   -4.9695004638E-05   -5.0320090844E-05   -5.0953039666E-05   -5.1593950004E-05
   -5.2242922001E-05   -5.2900057060E-05   -5.3565457860E-05   -5.4239228371E-05
   -5.4921473872E-05   -5.5612300964E-05   -5.6311817591E-05   -5.7020133053E-05
   -5.7737358026E-05   -5.8463604578E-05   -5.9198986187E-05   -5.9943617757E-05
   -6.0697615638E-05   -6.1461097644E-05   -6.2234183071E-05   -6.3016992715E-05
   -6.3809648891E-05   -6.4612275454E-05   -6.5424997815E-05   -6.6247942964E-05
   -6.7081239487E-05   -6.7925017590E-05   -6.8779409114E-05   -6.9644547559E-05
   -7.0520568105E-05   -7.1407607631E-05   -7.2305804741E-05   -7.3215299777E-05
   -7.4136234852E-05   -7.5068753863E-05   -7.6013002518E-05   -7.6969128357E-05
   -7.7937280777E-05   -7.8917611054E-05   -7.9910272366E-05   -8.0915419819E-05
   -8.1933210469E-05   -8.2963803347E-05   -8.4007359486E-05   -8.5064041943E-05
   -8.6134015828E-05   -8.7217448325E-05   -8.8314508723E-05   -8.9425368440E-05
   -9.0550201049E-05   -9.1689182309E-05   -9.2842490187E-05   -9.4010304890E-05
   -9.5192808890E-05   -9.6390186957E-05   -9.7602626183E-05   -9.8830316014E-05
   -1.0007344828E-04   -1.0133221722E-04   -1.0260681952E-04   -1.0389745434E-04
   -1.0520432335E-04   -1.0652763074E-04   -1.0786758328E-04   -1.0922439035E-04
   -1.1059826395E-04   -1.1198941874E-04   -1.1339807210E-04   -1.1482444414E-04
   -1.1626875772E-04   -1.1773123853E-04   -1.1921211507E-04   -1.2071161875E-04
   -1.2222998385E-04   -1.2376744762E-04   -1.2532425031E-04   -1.2690063516E-04
   -1.2849684847E-04   -1.3011313968E-04   -1.3174976132E-04   -1.3340696911E-04
   -1.3508502201E-04   -1.3678418221E-04   -1.3850471520E-04   -1.4024688982E-04
   -1.4201097830E-04   -1.4379725627E-04   -1.4560600283E-04   -1.4743750062E-04
   -1.4929203581E-04   -1.5116989816E-04   -1.5307138111E-04   -1.5499678175E-04
   -1.5694640094E-04   -1.5892054331E-04   -1.6091951732E-04   -1.6294363532E-04
   -1.6499321357E-04   -1.6706857232E-04   -1.6917003586E-04   -1.7129793255E-04
   -1.7345259486E-04   -1.7563435947E-04   -1.7784356728E-04   -1.8008056349E-04
   -1.8234569763E-04   -1.8463932363E-04   -1.8696179987E-04   -1.8931348925E-04
   -1.9169475921E-04   -1.9410598184E-04   -1.9654753390E-04   -1.9901979687E-04
   -2.0152315706E-04   -2.0405800562E-04   -2.0662473861E-04   -2.0922375711E-04
   -2.1185546721E-04   -2.1452028011E-04   -2.1721861220E-04   -2.1995088510E-04
   -2.2271752573E-04   -2.2551896637E-04   -2.2835564477E-04   -2.3122800414E-04
   -2.3413649331E-04   -2.3708156673E-04   -2.4006368457E-04   -2.4308331279E-04
   -2.4614092321E-04   -2.4923699359E-04   -2.5237200769E-04   -2.5554645535E-04
   -2.5876083261E-04   -2.6201564169E-04   -2.6531139117E-04   -2.6864859602E-04
   -2.7202777768E-04   -2.7544946414E-04   -2.7891419006E-04   -2.8242249679E-04
   -2.8597493251E-04   -2.8957205230E-04   -2.9321441821E-04   -2.9690259936E-04
   -3.0063717203E-04   -3.0441871976E-04   -3.0824783341E-04   -3.1212511128E-04
   -3.1605115922E-04   -3.2002659065E-04   -3.2405202675E-04   -3.2812809649E-04
   -3.3225543676E-04   -3.3643469246E-04   -3.4066651661E-04   -3.4495157042E-04
   -3.4929052345E-04   -3.5368405364E-04   -3.5813284750E-04   -3.6263760015E-04
   -3.6719901546E-04   -3.7181780615E-04   -3.7649469391E-04   -3.8123040951E-04
   -3.8602569289E-04   -3.9088129333E-04   -3.9579796951E-04   -4.0077648966E-04
   -4.0581763168E-04   -4.1092218325E-04   -4.1609094194E-04   -4.2132471539E-04
   -4.2662432136E-04   -4.3199058791E-04   -4.3742435353E-04   -4.4292646723E-04
   -4.4849778873E-04   -4.5413918853E-04   -4.5985154811E-04   -4.6563576001E-04
   -4.7149272801E-04   -4.7742336726E-04   -4.8342860442E-04   -4.8950937780E-04
   -4.9566663751E-04   -5.0190134563E-04   -5.0821447631E-04   -5.1460701597E-04
   -5.2107996345E-04   -5.2763433012E-04   -5.3427114011E-04   -5.4099143039E-04
   -5.4779625102E-04   -5.5468666521E-04   -5.6166374960E-04   -5.6872859433E-04
   -5.7588230328E-04   -5.8312599419E-04   -5.9046079888E-04   -5.9788786339E-04
   -6.0540834818E-04   -6.1302342831E-04   -6.2073429361E-04   -6.2854214888E-04
   -6.3644821409E-04   -6.4445372451E-04   -6.5255993100E-04   -6.6076810012E-04
   -6.6907951437E-04   -6.7749547237E-04   -6.8601728909E-04   -6.9464629602E-04
   -7.0338384142E-04   -7.1223129049E-04   -7.2119002560E-04   -7.3026144652E-04
   -7.3944697060E-04   -7.4874803306E-04   -7.5816608712E-04   -7.6770260431E-04
   -7.7735907467E-04   -7.8713700695E-04   -7.9703792890E-04   -8.0706338749E-04
   -8.1721494913E-04   -8.2749419993E-04   -8.3790274596E-04   -8.4844221349E-04
   -8.5911424923E-04   -8.6992052060E-04   -8.8086271602E-04   -8.9194254510E-04
   -9.0316173898E-04   -9.1452205058E-04   -9.2602525484E-04   -9.3767314903E-04
   -9.4946755303E-04   -9.6141030962E-04   -9.7350328472E-04   -9.8574836774E-04
   -9.9814747186E-04   -1.0107025343E-03   -1.0234155167E-03   -1.0362884052E-03
   -1.0493232111E-03   -1.0625219710E-03   -1.0758867470E-03   -1.0894196271E-03
   -1.1031227258E-03   -1.1169981839E-03   -1.1310481692E-03   -1.1452748770E-03
   -1.1596805299E-03   -1.1742673785E-03   -1.1890377019E-03   -1.2039938077E-03
   -1.2191380324E-03   -1.2344727423E-03   -1.2500003329E-03   -1.2657232303E-03
   -1.2816438909E-03   -1.2977648019E-03   -1.3140884820E-03   -1.3306174814E-03
   -1.3473543824E-03   -1.3643017998E-03   -1.3814623813E-03   -1.3988388078E-03
   -1.4164337940E-03   -1.4342500887E-03   -1.4522904754E-03   -1.4705577722E-03
   -1.4890548331E-03   -1.5077845478E-03   -1.5267498422E-03   -1.5459536791E-03
   -1.5653990587E-03   -1.5850890186E-03   -1.6050266349E-03   -1.6252150222E-03
   -1.6456573343E-03   -1.6663567646E-03   -1.6873165469E-03   -1.7085399552E-03
   -1.7300303050E-03   -1.7517909534E-03   -1.7738252998E-03   -1.7961367861E-03
   -1.8187288977E-03   -1.8416051636E-03   -1.8647691574E-03   -1.8882244975E-03
   -1.9119748477E-03   -1.9360239179E-03   -1.9603754648E-03   -1.9850332922E-03
   -2.0100012516E-03   -2.0352832431E-03   -2.0608832156E-03   -2.0868051680E-03
   -2.1130531490E-03   -2.1396312586E-03   -2.1665436480E-03   -2.1937945208E-03
   -2.2213881333E-03   -2.2493287954E-03   -2.2776208710E-03   -2.3062687790E-03
   -2.3352769937E-03   -2.3646500458E-03   -2.3943925227E-03   -2.4245090697E-03
   -2.4550043901E-03   -2.4858832468E-03   -2.5171504621E-03   -2.5488109190E-03
   -2.5808695621E-03   -2.6133313978E-03   -2.6462014955E-03   -2.6794849884E-03
   -2.7131870740E-03   -2.7473130152E-03   -2.7818681411E-03   -2.8168578474E-03
   -2.8522875979E-03   -2.8881629250E-03   -2.9244894304E-03   -2.9612727862E-03
   -2.9985187360E-03   -3.0362330951E-03   -3.0744217522E-03   -3.1130906697E-03
   -3.1522458849E-03   -3.1918935110E-03   -3.2320397380E-03   -3.2726908334E-03
   -3.3138531435E-03   -3.3555330944E-03   -3.3977371925E-03   -3.4404720263E-03
   -3.4837442668E-03   -3.5275606685E-03   -3.5719280712E-03   -3.6168534000E-03
   -3.6623436672E-03   -3.7084059731E-03   -3.7550475068E-03   -3.8022755480E-03
   -3.8500974675E-03   -3.8985207285E-03   -3.9475528880E-03   -3.9972015976E-03
   -4.0474746050E-03   -4.0983797550E-03   -4.1499249909E-03   -4.2021183555E-03
   -4.2549679923E-03   -4.3084821471E-03   -4.3626691691E-03   -4.4175375120E-03
   -4.4730957355E-03   -4.5293525066E-03   -4.5863166009E-03   -4.6439969041E-03
   -4.7024024130E-03   -4.7615422372E-03   -4.8214256005E-03   -4.8820618420E-03
   -4.9434604182E-03   -5.0056309035E-03   -5.0685829925E-03   -5.1323265012E-03
   -5.1968713682E-03   -5.2622276568E-03   -5.3284055561E-03   -5.3954153827E-03
   -5.4632675823E-03   -5.5319727314E-03   -5.6015415385E-03   -5.6719848463E-03
   -5.7433136330E-03   -5.8155390140E-03   -5.8886722437E-03   -5.9627247173E-03
   -6.0377079722E-03   -6.1136336900E-03   -6.1905136984E-03   -6.2683599727E-03
   -6.3471846377E-03   -6.4269999697E-03   -6.5078183982E-03   -6.5896525080E-03
   -6.6725150407E-03   -6.7564188970E-03   -6.8413771385E-03   -6.9274029897E-03
   -7.0145098400E-03   -7.1027112458E-03   -7.1920209322E-03   -7.2824527955E-03
   -7.3740209052E-03   -7.4667395058E-03   -7.5606230192E-03   -7.6556860470E-03
   -7.7519433723E-03   -7.8494099621E-03   -7.9481009698E-03   -8.0480317370E-03
   -8.1492177959E-03   -8.2516748720E-03   -8.3554188859E-03   -8.4604659561E-03
   -8.5668324010E-03   -8.6745347417E-03   -8.7835897041E-03   -8.8940142215E-03
   -9.0058254375E-03   -9.1190407076E-03   -9.2336776026E-03   -9.3497539109E-03
   -9.4672876410E-03   -9.5862970241E-03   -9.7068005171E-03   -9.8288168050E-03
   -9.9523648034E-03   -1.0077463662E-02   -1.0204132766E-02   -1.0332391742E-02
   -1.0462260455E-02   -1.0593759019E-02   -1.0726907792E-02   -1.0861727386E-02
   -1.0998238664E-02   -1.1136462747E-02   -1.1276421015E-02   -1.1418135112E-02
   -1.1561626946E-02   -1.1706918694E-02   -1.1854032807E-02   -1.2002992009E-02
   -1.2153819303E-02   -1.2306537973E-02   -1.2461171588E-02   -1.2617744006E-02
   -1.2776279374E-02   -1.2936802137E-02   -1.3099337035E-02   -1.3263909111E-02
   -1.3430543711E-02   -1.3599266492E-02   -1.3770103420E-02   -1.3943080778E-02
   -1.4118225168E-02   -1.4295563512E-02   -1.4475123061E-02   -1.4656931392E-02
   -1.4841016419E-02   -1.5027406389E-02   -1.5216129893E-02   -1.5407215863E-02
   -1.5600693582E-02   -1.5796592682E-02   -1.5994943152E-02   -1.6195775341E-02
   -1.6399119959E-02   -1.6605008085E-02   -1.6813471168E-02   -1.7024541032E-02
   -1.7238249880E-02   -1.7454630297E-02   -1.7673715255E-02   -1.7895538117E-02
   -1.8120132641E-02   -1.8347532981E-02   -1.8577773697E-02   -1.8810889754E-02
   -1.9046916528E-02   -1.9285889810E-02   -1.9527845808E-02   -1.9772821156E-02
   -2.0020852914E-02   -2.0271978571E-02   -2.0526236054E-02   -2.0783663727E-02
   -2.1044300399E-02   -2.1308185327E-02   -2.1575358216E-02   -2.1845859231E-02
   -2.2119728993E-02   -2.2397008590E-02   -2.2677739574E-02   -2.2961963972E-02
   -2.3249724285E-02   -2.3541063495E-02   -2.3836025066E-02   -2.4134652950E-02
   -2.4436991591E-02   -2.4743085929E-02   -2.5052981402E-02   -2.5366723950E-02
   -2.5684360022E-02   -2.6005936574E-02   -2.6331501080E-02   -2.6661101528E-02
   -2.6994786427E-02   -2.7332604813E-02   -2.7674606247E-02   -2.8020840821E-02
   -2.8371359163E-02   -2.8726212436E-02   -2.9085452343E-02   -2.9449131132E-02
   -2.9817301595E-02   -3.0190017072E-02   -3.0567331455E-02   -3.0949299188E-02
   -3.1335975271E-02   -3.1727415262E-02   -3.2123675278E-02   -3.2524811996E-02
   -3.2930882657E-02   -3.3341945065E-02   -3.3758057592E-02   -3.4179279172E-02
   -3.4605669309E-02   -3.5037288075E-02   -3.5474196106E-02   -3.5916454611E-02
   -3.6364125363E-02   -3.6817270704E-02   -3.7275953540E-02   -3.7740237346E-02
   -3.8210186157E-02   -3.8685864573E-02   -3.9167337751E-02   -3.9654671409E-02
   -4.0147931815E-02   -4.0647185792E-02   -4.1152500709E-02   -4.1663944479E-02
   -4.2181585552E-02   -4.2705492914E-02   -4.3235736076E-02   -4.3772385074E-02
   -4.4315510458E-02   -4.4865183283E-02   -4.5421475109E-02   -4.5984457983E-02
   -4.6554204436E-02   -4.7130787472E-02   -4.7714280555E-02   -4.8304757601E-02
   -4.8902292964E-02   -4.9506961422E-02   -5.0118838167E-02   -5.0737998786E-02
   -5.1364519249E-02   -5.1998475888E-02   -5.2639945387E-02   -5.3289004756E-02
   -5.3945731313E-02   -5.4610202668E-02   -5.5282496695E-02   -5.5962691513E-02
   -5.6650865459E-02   -5.7347097065E-02   -5.8051465027E-02   -5.8764048181E-02
   -5.9484925471E-02   -6.0214175916E-02   -6.0951878580E-02   -6.1698112536E-02
   -6.2452956827E-02   -6.3216490433E-02   -6.3988792227E-02   -6.4769940934E-02
   -6.5560015087E-02   -6.6359092980E-02   -6.7167252624E-02   -6.7984571692E-02
   -6.8811127466E-02   -6.9646996786E-02   -7.0492255989E-02   -7.1346980850E-02
   -7.2211246518E-02   -7.3085127455E-02   -7.3968697358E-02   -7.4862029098E-02
   -7.5765194639E-02   -7.6678264962E-02   -7.7601309984E-02   -7.8534398473E-02
   -7.9477597961E-02   -8.0430974651E-02   -8.1394593322E-02   -8.2368517230E-02
   -8.3352808004E-02   -8.4347525538E-02   -8.5352727878E-02   -8.6368471110E-02
   -8.7394809231E-02   -8.8431794030E-02   -8.9479474954E-02   -9.0537898969E-02
   -9.1607110425E-02   -9.2687150904E-02   -9.3778059068E-02   -9.4879870501E-02
   -9.5992617546E-02   -9.7116329132E-02   -9.8251030598E-02   -9.9396743508E-02
   -1.0055348546E-01   -1.0172126990E-01   -1.0290010588E-01   -1.0408999790E-01
   -1.0529094566E-01   -1.0650294380E-01   -1.0772598173E-01   -1.0896004333E-01
   -1.1020510673E-01   -1.1146114404E-01   -1.1272812105E-01   -1.1400599699E-01
   -1.1529472423E-01   -1.1659424797E-01   -1.1790450591E-01   -1.1922542799E-01
   -1.2055693599E-01   -1.2189894323E-01   -1.2325135422E-01   -1.2461406425E-01
   -1.2598695906E-01   -1.2736991443E-01   -1.2876279580E-01   -1.3016545781E-01
   -1.3157774394E-01   -1.3299948599E-01   -1.3443050371E-01   -1.3587060428E-01
   -1.3731958185E-01   -1.3877721702E-01   -1.4024327638E-01   -1.4171751195E-01
   -1.4319966065E-01   -1.4468944375E-01   -1.4618656630E-01   -1.4769071656E-01
   -1.4920156537E-01   -1.5071876558E-01   -1.5224195139E-01   -1.5377073770E-01
   -1.5530471949E-01   -1.5684347109E-01   -1.5838654552E-01   -1.5993347379E-01
   -1.6148376414E-01   -1.6303690134E-01   -1.6459234589E-01   -1.6614953332E-01
   -1.6770787331E-01   -1.6926674898E-01   -1.7082551602E-01   -1.7238350188E-01
   -1.7394000493E-01   -1.7549429359E-01   -1.7704560549E-01   -1.7859314656E-01
   -1.8013609017E-01   -1.8167357620E-01   -1.8320471017E-01   -1.8472856227E-01
   -1.8624416648E-01   -1.8775051964E-01   -1.8924658048E-01   -1.9073126873E-01
   -1.9220346414E-01   -1.9366200559E-01   -1.9510569011E-01   -1.9653327198E-01
   -1.9794346181E-01   -1.9933492563E-01   -2.0070628395E-01   -2.0205611095E-01
   -2.0338293355E-01   -2.0468523058E-01   -2.0596143200E-01   -2.0720991804E-01
   -2.0842901850E-01   -2.0961701201E-01   -2.1077212531E-01   -2.1189253268E-01
   -2.1297635529E-01   -2.1402166069E-01   -2.1502646236E-01   -2.1598871927E-01
   -2.1690633556E-01   -2.1777716026E-01   -2.1859898718E-01   -2.1936955476E-01
   -2.2008654610E-01   -2.2074758914E-01   -2.2135025682E-01   -2.2189206748E-01
   -2.2237048531E-01   -2.2278292105E-01   -2.2312673266E-01   -2.2339922631E-01
   -2.2359765746E-01   -2.2371923209E-01   -2.2376110819E-01   -2.2372039737E-01
   -2.2359416670E-01   -2.2337944078E-01   -2.2307320399E-01   -2.2267240303E-01
   -2.2217394964E-01   -2.2157472362E-01   -2.2087157608E-01   -2.2006133300E-01
   -2.1914079900E-01   -2.1810676150E-01   -2.1695599510E-01   -2.1568526628E-01
   -2.1429133844E-01   -2.1277097723E-01   -2.1112095624E-01   -2.0933806300E-01
   -2.0741910530E-01   -2.0536091788E-01   -2.0316036946E-01   -2.0081437007E-01
   -1.9831987879E-01   -1.9567391174E-01   -1.9287355044E-01   -1.8991595055E-01
   -1.8679835083E-01   -1.8351808246E-01   -1.8007257865E-01   -1.7645938447E-01
   -1.7267616702E-01   -1.6872072577E-01   -1.6459100314E-01   -1.6028509520E-01
   -1.5580126262E-01   -1.5113794165E-01   -1.4629375517E-01   -1.4126752389E-01
   -1.3605827737E-01   -1.3066526509E-01   -1.2508796738E-01   -1.1932610612E-01
   -1.1337965525E-01   -1.0724885091E-01   -1.0093420128E-01   -9.4436495874E-02
   -8.7756814336E-02   -8.0896534658E-02   -7.3857340647E-02   -6.6641228638E-02
   -5.9250513338E-02   -5.1687832705E-02   -4.3956151797E-02   -3.6058765486E-02
   -2.7999299951E-02   -1.9781712885E-02   -1.1410292311E-02   -2.8896539512E-03
    5.7752629286E-03    1.4579201265E-02    2.3516593583E-02    3.2581571063E-02
    4.1767974338E-02    5.1069366019E-02    6.0479044979E-02    6.9990062363E-02
    7.9595239319E-02    8.9287186386E-02    9.9058324487E-02    1.0890090744E-01
    1.1880704585E-01    1.2876873232E-01    1.3877786774E-01    1.4882628849E-01
    1.5890579450E-01    1.6900817763E-01    1.7912525048E-01    1.8924887511E-01
    1.9937099146E-01    2.0948364518E-01    2.1957901458E-01    2.2964943621E-01
    2.3968742902E-01    2.4968571647E-01    2.5963724646E-01    2.6953520873E-01
    2.7937304932E-01    2.8914448196E-01    2.9884349613E-01    3.0846436146E-01
    3.1800162855E-01    3.2745012581E-01    3.3680495264E-01    3.4606146864E-01
    3.5521527923E-01    3.6426221766E-01    3.7319832377E-01    3.8201981981E-01
    3.9072308368E-01    3.9930462017E-01    4.0776103052E-01    4.1608898118E-01
    4.2428517202E-01    4.3234630499E-01    4.4026905348E-01    4.4805003328E-01
    4.5568577538E-01    4.6317270129E-01    4.7050710098E-01    4.7768511370E-01
    4.8470271172E-01    4.9155568674E-01    4.9823963890E-01    5.0474996828E-01
    5.1108186749E-01    5.1723031483E-01    5.2319007150E-01    5.2895572369E-01
    5.3452177781E-01    5.3988273435E-01    5.4503315514E-01    5.4996772262E-01
    5.5468128875E-01    5.5916891245E-01    5.6342588615E-01    5.6744775275E-01
    5.7123031506E-01    5.7476963949E-01    5.7806205602E-01    5.8110415577E-01
    5.8389278761E-01    5.8642505444E-01    5.8869830993E-01    5.9071015586E-01
    5.9245844054E-01    5.9394125800E-01    5.9515694822E-01    5.9610409810E-01
    5.9678154322E-01    5.9718837009E-01    5.9732391885E-01    5.9718778624E-01
    5.9677982875E-01    5.9610016582E-01    5.9514918293E-01    5.9392753458E-01
    5.9243614713E-01    5.9067622124E-01    5.8864923408E-01    5.8635694125E-01
    5.8380137822E-01    5.8098486152E-01    5.7790998948E-01    5.7457964272E-01
    5.7099698415E-01    5.6716545881E-01    5.6308879328E-01    5.5877099489E-01
    5.5421635068E-01    5.4942942611E-01    5.4441506360E-01    5.3917838088E-01
    5.3372476923E-01    5.2805989144E-01    5.2218967977E-01    5.1612033354E-01
    5.0985831666E-01    5.0341035473E-01    4.9678343181E-01    4.8998478675E-01
    4.8302190877E-01    4.7590253239E-01    4.6863463126E-01    4.6122641089E-01
    4.5368629991E-01    4.4602293973E-01    4.3824517234E-01    4.3036202600E-01
    4.2238269876E-01    4.1431653949E-01    4.0617302660E-01    3.9796174418E-01
    3.8969235589E-01    3.8137457654E-01    3.7301814180E-01    3.6463277623E-01
    3.5622816019E-01    3.4781389589E-01    3.3939947333E-01    3.3099423642E-01
    3.2260735001E-01    3.1424776822E-01    3.0592420462E-01    2.9764510455E-01
    2.8941862016E-01    2.8125258824E-01    2.7315451121E-01    2.6513154126E-01
    2.5719046784E-01    2.4933770842E-01    2.4157930239E-01    2.3392090812E-01
    2.2636780282E-01    2.1892488512E-01    2.1159668007E-01    2.0438734621E-01
    1.9730068460E-01    1.9034014932E-01    1.8350885920E-01    1.7680961061E-01
    1.7024489075E-01    1.6381689145E-01    1.5752752298E-01    1.5137842779E-01
    1.4537099389E-01    1.3950636772E-01    1.3378546623E-01    1.2820898833E-01
    1.2277742524E-01    1.1749107004E-01    1.1235002614E-01    1.0735421483E-01
    1.0250338194E-01    9.7797103566E-02    9.3234791142E-02    8.8815695796E-02
    8.4538912243E-02    8.0403382279E-02    7.6407898050E-02    7.2551105212E-02
    6.8831506135E-02    6.5247463237E-02    6.1797202587E-02    5.8478817840E-02
    5.5290274582E-02    5.2229415140E-02    4.9293963886E-02    4.6481533037E-02
    4.3789628973E-02    4.1215659029E-02    3.8756938745E-02    3.6410699527E-02
    3.4174096660E-02    3.2044217626E-02    3.0018090654E-02    2.8092693442E-02
    2.6264961972E-02    2.4531799365E-02    2.2890084703E-02    2.1336681746E-02
    1.9868447506E-02    1.8482240603E-02    1.7174929362E-02    1.5943399606E-02
    1.4784562101E-02    1.3695359628E-02    1.2672773640E-02    1.1713830494E-02
    1.0815607236E-02    9.9752369120E-03    9.1899134270E-03    8.4568959144E-03
    7.7735126386E-03    7.1371644244E-03    6.5453276224E-03    5.9955566201E-03
    5.4854859116E-03    5.0128317390E-03    4.5753933250E-03    4.1710537118E-03
    3.7977802291E-03    3.4536246094E-03    3.1367227752E-03    2.8452943173E-03
    2.5776416893E-03    2.3321491404E-03    2.1072814092E-03    1.9015822014E-03
    1.7136724741E-03    1.5422485482E-03    1.3860800709E-03    1.2440078485E-03
    1.1149415696E-03    9.9785743788E-04
   </PP_CHI.3>
 </PP_PSWFC>
 <PP_RHOATOM type="real"  size="1026" columns="4">
    0.0000000000E+00    4.1741824750E-08    4.2798524100E-08    4.3881973923E-08
    4.4992851409E-08    4.6131850894E-08    4.7299684288E-08    4.8497081526E-08
    4.9724791021E-08    5.0983580129E-08    5.2274235637E-08    5.3597564245E-08
    5.4954393078E-08    5.6345570196E-08    5.7771965132E-08    5.9234469429E-08
    6.0733997199E-08    6.2271485696E-08    6.3847895901E-08    6.5464213122E-08
    6.7121447609E-08    6.8820635188E-08    7.0562837906E-08    7.2349144698E-08
    7.4180672063E-08    7.6058564765E-08    7.7983996549E-08    7.9958170872E-08
    8.1982321657E-08    8.4057714065E-08    8.6185645284E-08    8.8367445341E-08
    9.0604477930E-08    9.2898141271E-08    9.5249868978E-08    9.7661130958E-08
    1.0013343433E-07    1.0266832436E-07    1.0526738544E-07    1.0793224206E-07
    1.1066455986E-07    1.1346604661E-07    1.1633845334E-07    1.1928357540E-07
    1.2230325358E-07    1.2539937528E-07    1.2857387567E-07    1.3182873893E-07
    1.3516599945E-07    1.3858774313E-07    1.4209610867E-07    1.4569328890E-07
    1.4938153219E-07    1.5316314382E-07    1.5704048739E-07    1.6101598640E-07
    1.6509212565E-07    1.6927145286E-07    1.7355658024E-07    1.7795018615E-07
    1.8245501674E-07    1.8707388765E-07    1.9180968585E-07    1.9666537136E-07
    2.0164397914E-07    2.0674862099E-07    2.1198248747E-07    2.1734884991E-07
    2.2285106249E-07    2.2849256424E-07    2.3427688131E-07    2.4020762906E-07
    2.4628851443E-07    2.5252333816E-07    2.5891599721E-07    2.6547048721E-07
    2.7219090493E-07    2.7908145085E-07    2.8614643179E-07    2.9339026358E-07
    3.0081747387E-07    3.0843270491E-07    3.1624071645E-07    3.2424638877E-07
    3.3245472567E-07    3.4087085764E-07    3.4950004502E-07    3.5834768134E-07
    3.6741929667E-07    3.7672056107E-07    3.8625728812E-07    3.9603543860E-07
    4.0606112417E-07    4.1634061121E-07    4.2688032474E-07    4.3768685243E-07
    4.4876694871E-07    4.6012753900E-07    4.7177572405E-07    4.8371878435E-07
    4.9596418471E-07    5.0851957891E-07    5.2139281448E-07    5.3459193762E-07
    5.4812519820E-07    5.6200105497E-07    5.7622818079E-07    5.9081546809E-07
    6.0577203439E-07    6.2110722805E-07    6.3683063406E-07    6.5295208007E-07
    6.6948164252E-07    6.8642965292E-07    7.0380670435E-07    7.2162365803E-07
    7.3989165015E-07    7.5862209880E-07    7.7782671113E-07    7.9751749066E-07
    8.1770674478E-07    8.3840709243E-07    8.5963147203E-07    8.8139314950E-07
    9.0370572662E-07    9.2658314948E-07    9.5003971724E-07    9.7409009102E-07
    9.9874930310E-07    1.0240327663E-06    1.0499562837E-06    1.0765360582E-06
    1.1037887032E-06    1.1317312524E-06    1.1603811708E-06    1.1897563657E-06
    1.2198751975E-06    1.2507564914E-06    1.2824195493E-06    1.3148841617E-06
    1.3481706200E-06    1.3822997294E-06    1.4172928217E-06    1.4531717687E-06
    1.4899589961E-06    1.5276774969E-06    1.5663508467E-06    1.6060032175E-06
    1.6466593933E-06    1.6883447857E-06    1.7310854493E-06    1.7749080987E-06
    1.8198401243E-06    1.8659096102E-06    1.9131453515E-06    1.9615768720E-06
    2.0112344430E-06    2.0621491022E-06    2.1143526730E-06    2.1678777845E-06
    2.2227578915E-06    2.2790272960E-06    2.3367211684E-06    2.3958755692E-06
    2.4565274719E-06    2.5187147861E-06    2.5824763810E-06    2.6478521096E-06
    2.7148828341E-06    2.7836104510E-06    2.8540779174E-06    2.9263292778E-06
    3.0004096918E-06    3.0763654623E-06    3.1542440642E-06    3.2340941742E-06
    3.3159657016E-06    3.3999098188E-06    3.4859789937E-06    3.5742270226E-06
    3.6647090637E-06    3.7574816712E-06    3.8526028313E-06    3.9501319980E-06
    4.0501301305E-06    4.1526597312E-06    4.2577848845E-06    4.3655712974E-06
    4.4760863401E-06    4.5893990886E-06    4.7055803672E-06    4.8247027934E-06
    4.9468408228E-06    5.0720707962E-06    5.2004709866E-06    5.3321216488E-06
    5.4671050691E-06    5.6055056170E-06    5.7474097978E-06    5.8929063068E-06
    6.0420860844E-06    6.1950423735E-06    6.3518707773E-06    6.5126693191E-06
    6.6775385040E-06    6.8465813812E-06    7.0199036087E-06    7.1976135192E-06
    7.3798221880E-06    7.5666435023E-06    7.7581942322E-06    7.9545941041E-06
    8.1559658753E-06    8.3624354105E-06    8.5741317611E-06    8.7911872452E-06
    9.0137375306E-06    9.2419217198E-06    9.4758824366E-06    9.7157659152E-06
    9.9617220921E-06    1.0213904699E-05    1.0472471361E-05    1.0737583691E-05
    1.1009407394E-05    1.1288112372E-05    1.1573872826E-05    1.1866867368E-05
    1.2167279130E-05    1.2475295882E-05    1.2791110146E-05    1.3114919320E-05
    1.3446925797E-05    1.3787337094E-05    1.4136365983E-05    1.4494230621E-05
    1.4861154688E-05    1.5237367526E-05    1.5623104285E-05    1.6018606065E-05
    1.6424120073E-05    1.6839899771E-05    1.7266205040E-05    1.7703302338E-05
    1.8151464870E-05    1.8610972758E-05    1.9082113213E-05    1.9565180720E-05
    2.0060477216E-05    2.0568312283E-05    2.1089003343E-05    2.1622875849E-05
    2.2170263496E-05    2.2731508428E-05    2.3306961447E-05    2.3896982238E-05
    2.4501939592E-05    2.5122211636E-05    2.5758186069E-05    2.6410260406E-05
    2.7078842224E-05    2.7764349420E-05    2.8467210469E-05    2.9187864694E-05
    2.9926762541E-05    3.0684365856E-05    3.1461148181E-05    3.2257595044E-05
    3.3074204266E-05    3.3911486270E-05    3.4769964402E-05    3.5650175255E-05
    3.6552669010E-05    3.7478009773E-05    3.8426775932E-05    3.9399560521E-05
    4.0396971582E-05    4.1419632554E-05    4.2468182660E-05    4.3543277302E-05
    4.4645588478E-05    4.5775805198E-05    4.6934633914E-05    4.8122798964E-05
    4.9341043024E-05    5.0590127571E-05    5.1870833362E-05    5.3183960919E-05
    5.4530331030E-05    5.5910785264E-05    5.7326186496E-05    5.8777419445E-05
    6.0265391229E-05    6.1791031934E-05    6.3355295189E-05    6.4959158768E-05
    6.6603625201E-05    6.8289722397E-05    7.0018504290E-05    7.1791051496E-05
    7.3608471991E-05    7.5471901800E-05    7.7382505712E-05    7.9341478003E-05
    8.1350043186E-05    8.3409456778E-05    8.5521006080E-05    8.7686010987E-05
    8.9905824808E-05    9.2181835119E-05    9.4515464624E-05    9.6908172047E-05
    9.9361453046E-05    1.0187684115E-04    1.0445590870E-04    1.0710026786E-04
    1.0981157162E-04    1.1259151479E-04    1.1544183513E-04    1.1836431436E-04
    1.2136077935E-04    1.2443310318E-04    1.2758320639E-04    1.3081305813E-04
    1.3412467743E-04    1.3752013440E-04    1.4100155160E-04    1.4457110531E-04
    1.4823102694E-04    1.5198360436E-04    1.5583118341E-04    1.5977616929E-04
    1.6382102813E-04    1.6796828849E-04    1.7222054295E-04    1.7658044974E-04
    1.8105073440E-04    1.8563419148E-04    1.9033368630E-04    1.9515215673E-04
    2.0009261501E-04    2.0515814969E-04    2.1035192751E-04    2.1567719538E-04
    2.2113728245E-04    2.2673560218E-04    2.3247565444E-04    2.3836102774E-04
    2.4439540147E-04    2.5058254817E-04    2.5692633594E-04    2.6343073080E-04
    2.7009979924E-04    2.7693771070E-04    2.8394874022E-04    2.9113727110E-04
    2.9850779765E-04    3.0606492798E-04    3.1381338691E-04    3.2175801894E-04
    3.2990379121E-04    3.3825579669E-04    3.4681925734E-04    3.5559952734E-04
    3.6460209650E-04    3.7383259367E-04    3.8329679024E-04    3.9300060379E-04
    4.0295010178E-04    4.1315150533E-04    4.2361119316E-04    4.3433570552E-04
    4.4533174835E-04    4.5660619743E-04    4.6816610269E-04    4.8001869265E-04
    4.9217137895E-04    5.0463176093E-04    5.1740763047E-04    5.3050697680E-04
    5.4393799156E-04    5.5770907389E-04    5.7182883571E-04    5.8630610710E-04
    6.0114994185E-04    6.1636962312E-04    6.3197466925E-04    6.4797483973E-04
    6.6438014133E-04    6.8120083434E-04    6.9844743902E-04    7.1613074218E-04
    7.3426180395E-04    7.5285196470E-04    7.7191285217E-04    7.9145638873E-04
    8.1149479888E-04    8.3204061689E-04    8.5310669468E-04    8.7470620985E-04
    8.9685267397E-04    9.1955994106E-04    9.4284221623E-04    9.6671406464E-04
    9.9119042063E-04    1.0162865970E-03    1.0420182949E-03    1.0684016132E-03
    1.0954530590E-03    1.1231895579E-03    1.1516284645E-03    1.1807875735E-03
    1.2106851304E-03    1.2413398438E-03    1.2727708962E-03    1.3049979568E-03
    1.3380411934E-03    1.3719212851E-03    1.4066594357E-03    1.4422773864E-03
    1.4787974300E-03    1.5162424247E-03    1.5546358082E-03    1.5940016130E-03
    1.6343644811E-03    1.6757496795E-03    1.7181831162E-03    1.7616913568E-03
    1.8063016403E-03    1.8520418975E-03    1.8989407673E-03    1.9470276157E-03
    1.9963325540E-03    2.0468864572E-03    2.0987209845E-03    2.1518685982E-03
    2.2063625850E-03    2.2622370762E-03    2.3195270698E-03    2.3782684525E-03
    2.4384980219E-03    2.5002535101E-03    2.5635736075E-03    2.6284979869E-03
    2.6950673288E-03    2.7633233472E-03    2.8333088155E-03    2.9050675938E-03
    2.9786446568E-03    3.0540861216E-03    3.1314392775E-03    3.2107526156E-03
    3.2920758595E-03    3.3754599965E-03    3.4609573105E-03    3.5486214145E-03
    3.6385072846E-03    3.7306712952E-03    3.8251712544E-03    3.9220664406E-03
    4.0214176404E-03    4.1232871869E-03    4.2277389991E-03    4.3348386228E-03
    4.4446532722E-03    4.5572518722E-03    4.6727051028E-03    4.7910854433E-03
    4.9124672191E-03    5.0369266486E-03    5.1645418917E-03    5.2953930997E-03
    5.4295624663E-03    5.5671342801E-03    5.7081949781E-03    5.8528332010E-03
    6.0011398501E-03    6.1532081446E-03    6.3091336818E-03    6.4690144980E-03
    6.6329511313E-03    6.8010466857E-03    6.9734068974E-03    7.1501402026E-03
    7.3313578066E-03    7.5171737556E-03    7.7077050098E-03    7.9030715184E-03
    8.1033962968E-03    8.3088055058E-03    8.5194285328E-03    8.7353980748E-03
    8.9568502247E-03    9.1839245582E-03    9.4167642248E-03    9.6555160394E-03
    9.9003305782E-03    1.0151362275E-02    1.0408769523E-02    1.0672714775E-02
    1.0943364652E-02    1.1220890047E-02    1.1505466241E-02    1.1797273014E-02
    1.2096494763E-02    1.2403320621E-02    1.2717944584E-02    1.3040565633E-02
    1.3371387867E-02    1.3710620635E-02    1.4058478677E-02    1.4415182260E-02
    1.4780957324E-02    1.5156035634E-02    1.5540654927E-02    1.5935059074E-02
    1.6339498238E-02    1.6754229040E-02    1.7179514728E-02    1.7615625354E-02
    1.8062837950E-02    1.8521436715E-02    1.8991713201E-02    1.9473966512E-02
    1.9968503496E-02    2.0475638959E-02    2.0995695870E-02    2.1529005578E-02
    2.2075908038E-02    2.2636752035E-02    2.3211895423E-02    2.3801705363E-02
    2.4406558575E-02    2.5026841591E-02    2.5662951017E-02    2.6315293802E-02
    2.6984287519E-02    2.7670360647E-02    2.8373952862E-02    2.9095515342E-02
    2.9835511077E-02    3.0594415184E-02    3.1372715237E-02    3.2170911603E-02
    3.2989517789E-02    3.3829060799E-02    3.4690081498E-02    3.5573134991E-02
    3.6478791014E-02    3.7407634324E-02    3.8360265121E-02    3.9337299461E-02
    4.0339369696E-02    4.1367124920E-02    4.2421231429E-02    4.3502373196E-02
    4.4611252358E-02    4.5748589716E-02    4.6915125257E-02    4.8111618680E-02
    4.9338849951E-02    5.0597619858E-02    5.1888750601E-02    5.3213086384E-02
    5.4571494032E-02    5.5964863629E-02    5.7394109168E-02    5.8860169224E-02
    6.0364007651E-02    6.1906614292E-02    6.3489005718E-02    6.5112225988E-02
    6.6777347427E-02    6.8485471432E-02    7.0237729305E-02    7.2035283107E-02
    7.3879326541E-02    7.5771085860E-02    7.7711820805E-02    7.9702825571E-02
    8.1745429805E-02    8.3840999634E-02    8.5990938721E-02    8.8196689364E-02
    9.0459733617E-02    9.2781594456E-02    9.5163836979E-02    9.7608069643E-02
    1.0011594554E-01    1.0268916370E-01    1.0532947049E-01    1.0803866097E-01
    1.1081858036E-01    1.1367112554E-01    1.1659824658E-01    1.1960194833E-01
    1.2268429207E-01    1.2584739719E-01    1.2909344297E-01    1.3242467035E-01
    1.3584338380E-01    1.3935195326E-01    1.4295281613E-01    1.4664847928E-01
    1.5044152124E-01    1.5433459430E-01    1.5833042685E-01    1.6243182563E-01
    1.6664167823E-01    1.7096295547E-01    1.7539871407E-01    1.7995209921E-01
    1.8462634734E-01    1.8942478895E-01    1.9435085151E-01    1.9940806250E-01
    2.0460005248E-01    2.0993055832E-01    2.1540342654E-01    2.2102261668E-01
    2.2679220487E-01    2.3271638747E-01    2.3879948484E-01    2.4504594518E-01
    2.5146034862E-01    2.5804741128E-01    2.6481198957E-01    2.7175908459E-01
    2.7889384667E-01    2.8622158008E-01    2.9374774781E-01    3.0147797658E-01
    3.0941806199E-01    3.1757397377E-01    3.2595186127E-01    3.3455805907E-01
    3.4339909275E-01    3.5248168487E-01    3.6181276108E-01    3.7139945646E-01
    3.8124912202E-01    3.9136933134E-01    4.0176788748E-01    4.1245283002E-01
    4.2343244234E-01    4.3471525902E-01    4.4631007355E-01    4.5822594613E-01
    4.7047221175E-01    4.8305848840E-01    4.9599468555E-01    5.0929101282E-01
    5.2295798875E-01    5.3700644995E-01    5.5144756026E-01    5.6629282024E-01
    5.8155407677E-01    5.9724353286E-01    6.1337375764E-01    6.2995769651E-01
    6.4700868147E-01    6.6454044156E-01    6.8256711348E-01    7.0110325230E-01
    7.2016384235E-01    7.3976430809E-01    7.5992052517E-01    7.8064883144E-01
    8.0196603809E-01    8.2388944070E-01    8.4643683032E-01    8.6962650445E-01
    8.9347727799E-01    9.1800849396E-01    9.4324003413E-01    9.6919232934E-01
    9.9588636963E-01    1.0233437140E+00    1.0515864997E+00    1.0806374512E+00
    1.1105198885E+00    1.1412577350E+00    1.1728755244E+00    1.2053984071E+00
    1.2388521555E+00    1.2732631685E+00    1.3086584749E+00    1.3450657351E+00
    1.3825132424E+00    1.4210299218E+00    1.4606453280E+00    1.5013896407E+00
    1.5432936591E+00    1.5863887935E+00    1.6307070542E+00    1.6762810390E+00
    1.7231439172E+00    1.7713294107E+00    1.8208717718E+00    1.8718057585E+00
    1.9241666042E+00    1.9779899856E+00    2.0333119848E+00    2.0901690471E+00
    2.1485979346E+00    2.2086356735E+00    2.2703194971E+00    2.3336867813E+00
    2.3987749755E+00    2.4656215254E+00    2.5342637895E+00    2.6047389483E+00
    2.6770839044E+00    2.7513351762E+00    2.8275287807E+00    2.9057001091E+00
    2.9858837915E+00    3.0681135518E+00    3.1524220526E+00    3.2388407284E+00
    3.3273996083E+00    3.4181271262E+00    3.5110499193E+00    3.6061926137E+00
    3.7035775973E+00    3.8032247799E+00    3.9051513388E+00    4.0093714515E+00
    4.1158960142E+00    4.2247323463E+00    4.3358838804E+00    4.4493498388E+00
    4.5651248957E+00    4.6831988250E+00    4.8035561358E+00    4.9261756936E+00
    5.0510303296E+00    5.1780864380E+00    5.3073035623E+00    5.4386339712E+00
    5.5720222267E+00    5.7074047436E+00    5.8447093441E+00    5.9838548083E+00
    6.1247504223E+00    6.2672955277E+00    6.4113790737E+00    6.5568791749E+00
    6.7036626789E+00    6.8515847467E+00    7.0004884485E+00    7.1502043814E+00
    7.3005503112E+00    7.4513308449E+00    7.6023371373E+00    7.7533466387E+00
    7.9041228880E+00    8.0544153587E+00    8.2039593629E+00    8.3524760203E+00
    8.4996722995E+00    8.6452411374E+00    8.7888616451E+00    8.9301994068E+00
    9.0689068790E+00    9.2046238970E+00    9.3369782967E+00    9.4655866566E+00
    9.5900551695E+00    9.7099806461E+00    9.8249516601E+00    9.9345498364E+00
    1.0038351288E+01    1.0135928205E+01    1.0226850597E+01    1.0310688189E+01
    1.0387012468E+01    1.0455398889E+01    1.0515429219E+01    1.0566694026E+01
    1.0608795298E+01    1.0641349188E+01    1.0663988864E+01    1.0676367455E+01
    1.0678161071E+01    1.0669071880E+01    1.0648831211E+01    1.0617202673E+01
    1.0573985239E+01    1.0519016282E+01    1.0452174521E+01    1.0373382840E+01
    1.0282610951E+01    1.0179877846E+01    1.0065254012E+01    9.9388633648E+00
    9.8008848461E+00    9.6515536664E+00    9.4911621331E+00    9.3200600369E+00
    9.1386545578E+00    8.9474096600E+00    8.7468449480E+00    8.5375339618E+00
    8.3201018975E+00    8.0952227421E+00    7.8636158251E+00    7.6260417930E+00
    7.3832980246E+00    7.1362135156E+00    6.8856432686E+00    6.6324622370E+00
    6.3775588806E+00    6.1218284005E+00    5.8661657311E+00    5.6114583742E+00
    5.3585791677E+00    5.1083790898E+00    4.8616801991E+00    4.6192688184E+00
    4.3818890658E+00    4.1502368388E+00    3.9249543484E+00    3.7066252960E+00
    3.4957707750E+00    3.2928459686E+00    3.0982376977E+00    2.9122628623E+00
    2.7351677963E+00    2.5671285410E+00    2.4082520224E+00    2.2585780959E+00
    2.1180824066E+00    1.9866799935E+00    1.8642295510E+00    1.7505382463E+00
    1.6453669846E+00    1.5484360014E+00    1.4594306625E+00    1.3780073502E+00
    1.3037993168E+00    1.2364223989E+00    1.1754804908E+00    1.1205706928E+00
    1.0712880661E+00    1.0272299396E+00    9.8799973631E-01    9.5321030063E-01
    9.2248672696E-01    8.9546870293E-01    8.7181239393E-01    8.5119190411E-01
    8.3330035536E-01    8.1785062845E-01    8.0457580996E-01    7.9322938701E-01
    7.8358521946E-01    7.7543731555E-01    7.6859943608E-01    7.6290457294E-01
    7.5820439266E-01    7.5436857614E-01    7.5128398726E-01    7.4885356049E-01
    7.4699230651E-01    7.4561997219E-01    7.4465942187E-01    7.4403670257E-01
    7.4368109327E-01    7.4352513412E-01    7.4350464146E-01    7.4355871221E-01
    7.4362972069E-01    7.4366330956E-01    7.4360837638E-01    7.4341705639E-01
    7.4304470193E-01    7.4244985868E-01    7.4159423863E-01    7.4044268967E-01
    7.3896316166E-01    7.3712666870E-01    7.3490724758E-01    7.3228191208E-01
    7.2923060312E-01    7.2573613459E-01    7.2178413486E-01    7.1736298390E-01
    7.1246374612E-01    7.0708009885E-01    7.0120825670E-01    6.9484689185E-01
    6.8799705036E-01    6.8066206488E-01    6.7284746376E-01    6.6456087687E-01
    6.5581193844E-01    6.4661218707E-01    6.3697496323E-01    6.2691530457E-01
    6.1644983921E-01    6.0559667744E-01    5.9437530193E-01    5.8280645689E-01
    5.7091203628E-01    5.5871497137E-01    5.4623911789E-01    5.3350914286E-01
    5.2055041133E-01    5.0738887317E-01    4.9405094991E-01    4.8056342183E-01
    4.6695331528E-01    4.5324779033E-01    4.3947402875E-01    4.2565912248E-01
    4.1182996259E-01    3.9801312904E-01    3.8423478132E-01    3.7052055050E-01
    3.5689543295E-01    3.4338368647E-01    3.3000872942E-01    3.1679304378E-01
    3.0375808293E-01    2.9092418533E-01    2.7831049505E-01    2.6593489025E-01
    2.5381392063E-01    2.4196275486E-01    2.3039513865E-01    2.1912336427E-01
    2.0815825173E-01    1.9750914203E-01    1.8718390225E-01    1.7718894232E-01
    1.6752924281E-01    1.5820839321E-01    1.4922863963E-01    1.4059094095E-01
    1.3229503231E-01    1.2433949475E-01    1.1672182960E-01    1.0943853671E-01
    1.0248519495E-01    9.5856544201E-02    8.9546567532E-02    8.3548572714E-02
    7.7855272230E-02    7.2458861005E-02    6.7351091253E-02    6.2523343934E-02
    5.7966696424E-02    5.3671986109E-02    4.9629869720E-02    4.5830878293E-02
    4.2265467753E-02    3.8924065163E-02    3.5797110751E-02    3.2875095862E-02
    3.0148597059E-02    2.7608306559E-02    2.5245059281E-02    2.3049856722E-02
    2.1013887945E-02    1.9128547887E-02    1.7385453243E-02    1.5776456128E-02
    1.4293655713E-02    1.2929408009E-02    1.1676333941E-02    1.0527325856E-02
    9.4755525579E-03    8.5144629763E-03    7.6377885357E-03    6.8395442997E-03
    6.1140289457E-03    5.4558236248E-03    4.8597897600E-03    4.3210658329E-03
    3.8350632151E-03    3.3974611010E-03    3.0042006036E-03    2.6514780813E-03
    2.3357377658E-03    2.0536637670E-03    1.8021715333E-03    1.5783988498E-03
    1.3796964549E-03    1.2036183603E-03    1.0479119555E-03    9.1050797589E-04
    7.8951041263E-04    6.8318643544E-04    5.8995639721E-04    5.0838398199E-04
    4.3716655304E-04    3.7512575066E-04    3.2119838344E-04    2.7442764970E-04
    2.3395471975E-04    1.9901070290E-04    1.6890901759E-04    1.4303817701E-04
    1.2085499749E-04    1.0187823204E-04    8.5682627369E-05    7.1893398370E-05
    6.0181111371E-05    5.0256964087E-05    4.1868448157E-05    3.4795378134E-05
    2.8846269336E-05    2.3855045885E-05    1.9678059537E-05    1.6191399504E-05
    1.3288473357E-05    1.0877839226E-05    8.8812698751E-06    7.2320297374E-06
    5.8733466968E-06    4.7570611688E-06    3.8424359260E-06    3.0951110544E-06
    2.4861894071E-06    1.9914389326E-06
 </PP_RHOATOM>
 <PP_GIPAW gipaw_data_format="2">
   <PP_GIPAW_CORE_ORBITALS number_of_core_orbitals="1">
     <PP_GIPAW_CORE_ORBITAL.1 size="1026" index="1" label="1S" n="1" l="0">
   0.0000000000000000E+00   3.4835317041690631E-03   3.5271796712891910E-03
   3.5713737890121664E-03   3.6161207903741164E-03   3.6614275904025967E-03
   3.7073011897545863E-03   3.7537486775097465E-03   3.8007772311888471E-03
   3.8483941178092383E-03   3.8966066949957905E-03   3.9454224121093628E-03
   3.9948488113868566E-03   4.0448935290947514E-03   4.0955642966967847E-03
   4.1468689420359689E-03   4.1988153905310899E-03   4.2514116663879206E-03
   4.3046658938252578E-03   4.3585862983160119E-03   4.4131812078435041E-03
   4.4684590541731461E-03   4.5244283741397370E-03   4.5810978109504892E-03
   4.6384761155040194E-03   4.6965721477255041E-03   4.7553948779181492E-03
   4.8149533881312106E-03   4.8752568735447440E-03   4.9363146438712799E-03
   4.9981361247746414E-03   5.0607308593060944E-03   5.1241085093580423E-03
   5.1882788571354903E-03   5.2532518066454514E-03   5.3190373852045570E-03
   5.3856457449650268E-03   5.4530871644593278E-03   5.5213720501635704E-03
   5.5905109380800528E-03   5.6605144953390312E-03   5.7313935218200641E-03
   5.8031589517930334E-03   5.8758218555792175E-03   5.9493934412325313E-03
   6.0238850562412544E-03   6.0993081892504377E-03   6.1756744718052779E-03
   6.2529956801156599E-03   6.3312837368421542E-03   6.4105507129037067E-03
   6.4908088293072815E-03   6.5720704589996978E-03   6.6543481287419711E-03
   6.7376545210063223E-03   6.8220024758962735E-03   6.9074049930899434E-03
   6.9938752338069132E-03   7.0814265227989170E-03   7.1700723503645989E-03
   7.2598263743887054E-03   7.3507024224058661E-03   7.4427144936893667E-03
   7.5358767613651822E-03   7.6302035745514805E-03   7.7257094605240233E-03
   7.8224091269076292E-03   7.9203174638941432E-03   8.0194495464870497E-03
   8.1198206367732607E-03   8.2214461862221144E-03   8.3243418380121604E-03
   8.4285234293858934E-03   8.5340069940327973E-03   8.6408087645010439E-03
   8.7489451746381331E-03   8.8584328620608995E-03   8.9692886706550339E-03
   9.0815296531047210E-03   9.1951730734524742E-03   9.3102364096896793E-03
   9.4267373563781745E-03   9.5446938273031079E-03   9.6641239581576124E-03
   9.7850461092594751E-03   9.9074788683002988E-03   1.0031441053127407E-02
   1.0156951714559015E-02   1.0284030139232818E-02   1.0412695852488644E-02
   1.0542968621285309E-02   1.0674868457152188E-02   1.0808415619175905E-02
   1.0943630617022415E-02   1.1080534213994988E-02   1.1219147430128491E-02
   1.1359491545320261E-02   1.1501588102498090E-02   1.1645458910825707E-02
   1.1791126048946091E-02   1.1938611868263170E-02   1.2087938996262202E-02
   1.2239130339869342E-02   1.2392209088850772E-02   1.2547198719251884E-02
   1.2704122996876895E-02   1.2863005980809363E-02   1.3023872026974056E-02
   1.3186745791740600E-02   1.3351652235569403E-02   1.3518616626700198E-02
   1.3687664544883866E-02   1.3858821885157760E-02   1.4032114861665224E-02
   1.4207570011519574E-02   1.4385214198713239E-02   1.4565074618072289E-02
   1.4747178799257075E-02   1.4931554610809286E-02   1.5118230264246035E-02
   1.5307234318201374E-02   1.5498595682615844E-02   1.5692343622974437E-02
   1.5888507764593551E-02   1.6087118096957571E-02   1.6288204978105215E-02
   1.6491799139066614E-02   1.6697931688351399E-02   1.6906634116488232E-02
   1.7117938300616718E-02   1.7331876509131587E-02   1.7548481406380417E-02
   1.7767786057414789E-02   1.7989823932795912E-02   1.8214628913454892E-02
   1.8442235295608470E-02   1.8672677795730678E-02   1.8905991555580842E-02
   1.9142212147288788E-02   1.9381375578497541E-02   1.9623518297564275E-02
   1.9868677198819903E-02   2.0116889627888025E-02   2.0368193387063936E-02
   2.0622626740753772E-02   2.0880228420975106E-02   2.1141037632918837E-02
   2.1405094060573688E-02   2.1672437872413190E-02   2.1943109727146356E-02
   2.2217150779532267E-02   2.2494602686259368E-02   2.2775507611889893E-02
   2.3059908234870266E-02   2.3347847753607934E-02   2.3639369892615180E-02
   2.3934518908720753E-02   2.4233339597349683E-02   2.4535877298872123E-02
   2.4842177905021662E-02   2.5152287865383784E-02   2.5466254193955259E-02
   2.5784124475774692E-02   2.6105946873625410E-02   2.6431770134810746E-02
   2.6761643598002805E-02   2.7095617200165081E-02   2.7433741483549639E-02
   2.7776067602769471E-02   2.8122647331946703E-02   2.8473533071937195E-02
   2.8828777857632378E-02   2.9188435365338612E-02   2.9552559920234929E-02
   2.9921206503909913E-02   3.0294430761977974E-02   3.0672289011776023E-02
   3.1054838250140982E-02   3.1442136161268688E-02   3.1834241124654925E-02
   3.2231212223119469E-02   3.2633109250913027E-02   3.3039992721908662E-02
   3.3451923877877383E-02   3.3868964696849163E-02   3.4291177901559812E-02
   3.4718626967984167E-02   3.5151376133956365E-02   3.5589490407877677E-02
   3.6033035577512730E-02   3.6482078218874239E-02   3.6936685705197557E-02
   3.7396926216004746E-02   3.7862868746259472E-02   3.8334583115612969E-02
   3.8812139977741605E-02   3.9295610829776638E-02   3.9785068021826853E-02
   4.0280584766594373E-02   4.0782235149084432E-02   4.1290094136409265E-02
   4.1804237587687060E-02   4.2324742264036291E-02   4.2851685838665450E-02
   4.3385146907059718E-02   4.3925204997263982E-02   4.4471940580263214E-02
   4.5025435080460488E-02   4.5585770886253138E-02   4.6153031360707301E-02
   4.6727300852331601E-02   4.7308664705949868E-02   4.7897209273673663E-02
   4.8493021925974746E-02   4.9096191062857807E-02   4.9706806125134236E-02
   5.0324957605796118E-02   5.0950737061492238E-02   5.1584237124104940E-02
   5.2225551512429164E-02   5.2874775043953097E-02   5.3532003646741065E-02
   5.4197334371418729E-02   5.4870865403260520E-02   5.5552696074379980E-02
   5.6242926876022371E-02   5.6941659470960151E-02   5.7648996705991051E-02
   5.8365042624538975E-02   5.9089902479357775E-02   5.9823682745337080E-02
   6.0566491132411401E-02   6.1318436598571120E-02   6.2079629362975799E-02
   6.2850180919170009E-02   6.3630204048400280E-02   6.4419812833034190E-02
   6.5219122670080135E-02   6.6028250284808701E-02   6.6847313744473599E-02
   6.7676432472133591E-02   6.8515727260573020E-02   6.9365320286321933E-02
   7.0225335123774685E-02   7.1095896759405711E-02   7.1977131606083058E-02
   7.2869167517477615E-02   7.3772133802568557E-02   7.4686161240242910E-02
   7.5611382093989030E-02   7.6547930126683164E-02   7.7495940615467135E-02
   7.8455550366717280E-02   7.9426897731102661E-02   8.0410122618731081E-02
   8.1405366514382807E-02   8.2412772492829120E-02   8.3432485234235076E-02
   8.4464651039645303E-02   8.5509417846550098E-02   8.6566935244530629E-02
   8.7637354490982741E-02   8.8720828526914472E-02   8.9817511992819080E-02
   9.0927561244617983E-02   9.2051134369674409E-02   9.3188391202873394E-02
   9.4339493342766617E-02   9.5504604167780324E-02   9.6683888852482316E-02
   9.7877514383906086E-02   9.9085649577930396E-02   1.0030846509570872E-01
   1.0154613346014854E-01   1.0279882907243554E-01   1.0406672822859966E-01
   1.0535000913612040E-01   1.0664885193056688E-01   1.0796343869226994E-01
   1.0929395346302181E-01   1.1064058226279924E-01   1.1200351310650797E-01
   1.1338293602074023E-01   1.1477904306054636E-01   1.1619202832621101E-01
   1.1762208798003208E-01   1.1906942026309725E-01   1.2053422551205123E-01
   1.2201670617585209E-01   1.2351706683250695E-01   1.2503551420578468E-01
   1.2657225718189943E-01   1.2812750682615667E-01   1.2970147639955915E-01
   1.3129438137536320E-01   1.3290643945558164E-01   1.3453787058742378E-01
   1.3618889697966782E-01   1.3785974311895680E-01   1.3955063578601221E-01
   1.4126180407175551E-01   1.4299347939333268E-01   1.4474589551002934E-01
   1.4651928853907323E-01   1.4831389697131042E-01   1.5012996168674947E-01
   1.5196772596996411E-01   1.5382743552534259E-01   1.5570933849217716E-01
   1.5761368545958138E-01   1.5954072948122502E-01   1.6149072608987808E-01
   1.6346393331174927E-01   1.6546061168061138E-01   1.6748102425169958E-01
   1.6952543661537117E-01   1.7159411691051554E-01   1.7368733583769982E-01
   1.7580536667203900E-01   1.7794848527577650E-01   1.8011697011056096E-01
   1.8231110224940636E-01   1.8453116538831871E-01   1.8677744585757841E-01
   1.8905023263265749E-01   1.9134981734476283E-01   1.9367649429098099E-01
   1.9603056044401648E-01   1.9841231546149996E-01   2.0082206169485314E-01
   2.0326010419769083E-01   2.0572675073373931E-01   2.0822231178425826E-01
   2.1074710055494084E-01   2.1330143298227480E-01   2.1588562773934589E-01
   2.1850000624105734E-01   2.2114489264875087E-01   2.2382061387420318E-01
   2.2652749958297322E-01   2.2926588219708546E-01   2.3203609689701474E-01
   2.3483848162295842E-01   2.3767337707536421E-01   2.4054112671469108E-01
   2.4344207676037899E-01   2.4637657618899428E-01   2.4934497673153300E-01
   2.5234763286984585E-01   2.5538490183216078E-01   2.5845714358767341E-01
   2.6156472084017179E-01   2.6470799902067221E-01   2.6788734627902572E-01
   2.7110313347447151E-01   2.7435573416510017E-01   2.7764552459619052E-01
   2.8097288368739320E-01   2.8433819301872204E-01   2.8774183681531262E-01
   2.9118420193092204E-01   2.9466567783012160E-01   2.9818665656915183E-01
   3.0174753277539829E-01   3.0534870362544531E-01   3.0899056882167431E-01
   3.1267353056735453E-01   3.1639799354019449E-01   3.2016436486430422E-01
   3.2397305408052401E-01   3.2782447311508139E-01   3.3171903624651644E-01
   3.3565716007084612E-01   3.3963926346490458E-01   3.4366576754781780E-01
   3.4773709564056365E-01   3.5185367322356037E-01   3.5601592789223796E-01
   3.6022428931053713E-01   3.6447918916227900E-01   3.6878106110035830E-01
   3.7313034069369388E-01   3.7752746537188930E-01   3.8197287436754013E-01
   3.8646700865612815E-01   3.9101031089344673E-01   3.9560322535049280E-01
   4.0024619784576299E-01   4.0493967567489353E-01   4.0968410753757617E-01
   4.1447994346168798E-01   4.1932763472456347E-01   4.2422763377134692E-01
   4.2918039413035397E-01   4.3418637032536900E-01   4.3924601778481454E-01
   4.4435979274771442E-01   4.4952815216637876E-01   4.5475155360573860E-01
   4.6003045513925411E-01   4.6536531524131691E-01   4.7075659267607423E-01
   4.7620474638258870E-01   4.8171023535626456E-01   4.8727351852644579E-01
   4.9289505463011929E-01   4.9857530208162731E-01   5.0431471883831158E-01
   5.1011376226200456E-01   5.1597288897627847E-01   5.2189255471936580E-01
   5.2787321419266886E-01   5.3391532090475580E-01   5.4001932701077282E-01
   5.4618568314716109E-01   5.5241483826160265E-01   5.5870723943809786E-01
   5.6506333171707046E-01   5.7148355791042726E-01   5.7796835841145655E-01
   5.8451817099948322E-01   5.9113343063917989E-01   5.9781456927443344E-01
   6.0456201561667666E-01   6.1137619492757900E-01   6.1825752879600626E-01
   6.2520643490914551E-01   6.3222332681769156E-01   6.3930861369500380E-01
   6.4646270009013240E-01   6.5368598567460201E-01   6.6097886498287428E-01
   6.6834172714636386E-01   6.7577495562092860E-01   6.8327892790772282E-01
   6.9085401526731616E-01   6.9850058242698221E-01   7.0621898728104615E-01
   7.1400958058421149E-01   7.2187270563775008E-01   7.2980869796846848E-01
   7.3781788500035361E-01   7.4590058571879314E-01   7.5405711032729184E-01
   7.6228775989657438E-01   7.7059282600599466E-01   7.7897259037716171E-01
   7.8742732449967723E-01   7.9595728924892006E-01   8.0456273449578253E-01
   8.1324389870826819E-01   8.2200100854489044E-01   8.3083427843977087E-01
   8.3974391017938133E-01   8.4873009247084885E-01   8.5779300050175189E-01
   8.6693279549135283E-01   8.7614962423318643E-01   8.8544361862896648E-01
   8.9481489521374091E-01   9.0426355467224839E-01   9.1378968134644123E-01
   9.2339334273410889E-01   9.3307458897859541E-01   9.4283345234955707E-01
   9.5266994671474492E-01   9.6258406700279686E-01   9.7257578865700833E-01
   9.8264506708009547E-01   9.9279183706993812E-01   1.0030160122463114E+00
   1.0133174844686206E+00   1.0236961232446651E+00   1.0341517751304543E+00
   1.0446842631211193E+00   1.0552933860329654E+00   1.0659789178767305E+00
   1.0767406072220922E+00   1.0875781765535320E+00   1.0984913216176184E+00
   1.1094797107618204E+00   1.1205429842649528E+00   1.1316807536593760E+00
   1.1428926010450828E+00   1.1541780783958262E+00   1.1655367068574289E+00
   1.1769679760384670E+00   1.1884713432934964E+00   1.2000462329990329E+00
   1.2116920358225063E+00   1.2234081079844024E+00   1.2351937705138600E+00
   1.2470483084979755E+00   1.2589709703251006E+00   1.2709609669224302E+00
   1.2830174709881992E+00   1.2951396162188269E+00   1.3073264965313565E+00
   1.3195771652815722E+00   1.3318906344781931E+00   1.3442658739935451E+00
   1.3567018107711715E+00   1.3691973280308203E+00   1.3817512644713128E+00
   1.3943624134717811E+00   1.4070295222918232E+00   1.4197512912711188E+00
   1.4325263730290885E+00   1.4453533716652063E+00   1.4582308419605949E+00
   1.4711572885815665E+00   1.4841311652857920E+00   1.4971508741318056E+00
   1.5102147646926123E+00   1.5233211332741448E+00   1.5364682221393751E+00
   1.5496542187389371E+00   1.5628772549490817E+00   1.5761354063178934E+00
   1.5894266913206749E+00   1.6027490706254601E+00   1.6161004463696436E+00
   1.6294786614487529E+00   1.6428814988184042E+00   1.6563066808105573E+00
   1.6697518684651551E+00   1.6832146608783374E+00   1.6966925945683990E+00
   1.7101831428607175E+00   1.7236837152929274E+00   1.7371916570416079E+00
   1.7507042483718451E+00   1.7642187041110000E+00   1.7777321731481039E+00
   1.7912417379603136E+00   1.8047444141678786E+00   1.8182371501191483E+00
   1.8317168265071269E+00   1.8451802560191786E+00   1.8586241830214660E+00
   1.8720452832797663E+00   1.8854401637183458E+00   1.8988053622185763E+00
   1.9121373474590455E+00   1.9254325187989232E+00   1.9386872062063705E+00
   1.9518976702338233E+00   1.9650601020419980E+00   1.9781706234745002E+00
   1.9912252871849387E+00   2.0042200768184717E+00   2.0171509072497456E+00
   2.0300136248791736E+00   2.0428040079895733E+00   2.0555177671651572E+00
   2.0681505457748979E+00   2.0806979205223124E+00   2.0931554020637151E+00
   2.1055184356969900E+00   2.1177824021229514E+00   2.1299426182813619E+00
   2.1419943382636819E+00   2.1539327543046021E+00   2.1657529978544430E+00
   2.1774501407344617E+00   2.1890191963771244E+00   2.2004551211533490E+00
   2.2117528157887563E+00   2.2229071268709006E+00   2.2339128484494446E+00
   2.2447647237312149E+00   2.2554574468720276E+00   2.2659856648671406E+00
   2.2763439795421525E+00   2.2865269496461016E+00   2.2965290930484854E+00
   2.3063448890418377E+00   2.3159687807514553E+00   2.3253951776537978E+00
   2.3346184582049818E+00   2.3436329725807408E+00   2.3524330455291214E+00
   2.3610129793370676E+00   2.3693670569120151E+00   2.3774895449794080E+00
   2.3853746973970389E+00   2.3930167585869171E+00   2.4004099670852823E+00
   2.4075485592112420E+00   2.4144267728543451E+00   2.4210388513812946E+00
   2.4273790476618005E+00   2.4334416282134574E+00   2.4392208774653117E+00
   2.4447111021396450E+00   2.4499066357512800E+00   2.4548018432235512E+00
   2.4593911256198426E+00   2.4636689249894226E+00   2.4676297293260507E+00
   2.4712680776376317E+00   2.4745785651249381E+00   2.4775558484671905E+00
   2.4801946512120279E+00   2.4824897692671355E+00   2.4844360764905504E+00
   2.4860285303763630E+00   2.4872621778322679E+00   2.4881321610451370E+00
   2.4886337234304516E+00   2.4887622156611768E+00   2.4885131017713098E+00
   2.4878819653290463E+00   2.4868645156741511E+00   2.4854565942138431E+00
   2.4836541807710968E+00   2.4814533999790056E+00   2.4788505277144322E+00
   2.4758419975638759E+00   2.4724244073141146E+00   2.4685945254598103E+00
   2.4643492977199544E+00   2.4596858535546100E+00   2.4546015126731073E+00
   2.4490937915244513E+00   2.4431604097603707E+00   2.4367992966610403E+00
   2.4300085975132255E+00   2.4227866799301676E+00   2.4151321401022732E+00
   2.4070438089672450E+00   2.3985207582880581E+00   2.3895623066268010E+00
   2.3801680252021149E+00   2.3703377436177164E+00   2.3600715554491298E+00
   2.3493698236755836E+00   2.3382331859437397E+00   2.3266625596497064E+00
   2.3146591468256350E+00   2.3022244388169653E+00   2.2893602207363331E+00
   2.2760685756799677E+00   2.2623518886923635E+00   2.2482128504650363E+00
   2.2336544607550501E+00   2.2186800315091224E+00   2.2032931896792607E+00
   2.1874978797158078E+00   2.1712983657242177E+00   2.1546992332718720E+00
   2.1377053908316026E+00   2.1203220708489754E+00   2.1025548304205550E+00
   2.0844095515709515E+00   2.0658924411168114E+00   2.0470100301062608E+00
   2.0277691728230831E+00   2.0081770453450698E+00   1.9882411436467822E+00
   1.9679692812373288E+00   1.9473695863242055E+00   1.9264504984948907E+00
   1.9052207649080555E+00   1.8836894359867633E+00   1.8618658606062037E+00
   1.8397596807678627E+00   1.8173808257546689E+00   1.7947395057641009E+00
   1.7718462049942794E+00   1.7487116741977842E+00   1.7253469226821436E+00
   1.7017632097516679E+00   1.6779720355817660E+00   1.6539851315167167E+00
   1.6298144497819209E+00   1.6054721526017330E+00   1.5809706007149325E+00
   1.5563223412810088E+00   1.5315400951727238E+00   1.5066367436532710E+00
   1.4816253144404767E+00   1.4565189671656953E+00   1.4313309782412300E+00
   1.4060747251578469E+00   1.3807636702422139E+00   1.3554113439135369E+00
   1.3300313274886748E+00   1.3046372355947915E+00   1.2792426982588980E+00
   1.2538613427524863E+00   1.2285067752776122E+00   1.2031925625872977E+00
   1.1779322136370087E+00   1.1527391613659173E+00   1.1276267447048993E+00
   1.1026081909031955E+00   1.0776965982571172E+00   1.0529049193110247E+00
   1.0282459445845331E+00   1.0037322868598069E+00   9.7937636604034395E-01
   9.5519039456963728E-01   9.3118636337531990E-01   9.0737602828527908E-01
   8.8377089684788657E-01   8.6038221548105009E-01   8.3722095687559162E-01
   8.1429780758688997E-01   7.9162315576470066E-01   7.6920707899222218E-01
   7.4705933222962562E-01   7.2518933588193868E-01   7.0360616403365805E-01
   6.8231853291114020E-01   6.6133478964750947E-01   6.4066290143281068E-01
   6.2031044513517397E-01   6.0028459747707819E-01   5.8059212584574127E-01
   5.6123937980918936E-01   5.4223228340062257E-01   5.2357632822436628E-01
   5.0527656742729476E-01   4.8733761057101804E-01   4.6976361943204020E-01
   4.5255830475019926E-01   4.3572492393955714E-01   4.1926627977057079E-01
   4.0318472002799571E-01   3.8748213814484644E-01   3.7215997480937646E-01
   3.5721922053891697E-01   3.4266041921144225E-01   3.2848367254316452E-01
   3.1468864549771847E-01   3.0127457260997187E-01   2.8824026520501606E-01
   2.7558411949019240E-01   2.6330412549559395E-01   2.5139787683580517E-01
   2.3986258126304139E-01   2.2869507197940894E-01   2.1789181967327309E-01
   2.0744894524240257E-01   1.9736223316405885E-01   1.8762714546984308E-01
   1.7823883628105855E-01   1.6919216685812755E-01   1.6048172111584319E-01
   1.5210182155449486E-01   1.4404654555538116E-01   1.3630974198802309E-01
   1.2888504807527792E-01   1.2176590646178335E-01   1.1494558243064437E-01
   1.0841718121291752E-01   1.0217366533450033E-01   9.6207871945219486E-02
   9.0512530075434569E-02   8.5080277766261425E-02   7.9903679020503104E-02
   7.4975240522704864E-02   7.0287428078238706E-02   6.5832682723105343E-02
   6.1603436458121198E-02   5.7592127563350880E-02   5.3791215451052816E-02
   5.0193195017976817E-02   4.6790610460609020E-02   4.3576068519832464E-02
   4.0542251124535321E-02   3.7681927406793790E-02   3.4987965064516346E-02
   3.2453341050730201E-02   3.0071151572025185E-02   2.7834621382081259E-02
   2.5737112359571233E-02   2.3772131363118839E-02   2.1933337359349932E-02
   2.0214547823349357E-02   1.8609744414081770E-02   1.7113077930462517E-02
   1.5718872556785248E-02   1.4421629409139176E-02   1.3216029397189867E-02
   1.2096935418331761E-02   1.1059393903655967E-02   1.0098635737444033E-02
   9.2100765739910658E-03   8.3893165774326251E-03   7.6321396119429551E-03
   6.9345119111413542E-03   6.2925802568048516E-03   5.7026696980387566E-03
   5.1612808428882018E-03   4.6650867549975694E-03   4.2109294883390510E-03
   3.7958162932378160E-03   3.4169155269305599E-03   3.0715523017107779E-03
   2.7572039033453861E-03   2.4714950119056594E-03   2.2121927564487192E-03
   1.9772016341277768E-03   1.7645583233091120E-03   1.5724264191488790E-03
   1.3990911188399913E-03   1.2429538824008848E-03   1.1025270934493902E-03
   9.7642874290592720E-04   8.6337715701404122E-04   7.6218578946387261E-04
   6.7175809577417294E-04   5.9108250644003763E-04   5.1922751370122515E-04
   4.5533688514349011E-04   3.9862501572131173E-04   3.4837242819795241E-04
   3.0392143044872790E-04   2.6467193657109684E-04   2.3007745730401220E-04
   1.9964126388177919E-04   1.7291272814361382E-04   1.4948384049332430E-04
   1.2898590615780431E-04   1.1108641913316765E-04   9.5486112233723211E-05
   8.1916180774643159E-05   7.0135676622918751E-05   5.9929068644452266E-05
   5.1103964954860220E-05   4.3488991847071279E-05   3.6931823817139678E-05
   3.1297358737849331E-05   2.6466031933896100E-05   2.2332262688954348E-05
   1.8803026559238935E-05   1.5796546775657153E-05   1.3241097982731069E-05
   1.1073915581518874E-05   9.2402040117230183E-06   7.6922374188184242E-06
   6.3885463008353445E-06   5.2931839110871971E-06   4.3750664024755875E-06
   3.6073809311579648E-06   2.9670561875562969E-06   2.4342900906788736E-06
   2.0122299232990435E-06  -1.0622200911510688E-07  -3.4646475012458457E-09
   0.0000000000000000E+00   0.0000000000000000E+00   0.0000000000000000E+00
   0.0000000000000000E+00   0.0000000000000000E+00   0.0000000000000000E+00
   0.0000000000000000E+00   0.0000000000000000E+00   0.0000000000000000E+00
   0.0000000000000000E+00   0.0000000000000000E+00   0.0000000000000000E+00
   0.0000000000000000E+00   0.0000000000000000E+00   0.0000000000000000E+00
   0.0000000000000000E+00   0.0000000000000000E+00   0.0000000000000000E+00
   0.0000000000000000E+00   0.0000000000000000E+00   0.0000000000000000E+00
   0.0000000000000000E+00   0.0000000000000000E+00   0.0000000000000000E+00
   0.0000000000000000E+00   0.0000000000000000E+00   0.0000000000000000E+00
   0.0000000000000000E+00   0.0000000000000000E+00   0.0000000000000000E+00
   0.0000000000000000E+00   0.0000000000000000E+00   0.0000000000000000E+00
   0.0000000000000000E+00   0.0000000000000000E+00   0.0000000000000000E+00
   0.0000000000000000E+00   0.0000000000000000E+00   0.0000000000000000E+00
   0.0000000000000000E+00   0.0000000000000000E+00   0.0000000000000000E+00
   0.0000000000000000E+00   0.0000000000000000E+00   0.0000000000000000E+00
   0.0000000000000000E+00   0.0000000000000000E+00   0.0000000000000000E+00
   0.0000000000000000E+00   0.0000000000000000E+00   0.0000000000000000E+00
   0.0000000000000000E+00   0.0000000000000000E+00   0.0000000000000000E+00
   0.0000000000000000E+00   0.0000000000000000E+00   0.0000000000000000E+00
   0.0000000000000000E+00   0.0000000000000000E+00   0.0000000000000000E+00
   0.0000000000000000E+00   0.0000000000000000E+00   0.0000000000000000E+00
   0.0000000000000000E+00   0.0000000000000000E+00   0.0000000000000000E+00
   0.0000000000000000E+00   0.0000000000000000E+00   0.0000000000000000E+00
   0.0000000000000000E+00   0.0000000000000000E+00   0.0000000000000000E+00
   0.0000000000000000E+00   0.0000000000000000E+00   0.0000000000000000E+00
   0.0000000000000000E+00   0.0000000000000000E+00   0.0000000000000000E+00
   0.0000000000000000E+00   0.0000000000000000E+00   0.0000000000000000E+00
   0.0000000000000000E+00   0.0000000000000000E+00   0.0000000000000000E+00
   0.0000000000000000E+00   0.0000000000000000E+00   0.0000000000000000E+00
   0.0000000000000000E+00   0.0000000000000000E+00   0.0000000000000000E+00
   0.0000000000000000E+00   0.0000000000000000E+00   0.0000000000000000E+00
   0.0000000000000000E+00   0.0000000000000000E+00   0.0000000000000000E+00
   0.0000000000000000E+00   0.0000000000000000E+00   0.0000000000000000E+00
   0.0000000000000000E+00   0.0000000000000000E+00   0.0000000000000000E+00
   0.0000000000000000E+00   0.0000000000000000E+00   0.0000000000000000E+00
   0.0000000000000000E+00   0.0000000000000000E+00   0.0000000000000000E+00
   0.0000000000000000E+00   0.0000000000000000E+00   0.0000000000000000E+00
   0.0000000000000000E+00   0.0000000000000000E+00   0.0000000000000000E+00
   0.0000000000000000E+00   0.0000000000000000E+00   0.0000000000000000E+00
   0.0000000000000000E+00   0.0000000000000000E+00   0.0000000000000000E+00
   0.0000000000000000E+00   0.0000000000000000E+00   0.0000000000000000E+00
   0.0000000000000000E+00   0.0000000000000000E+00   0.0000000000000000E+00
   0.0000000000000000E+00   0.0000000000000000E+00   0.0000000000000000E+00
   0.0000000000000000E+00   0.0000000000000000E+00   0.0000000000000000E+00
   0.0000000000000000E+00   0.0000000000000000E+00   0.0000000000000000E+00
   0.0000000000000000E+00   0.0000000000000000E+00   0.0000000000000000E+00
   0.0000000000000000E+00   0.0000000000000000E+00   0.0000000000000000E+00
   0.0000000000000000E+00   0.0000000000000000E+00   0.0000000000000000E+00
   0.0000000000000000E+00   0.0000000000000000E+00   0.0000000000000000E+00
   0.0000000000000000E+00   0.0000000000000000E+00   0.0000000000000000E+00
   0.0000000000000000E+00   0.0000000000000000E+00   0.0000000000000000E+00
   0.0000000000000000E+00   0.0000000000000000E+00   0.0000000000000000E+00
   0.0000000000000000E+00   0.0000000000000000E+00   0.0000000000000000E+00
   0.0000000000000000E+00   0.0000000000000000E+00   0.0000000000000000E+00
   0.0000000000000000E+00   0.0000000000000000E+00   0.0000000000000000E+00
   0.0000000000000000E+00   0.0000000000000000E+00   0.0000000000000000E+00
   0.0000000000000000E+00   0.0000000000000000E+00   0.0000000000000000E+00
   0.0000000000000000E+00   0.0000000000000000E+00   0.0000000000000000E+00
     </PP_GIPAW_CORE_ORBITAL.1>
   </PP_GIPAW_CORE_ORBITALS>
   <PP_GIPAW_ORBITALS number_of_valence_orbitals="3">
     <PP_GIPAW_ORBITAL.1 index="1" label="2S" l="0" cutoff_radius="  1.87401139646807" ultrasoft_cutoff_radius="  1.87401139646807">
       <PP_GIPAW_WFS_AE size="1026">
   0.0000000000000000E+00  -8.8239730028585775E-04  -8.9345356485690159E-04
  -9.0464817191297602E-04  -9.1598282694138524E-04  -9.2745928153917939E-04
  -9.3907930899789704E-04  -9.5084470500669805E-04  -9.6275728765693762E-04
  -9.7481889770952501E-04  -9.8703139887631347E-04  -9.9939667810593539E-04
  -1.0119166458725714E-03  -1.0245932364681407E-03  -1.0374284082980603E-03
  -1.0504241441806463E-03  -1.0635824516501832E-03  -1.0769053632637112E-03
  -1.0903949369115784E-03  -1.1040532561317979E-03  -1.1178824304282596E-03
  -1.1318845955928436E-03  -1.1460619140314743E-03  -1.1604165750941748E-03
  -1.1749507954091538E-03  -1.1896668192209932E-03  -1.2045669187329619E-03
  -1.2196533944535265E-03  -1.2349285755470960E-03  -1.2503948201890564E-03
  -1.2660545159251396E-03  -1.2819100800351940E-03  -1.2979639599013887E-03
  -1.3142186333809209E-03  -1.3306766091832701E-03  -1.3473404272520586E-03
  -1.3642126591515704E-03  -1.3812959084579864E-03  -1.3985928111553876E-03
  -1.4161060360365872E-03  -1.4338382851088491E-03  -1.4517922940045483E-03
  -1.4699708323968298E-03  -1.4883767044203294E-03  -1.5070127490970215E-03
  -1.5258818407672386E-03  -1.5449868895259363E-03  -1.5643308416642674E-03
  -1.5839166801165181E-03  -1.6037474249124726E-03  -1.6238261336352815E-03
  -1.6441559018848789E-03  -1.6647398637470270E-03  -1.6855811922680544E-03
  -1.7066830999353524E-03  -1.7280488391636887E-03  -1.7496817027874223E-03
  -1.7715850245586745E-03  -1.7937621796515393E-03  -1.8162165851723885E-03
  -1.8389517006763534E-03  -1.8619710286900577E-03  -1.8852781152406551E-03
  -1.9088765503912767E-03  -1.9327699687829263E-03  -1.9569620501829329E-03
  -1.9814565200400071E-03  -2.0062571500460025E-03  -2.0313677587044409E-03
  -2.0567922119058843E-03  -2.0825344235102482E-03  -2.1085983559361037E-03
  -2.1349880207570870E-03  -2.1617074793054713E-03  -2.1887608432829822E-03
  -2.2161522753789660E-03  -2.2438859898959670E-03  -2.2719662533828046E-03
  -2.3003973852752562E-03  -2.3291837585444038E-03  -2.3583298003527404E-03
  -2.3878399927181495E-03  -2.4177188731857968E-03  -2.4479710355080823E-03
  -2.4786011303326904E-03  -2.5096138658988734E-03  -2.5410140087420196E-03
  -2.5728063844066462E-03  -2.6049958781678663E-03  -2.6375874357614589E-03
  -2.6705860641226139E-03  -2.7039968321334686E-03  -2.7378248713795304E-03
  -2.7720753769150592E-03  -2.8067536080375538E-03  -2.8418648890714106E-03
  -2.8774146101608550E-03  -2.9134082280722743E-03  -2.9498512670060391E-03
  -2.9867493194179074E-03  -3.0241080468501346E-03  -3.0619331807724003E-03
  -3.1002305234326300E-03  -3.1390059487178584E-03  -3.1782654030252130E-03
  -3.2180149061431435E-03  -3.2582605521430086E-03  -3.2990085102811272E-03
  -3.3402650259114069E-03  -3.3820364214086737E-03  -3.4243290971028048E-03
  -3.4671495322237920E-03  -3.5105042858578446E-03  -3.5543999979146625E-03
  -3.5988433901059766E-03  -3.6438412669355068E-03  -3.6894005167004253E-03
  -3.7355281125044837E-03  -3.7822311132828870E-03  -3.8295166648390868E-03
  -3.8773920008935573E-03  -3.9258644441447516E-03  -3.9749414073422962E-03
  -4.0246303943726114E-03  -4.0749390013570348E-03  -4.1258749177626288E-03
  -4.1774459275257516E-03  -4.2296599101885636E-03  -4.2825248420485778E-03
  -4.3360487973214236E-03  -4.3902399493168888E-03  -4.4451065716284571E-03
  -4.5006570393364177E-03  -4.5568998302247254E-03  -4.6138435260117041E-03
  -4.6714968135947981E-03  -4.7298684863094267E-03  -4.7889674452021727E-03
  -4.8488027003183729E-03  -4.9093833720043004E-03  -4.9707186922240661E-03
  -5.0328180058913652E-03  -5.0956907722162553E-03  -5.1593465660670842E-03
  -5.2237950793476940E-03  -5.2890461223901314E-03  -5.3551096253628781E-03
  -5.4219956396948984E-03  -5.4897143395155413E-03  -5.5582760231104996E-03
  -5.6276911143939880E-03  -5.6979701643972355E-03  -5.7691238527734891E-03
  -5.8411629893197004E-03  -5.9140985155150122E-03  -5.9879415060761576E-03
  -6.0627031705300640E-03  -6.1383948548036421E-03  -6.2150280428310773E-03
  -6.2926143581786675E-03  -6.3711655656874056E-03  -6.4506935731334699E-03
  -6.5312104329067512E-03  -6.6127283437076370E-03  -6.6952596522621127E-03
  -6.7788168550554249E-03  -6.8634126000844337E-03  -6.9490596886287968E-03
  -7.0357710770411613E-03  -7.1235598785565251E-03  -7.2124393651209224E-03
  -7.3024229692395786E-03  -7.3935242858447180E-03  -7.4857570741831535E-03
  -7.5791352597238473E-03  -7.6736729360855739E-03  -7.7693843669848581E-03
  -7.8662839882043603E-03  -7.9643864095818081E-03  -8.0637064170196882E-03
  -8.1642589745158766E-03  -8.2660592262152437E-03  -8.3691224984825362E-03
  -8.4734643019965753E-03  -8.5791003338660035E-03  -8.6860464797666528E-03
  -8.7943188161008021E-03  -8.9039336121783282E-03  -9.0149073324200159E-03
  -9.1272566385831103E-03  -9.2409983920092916E-03  -9.3561496558952264E-03
  -9.4727276975857498E-03  -9.5907499908899525E-03  -9.7102342184202609E-03
  -9.8311982739545181E-03  -9.9536602648214803E-03  -1.0077638514309577E-02
  -1.0203151564099231E-02  -1.0330218176718864E-02  -1.0458857338024600E-02
  -1.0589088259703970E-02  -1.0720930381803533E-02  -1.0854403375280697E-02
  -1.0989527144579828E-02  -1.1126321830232627E-02  -1.1264807811483112E-02
  -1.1405005708937094E-02  -1.1546936387236360E-02  -1.1690620957757681E-02
  -1.1836080781336683E-02  -1.1983337471016655E-02  -1.2132412894822468E-02
  -1.2283329178559612E-02  -1.2436108708638462E-02  -1.2590774134923845E-02
  -1.2747348373609935E-02  -1.2905854610120593E-02  -1.3066316302035204E-02
  -1.3228757182040017E-02  -1.3393201260905071E-02  -1.3559672830486749E-02
  -1.3728196466755983E-02  -1.3898797032852062E-02  -1.4071499682162304E-02
  -1.4246329861427263E-02  -1.4423313313871738E-02  -1.4602476082361454E-02
  -1.4783844512585511E-02  -1.4967445256264448E-02  -1.5153305274383987E-02
  -1.5341451840454412E-02  -1.5531912543795493E-02  -1.5724715292846931E-02
  -1.5919888318504362E-02  -1.6117460177480579E-02  -1.6317459755692165E-02
  -1.6519916271671330E-02  -1.6724859280002793E-02  -1.6932318674785680E-02
  -1.7142324693120284E-02  -1.7354907918619506E-02  -1.7570099284944834E-02
  -1.7787930079366823E-02  -1.8008431946349625E-02  -1.8231636891159631E-02
  -1.8457577283497888E-02  -1.8686285861156102E-02  -1.8917795733695966E-02
  -1.9152140386151630E-02  -1.9389353682754833E-02  -1.9629469870682772E-02
  -1.9872523583827982E-02  -2.0118549846590304E-02  -2.0367584077690189E-02
  -2.0619662094003448E-02  -2.0874820114416597E-02  -2.1133094763702665E-02
  -2.1394523076417128E-02  -2.1659142500813241E-02  -2.1926990902776392E-02
  -2.2198106569777398E-02  -2.2472528214843371E-02  -2.2750294980546638E-02
  -2.3031446443010310E-02  -2.3316022615930392E-02  -2.3604063954613726E-02
  -2.3895611360030971E-02  -2.4190706182884224E-02  -2.4489390227688392E-02
  -2.4791705756865470E-02  -2.5097695494851521E-02  -2.5407402632214818E-02
  -2.5720870829784973E-02  -2.6038144222791777E-02  -2.6359267425013190E-02
  -2.6684285532931319E-02  -2.7013244129895496E-02  -2.7346189290291638E-02
  -2.7683167583716629E-02  -2.8024226079156663E-02  -2.8369412349168881E-02
  -2.8718774474064301E-02  -2.9072361046091913E-02  -2.9430221173621804E-02
  -2.9792404485326485E-02  -3.0158961134359199E-02  -3.0529941802527331E-02
  -3.0905397704460290E-02  -3.1285380591769628E-02  -3.1669942757200309E-02
  -3.2059137038771543E-02  -3.2453016823905549E-02  -3.2851636053542348E-02
  -3.3255049226239314E-02  -3.3663311402253211E-02  -3.4076478207603414E-02
  -3.4494605838113652E-02  -3.4917751063431361E-02  -3.5345971231021574E-02
  -3.5779324270133916E-02  -3.6217868695740563E-02  -3.6661663612442282E-02
  -3.7110768718341215E-02  -3.7565244308877276E-02  -3.8025151280626134E-02
  -3.8490551135056159E-02  -3.8961505982241705E-02  -3.9438078544530054E-02
  -3.9920332160159597E-02  -4.0408330786825757E-02  -4.0902139005192559E-02
  -4.1401822022346081E-02  -4.1907445675187470E-02  -4.2419076433761436E-02
  -4.2936781404518030E-02  -4.3460628333503427E-02  -4.3990685609476485E-02
  -4.4527022266948019E-02  -4.5069707989138716E-02  -4.5618813110851600E-02
  -4.6174408621255963E-02  -4.6736566166577960E-02  -4.7305358052694792E-02
  -4.7880857247626855E-02  -4.8463137383925270E-02  -4.9052272760948486E-02
  -4.9648338347025117E-02  -5.0251409781497024E-02  -5.0861563376638635E-02
  -5.1478876119447368E-02  -5.2103425673299460E-02  -5.2735290379467246E-02
  -5.3374549258491145E-02  -5.4021282011401849E-02  -5.4675569020787025E-02
  -5.5337491351695738E-02  -5.6007130752375900E-02  -5.6684569654838285E-02
  -5.7369891175239905E-02  -5.8063179114082333E-02  -5.8764517956215914E-02
  -5.9473992870645288E-02  -6.0191689710128143E-02  -6.0917695010560123E-02
  -6.1652095990139634E-02  -6.2394980548303107E-02  -6.3146437264425273E-02
  -6.3906555396275516E-02  -6.4675424878221865E-02  -6.5453136319175764E-02
  -6.6239781000267298E-02  -6.7035450872244370E-02  -6.7840238552585114E-02
  -6.8654237322315861E-02  -6.9477541122524633E-02  -7.0310244550560563E-02
  -7.1152442855910131E-02  -7.2004231935740209E-02  -7.2865708330096632E-02
  -7.3736969216749729E-02  -7.4618112405674106E-02  -7.5509236333153401E-02
  -7.6410440055498408E-02  -7.7321823242366014E-02  -7.8243486169669460E-02
  -7.9175529712065346E-02  -8.0118055335007404E-02  -8.1071165086353814E-02
  -8.2034961587513874E-02  -8.3009548024124177E-02  -8.3995028136236341E-02
  -8.4991506208008105E-02  -8.5999087056878670E-02  -8.7017876022217597E-02
  -8.8047978953431277E-02  -8.9089502197511897E-02  -9.0142552586014238E-02
  -9.1207237421445292E-02  -9.2283664463048851E-02  -9.3371941911971887E-02
  -9.4472178395792999E-02  -9.5584482952398728E-02  -9.6708965013189221E-02
  -9.7845734385595573E-02  -9.8994901234891630E-02  -1.0015657606528174E-01
  -1.0133086970024509E-01  -1.0251789326211906E-01  -1.0371775815090123E-01
  -1.0493057602224989E-01  -1.0615645876466445E-01  -1.0739551847582321E-01
  -1.0864786743805946E-01  -1.0991361809295357E-01  -1.1119288301501931E-01
  -1.1248577488446326E-01  -1.1379240645899258E-01  -1.1511289054465153E-01
  -1.1644733996566003E-01  -1.1779586753323319E-01  -1.1915858601335573E-01
  -1.2053560809348751E-01  -1.2192704634817557E-01  -1.2333301320354559E-01
  -1.2475362090064952E-01  -1.2618898145764046E-01  -1.2763920663074865E-01
  -1.2910440787403352E-01  -1.3058469629788075E-01  -1.3208018262621868E-01
  -1.3359097715242571E-01  -1.3511718969389663E-01  -1.3665892954524317E-01
  -1.3821630543009555E-01  -1.3978942545147433E-01  -1.4137839704070698E-01
  -1.4298332690484952E-01  -1.4460432097259032E-01  -1.4624148433859810E-01
  -1.4789492120628434E-01  -1.4956473482894722E-01  -1.5125102744926175E-01
  -1.5295390023708563E-01  -1.5467345322554360E-01  -1.5640978524535787E-01
  -1.5816299385738902E-01  -1.5993317528335135E-01  -1.6172042433466829E-01
  -1.6352483433943094E-01  -1.6534649706742349E-01  -1.6718550265317889E-01
  -1.6904193951702690E-01  -1.7091589428409870E-01  -1.7280745170124770E-01
  -1.7471669455185146E-01  -1.7664370356845449E-01  -1.7858855734321144E-01
  -1.8055133223609710E-01  -1.8253210228083816E-01  -1.8453093908853122E-01
  -1.8654791174890636E-01  -1.8858308672919410E-01  -1.9063652777056084E-01
  -1.9270829578206738E-01  -1.9479844873211369E-01  -1.9690704153732905E-01
  -1.9903412594886527E-01  -2.0117975043605515E-01  -2.0334396006739472E-01
  -2.0552679638880811E-01  -2.0772829729915646E-01  -2.0994849692294854E-01
  -2.1218742548021535E-01  -2.1444510915350726E-01  -2.1672156995197456E-01
  -2.1901682557249216E-01  -2.2133088925778788E-01  -2.2366376965153925E-01
  -2.2601547065039618E-01  -2.2838599125289444E-01  -2.3077532540522311E-01
  -2.3318346184380476E-01  -2.3561038393465891E-01  -2.3805606950950758E-01
  -2.4052049069859144E-01  -2.4300361376016211E-01  -2.4550539890661641E-01
  -2.4802580012724135E-01  -2.5056476500754021E-01  -2.5312223454510618E-01
  -2.5569814296202092E-01  -2.5829241751374099E-01  -2.6090497829445863E-01
  -2.6353573803890085E-01  -2.6618460192054899E-01  -2.6885146734626020E-01
  -2.7153622374726177E-01  -2.7423875236651152E-01  -2.7695892604240008E-01
  -2.7969660898878440E-01  -2.8245165657134258E-01  -2.8522391508023320E-01
  -2.8801322149906317E-01  -2.9081940327014855E-01  -2.9364227805607385E-01
  -2.9648165349754885E-01  -2.9933732696756132E-01  -3.0220908532184210E-01
  -3.0509670464564498E-01  -3.0799994999685609E-01  -3.1091857514545301E-01
  -3.1385232230932825E-01  -3.1680092188650716E-01  -3.1976409218378504E-01
  -3.2274153914181503E-01  -3.2573295605668795E-01  -3.2873802329803747E-01
  -3.3175640802372552E-01  -3.3478776389115100E-01  -3.3783173076524009E-01
  -3.4088793442318172E-01  -3.4395598625596807E-01  -3.4703548296681797E-01
  -3.5012600626655815E-01  -3.5322712256604527E-01  -3.5633838266572160E-01
  -3.5945932144239690E-01  -3.6258945753336191E-01  -3.6572829301794402E-01
  -3.6887531309661975E-01  -3.7202998576781154E-01  -3.7519176150249772E-01
  -3.7836007291677787E-01  -3.8153433444254131E-01  -3.8471394199639430E-01
  -3.8789827264701121E-01  -3.9108668428108312E-01  -3.9427851526804747E-01
  -3.9747308412379184E-01  -4.0066968917352969E-01  -4.0386760821406548E-01
  -4.0706609817566608E-01  -4.1026439478377336E-01  -4.1346171222080114E-01
  -4.1665724278826888E-01  -4.1985015656953889E-01  -4.2303960109343092E-01
  -4.2622470099900667E-01  -4.2940455770182090E-01  -4.3257824906195441E-01
  -4.3574482905415307E-01  -4.3890332744040927E-01  -4.4205274944534229E-01
  -4.4519207543473582E-01  -4.4832026059761598E-01  -4.5143623463226007E-01
  -4.5453890143653980E-01  -4.5762713880302525E-01  -4.6069979811928102E-01
  -4.6375570407380617E-01  -4.6679365436808107E-01  -4.6981241943520580E-01
  -4.7281074216562491E-01  -4.7578733764044684E-01  -4.7874089287289395E-01
  -4.8167006655841871E-01  -4.8457348883405299E-01  -4.8744976104756477E-01
  -4.9029745553701620E-01  -4.9311511542133396E-01  -4.9590125440252064E-01
  -4.9865435658014906E-01  -5.0137287627880311E-01  -5.0405523788914530E-01
  -5.0669983572330346E-01  -5.0930503388529602E-01  -5.1186916615721900E-01
  -5.1439053590195272E-01  -5.1686741598314434E-01  -5.1929804870325746E-01
  -5.2168064576048223E-01  -5.2401338822532784E-01  -5.2629442653773040E-01
  -5.2852188052552618E-01  -5.3069383944515924E-01  -5.3280836204550630E-01
  -5.3486347665572098E-01  -5.3685718129800997E-01  -5.3878744382627841E-01
  -5.4065220209158260E-01  -5.4244936413536071E-01  -5.4417680841140847E-01
  -5.4583238403759637E-01  -5.4741391107832271E-01  -5.4891918085872649E-01
  -5.5034595631167715E-01  -5.5169197235858691E-01  -5.5295493632508896E-01
  -5.5413252839264138E-01  -5.5522240208712059E-01  -5.5622218480548324E-01
  -5.5712947838157034E-01  -5.5794185969214682E-01  -5.5865688130425906E-01
  -5.5927207216501418E-01  -5.5978493833486587E-01  -5.6019296376551064E-01
  -5.6049361112348717E-01  -5.6068432266056700E-01  -5.6076252113203351E-01
  -5.6072561076392158E-01  -5.6057097827029911E-01  -5.6029599392165275E-01
  -5.5989801266543104E-01  -5.5937437529978185E-01  -5.5872240970151166E-01
  -5.5793943210926789E-01  -5.5702274846292843E-01  -5.5596965580015911E-01
  -5.5477744371107407E-01  -5.5344339585190272E-01  -5.5196479151854061E-01
  -5.5033890728081591E-01  -5.4856301867828394E-01  -5.4663440197829327E-01
  -5.4455033599705971E-01  -5.4230810398439400E-01  -5.3990499557271432E-01
  -5.3733830879089650E-01  -5.3460535214346339E-01  -5.3170344675555203E-01
  -5.2862992858402869E-01  -5.2538215069504712E-01  -5.2195748560827593E-01
  -5.1835332770793441E-01  -5.1456709572068782E-01  -5.1059623526038345E-01
  -5.0643822143947825E-01  -5.0209056154695020E-01  -4.9755079779234523E-01
  -4.9281651011552791E-01  -4.8788531906157678E-01  -4.8275488872014383E-01
  -4.7742292972848710E-01  -4.7188720233723330E-01  -4.6614551953781647E-01
  -4.6019575025038112E-01  -4.5403582257079655E-01  -4.4766372707528951E-01
  -4.4107752018103119E-01  -4.3427532756086518E-01  -4.2725534761020434E-01
  -4.2001585496393307E-01  -4.1255520406100737E-01  -4.0487183275424787E-01
  -3.9696426596264389E-01  -3.8883111936331533E-01  -3.8047110312006588E-01
  -3.7188302564530556E-01  -3.6306579739188660E-01  -3.5401843467123623E-01
  -3.4474006349396402E-01  -3.3522992342888425E-01  -3.2548737147626933E-01
  -3.1551188595087243E-01  -3.0530307037007037E-01  -2.9486065734234079E-01
  -2.8418451245094295E-01  -2.7327463812761910E-01  -2.6213117751081622E-01
  -2.5075441828271738E-01  -2.3914479647926287E-01  -2.2730290026696401E-01
  -2.1522947368023537E-01  -2.0292542031268040E-01  -1.9039180695549043E-01
  -1.7762986717602752E-01  -1.6464100482924698E-01  -1.5142679749451332E-01
  -1.3798899983007157E-01  -1.2432954683713188E-01  -1.1045055702542496E-01
  -9.6354335471703120E-02  -8.2043376762535106E-02  -6.7520367812541615E-02
  -5.2788190548991351E-02  -3.7849924453672086E-02  -2.2708848952796193E-02
  -7.3684456458405871E-03   8.1675996357085476E-03   2.3895394948393850E-02
   3.9810840543861963E-02   5.5909627370593469E-02   7.2187235777056546E-02
   8.8638934421925011E-02   1.0525977939574505E-01   1.2204461355676249E-01
   1.3898806608193798E-01   1.5608455223206891E-01   1.7332827332795173E-01
   1.9071321693232729E-01   2.0823315723028615E-01   2.2588165559915258E-01
   2.4365206135725401E-01   2.6153751268040604E-01   2.7953093767479664E-01
   2.9762505559586377E-01   3.1581237820499192E-01   3.3408521125889695E-01
   3.5243565613141131E-01   3.7085561157324576E-01   3.8933677562240049E-01
   4.0787064768644249E-01   4.2644853082668865E-01   4.4506153428403300E-01
   4.6370057629549893E-01   4.8235638725886609E-01   5.0101951330973937E-01
   5.1968032037925505E-01   5.3832899880122553E-01   5.5695556853377448E-01
   5.7554988505165106E-01   5.9410164595228643E-01   6.1260039830093493E-01
   6.3103554671980444E-01   6.4939636220454222E-01   6.6767199163043767E-01
   6.8585146789304197E-01   7.0392372061447261E-01   7.2187758733918561E-01
   7.3970182514150296E-01   7.5738512257120183E-01   7.7491611187211928E-01
   7.9228338142028576E-01   8.0947548834096261E-01   8.2648097127683862E-01
   8.4328836329094492E-01   8.5988620489710799E-01   8.7626305721740394E-01
   8.9240751527005180E-01   9.0830822139282963E-01   9.2395387880657598E-01
   9.3933326532141770E-01   9.5443524718509198E-01   9.6924879306901413E-01
   9.8376298818346697E-01   9.9796704850904694E-01   1.0118503351274641E+00
   1.0254023686308409E+00   1.0386128435853719E+00   1.0514716430221351E+00
   1.0639688529253122E+00   1.0760947766861175E+00   1.0878399494890025E+00
   1.0991951525956403E+00   1.1101514274913957E+00   1.1207000898585013E+00
   1.1308327433401906E+00   1.1405412930601082E+00   1.1498179588618316E+00
   1.1586552882339940E+00   1.1670461688872329E+00   1.1749838409503073E+00
   1.1824619087537167E+00   1.1894743521704039E+00   1.1960155374844812E+00
   1.2020802277601581E+00   1.2076635926846204E+00   1.2127612178599956E+00
   1.2173691135210878E+00   1.2214837226571531E+00   1.2251019285175435E+00
   1.2282210614826643E+00   1.2308389052833817E+00   1.2329537025536015E+00
   1.2345641597025061E+00   1.2356694510945336E+00   1.2362692225269731E+00
   1.2363635939966784E+00   1.2359531617491415E+00   1.2350389996048567E+00
   1.2336226595595767E+00   1.2317061716567370E+00   1.2292920431319680E+00
   1.2263832568312183E+00   1.2229832689056097E+00   1.2190960057876599E+00
   1.2147258604550226E+00   1.2098776879893403E+00   1.2045568004391520E+00
   1.1987689609971810E+00   1.1925203775035476E+00   1.1858176952876371E+00
   1.1786679893625169E+00   1.1710787559867692E+00   1.1630579036096362E+00
   1.1546137432162114E+00   1.1457549780902128E+00   1.1364906930126439E+00
   1.1268303429151914E+00   1.1167837410078489E+00   1.1063610464006892E+00
   1.0955727512400482E+00   1.0844296673798204E+00   1.0729429126086214E+00
   1.0611238964538920E+00   1.0489843055840109E+00   1.0365360888294752E+00
   1.0237914418442640E+00   1.0107627914282393E+00   9.9746277953138662E-01
   9.8390424696041123E-01   9.7010021680791592E-01   9.5606387762412548E-01
   9.4180856635073329E-01   9.2734775103610223E-01   9.1269501335092784E-01
   8.9786403092376821E-01   8.8286855950507737E-01   8.6772241500003822E-01
   8.5243945536305565E-01   8.3703356238461268E-01   8.2151862338480819E-01
   8.0590851283117504E-01   7.9021707389856510E-01   7.7445809998957715E-01
   7.5864531623479592E-01   7.4279236099347035E-01   7.2691276737687371E-01
   7.1101994481869757E-01   6.9512716071954728E-01   6.7924752219560025E-01
   6.6339395796531742E-01   6.4757920041226424E-01   6.3181576786673666E-01
   6.1611594715419671E-01   6.0049177646382523E-01   5.8495502859626503E-01
   5.6951719465535011E-01   5.5418946825397275E-01   5.3898273030953581E-01
   5.2390753450865291E-01   5.0897409352424716E-01   4.9419226607049849E-01
   4.7957154488152492E-01   4.6512104569881935E-01   4.5084949734907953E-01
   4.3676523298858827E-01   4.2287618258230236E-01   4.0918986667455476E-01
   3.9571339149410417E-01   3.8245344541795878E-01   3.6941629679573479E-01
   3.5660779310845803E-01   3.4403336140148438E-01   3.3169800989007442E-01
   3.1960633058718457E-01   3.0776250274618633E-01   2.9617029684808011E-01
   2.8483307879608349E-01   2.7375381391720099E-01   2.6293507032064134E-01
   2.5237902114198052E-01   2.4208744522964562E-01   2.3206172592861865E-01
   2.2230284780617784E-01   2.1281139145751796E-01   2.0358752691844673E-01
   1.9463100666241798E-01   1.8594115959908877E-01   1.7751688781961592E-01
   1.6935666793309859E-01   1.6145855861710193E-01   1.5382021542745897E-01
   1.4643891304560577E-01   1.3931157414524642E-01   1.3243480315729619E-01
   1.2580492261537310E-01   1.1941800960323364E-01   1.1326993010451795E-01
   1.0735636966071223E-01   1.0167285949514608E-01   9.6214797979295830E-02
   9.0977467874010995E-02   8.5956050116517566E-02   8.1145635052618820E-02
   7.6541231980374200E-02   7.2137777738811193E-02   6.7930144899243594E-02
   6.3913149938808062E-02   6.0081561620664373E-02   5.6430109683346941E-02
   5.2953493854318426E-02   4.9646393145709934E-02   4.6503475357110365E-02
   4.3519406694812419E-02   4.0688861413287952E-02   3.8006531388490174E-02
   3.5467135540630461E-02   3.3065429033979590E-02   3.0796212191736238E-02
   2.8654339074087654E-02   2.6634725676857939E-02   2.4732357716432164E-02
   2.2942297973832893E-02   2.1259693177062722E-02   1.9679780406153910E-02
   1.8197893009915235E-02   1.6809466027295036E-02   1.5510041109645784E-02
   1.4295270943131492E-02   1.3160923173119211E-02   1.2102883834715809E-02
   1.1117160295715760E-02   1.0199883720137814E-02   9.3473110622961826E-03
   8.5558266029870499E-03   7.8219430408844222E-03   7.1423021536509996E-03
   6.5136750445672336E-03   5.9329619916794864E-03   5.3971919175533596E-03
   4.9035214986956266E-03   4.4492339345713859E-03   4.0317373968846758E-03
   3.6485631804191233E-03   3.2973635772311598E-03   2.9759094963674633E-03
   2.6820878515294651E-03   2.4138987392305316E-03   2.1694524299987450E-03
   1.9469661950543558E-03   1.7447609906543352E-03   1.5612580219415569E-03
   1.3949752076662574E-03   1.2445235665725439E-03   1.1086035455594796E-03
   9.8600130894471922E-04   8.7558500728540569E-04   7.7630104324745571E-04
   6.8717035097824025E-04   6.0728470432647055E-04   5.3580306809808387E-04
   4.7194800533118458E-04   4.1500215234656861E-04   3.6430477209516859E-04
   3.1924839509484449E-04   2.7927555604343498E-04   2.4387563302756624E-04
   2.1258179512684332E-04   1.8496806315245582E-04   1.6064648726125087E-04
   1.3926444425524628E-04   1.2050205651279755E-04   1.0406973369876020E-04
   8.9705837664961777E-05   7.7174470275149040E-05   6.6263383266543135E-05
   5.6782008690433057E-05   4.8559607953639072E-05   4.1443537009521387E-05
   3.5297624820817641E-05   3.0000661835271907E-05   2.5444994879750948E-05
   2.1535224588636300E-05   1.8187001238028028E-05   1.5325914658367346E-05
   1.2886473744001078E-05   1.0811170967914607E-05   9.0496272419040643E-06
   7.5578124349068960E-06   6.2973368723280827E-06   5.2348091848573266E-06
   4.3412559523380616E-06   3.5915986941196690E-06   2.9641838880295741E-06
   2.4403618521059626E-06   2.0041104929249057E-06   1.6417001081789800E-06
   1.3413956257249720E-06   1.0931928634190842E-06   8.8858560075767258E-07
   7.2036046178151681E-07   5.8241681677620007E-07   4.6960911545149720E-07
   3.7760926499758758E-07   3.0278686096396338E-07   2.4210526605221817E-07
   1.9303171062926005E-07   1.5345975827659013E-07   1.2164263944780635E-07
   9.6136105961424024E-08   7.5749598456978958E-08   5.9504648048680634E-08
   4.6599552419009825E-08   3.6379475668530018E-08   2.8311220768535775E-08
   2.1962013837876663E-08   1.6981721149855163E-08   1.2939322722407130E-08
   1.1567117235859252E-09   2.4666438191968984E-11  -0.0000000000000000E+00
  -0.0000000000000000E+00  -0.0000000000000000E+00  -0.0000000000000000E+00
  -0.0000000000000000E+00  -0.0000000000000000E+00  -0.0000000000000000E+00
  -0.0000000000000000E+00  -0.0000000000000000E+00  -0.0000000000000000E+00
  -0.0000000000000000E+00  -0.0000000000000000E+00  -0.0000000000000000E+00
  -0.0000000000000000E+00  -0.0000000000000000E+00  -0.0000000000000000E+00
  -0.0000000000000000E+00  -0.0000000000000000E+00  -0.0000000000000000E+00
  -0.0000000000000000E+00  -0.0000000000000000E+00  -0.0000000000000000E+00
  -0.0000000000000000E+00  -0.0000000000000000E+00  -0.0000000000000000E+00
  -0.0000000000000000E+00  -0.0000000000000000E+00  -0.0000000000000000E+00
  -0.0000000000000000E+00  -0.0000000000000000E+00  -0.0000000000000000E+00
  -0.0000000000000000E+00  -0.0000000000000000E+00  -0.0000000000000000E+00
  -0.0000000000000000E+00  -0.0000000000000000E+00  -0.0000000000000000E+00
  -0.0000000000000000E+00  -0.0000000000000000E+00  -0.0000000000000000E+00
  -0.0000000000000000E+00  -0.0000000000000000E+00  -0.0000000000000000E+00
       </PP_GIPAW_WFS_AE>
       <PP_GIPAW_WFS_PS size="1026">
   0.0000000000000000E+00   1.4047477021248388E-04   1.4224172532369543E-04
   1.4403090599385637E-04   1.4584259178599353E-04   1.4767706577966535E-04
   1.4953461461514453E-04   1.5141552853819451E-04   1.5332010144541994E-04
   1.5524863093018961E-04   1.5720141832913478E-04   1.5917876876923441E-04
   1.6118099121549214E-04   1.6320839851921158E-04   1.6526130746688083E-04
   1.6734003882967042E-04   1.6944491741355497E-04   1.7157627211006438E-04
   1.7373443594767356E-04   1.7591974614383942E-04   1.7813254415769100E-04
   1.8037317574338350E-04   1.8264199100412310E-04   1.8493934444687108E-04
   1.8726559503773603E-04   1.8962110625806339E-04   1.9200624616122960E-04
   1.9442138743015186E-04   1.9686690743551949E-04   1.9934318829475979E-04
   2.0185061693174427E-04   2.0438958513724543E-04   2.0696048963015647E-04
   2.0956373211947771E-04   2.1219971936708510E-04   2.1486886325128778E-04
   2.1757158083118388E-04   2.2030829441182788E-04   2.2307943161021577E-04
   2.2588542542210119E-04   2.2872671428965190E-04   2.3160374216995723E-04
   2.3451695860439670E-04   2.3746681878888219E-04   2.4045378364498279E-04
   2.4347831989194506E-04   2.4654090011961768E-04   2.4964200286229580E-04
   2.5278211267349223E-04   2.5596172020164921E-04   2.5918132226680464E-04
   2.6244142193821872E-04   2.6574252861298180E-04   2.6908515809560721E-04
   2.7246983267862647E-04   2.7589708122419945E-04   2.7936743924674898E-04
   2.8288144899663573E-04   2.8643965954488733E-04   2.9004262686898940E-04
   2.9369091393975969E-04   2.9738509080931238E-04   3.0112573470012980E-04
   3.0491343009525447E-04   3.0874876882961550E-04   3.1263235018250379E-04
   3.1656478097121004E-04   3.2054667564584142E-04   3.2457865638532994E-04
   3.2866135319464904E-04   3.3279540400325293E-04   3.3698145476475388E-04
   3.4122015955785346E-04   3.4551218068854385E-04   3.4985818879359294E-04
   3.5425886294533350E-04   3.5871489075776886E-04   3.6322696849401336E-04
   3.6779580117508420E-04   3.7242210269006302E-04   3.7710659590764153E-04
   3.8185001278906970E-04   3.8665309450252791E-04   3.9151659153893281E-04
   3.9644126382920564E-04   4.0142788086300915E-04   4.0647722180898386E-04
   4.1159007563649341E-04   4.1676724123890121E-04   4.2200952755839946E-04
   4.2731775371240729E-04   4.3269274912155801E-04   4.3813535363929887E-04
   4.4364641768311684E-04   4.4922680236741871E-04   4.5487737963808102E-04
   4.6059903240869250E-04   4.6639265469851013E-04   4.7225915177215034E-04
   4.7819944028103841E-04   4.8421444840663486E-04   4.9030511600546610E-04
   4.9647239475597744E-04   5.0271724830723205E-04   5.0904065242948500E-04
   5.1544359516664576E-04   5.2192707699066226E-04   5.2849211095784391E-04
   5.3513972286715536E-04   5.4187095142049443E-04   5.4868684838499263E-04
   5.5558847875735449E-04   5.6257692093026202E-04   5.6965326686087719E-04
   5.7681862224145703E-04   5.8407410667212271E-04   5.9142085383579411E-04
   5.9886001167533062E-04   6.0639274257289692E-04   6.1402022353158523E-04
   6.2174364635932176E-04   6.2956421785509008E-04   6.3748315999749040E-04
   6.4550171013567470E-04   6.5362112118268396E-04   6.6184266181121558E-04
   6.7016761665185170E-04   6.7859728649378624E-04   6.8713298848806876E-04
   6.9577605635341288E-04   7.0452784058458754E-04   7.1338970866343342E-04
   7.2236304527252765E-04   7.3144925251154630E-04   7.4064975011633408E-04
   7.4996597568074562E-04   7.5939938488126186E-04   7.6895145170444244E-04
   7.7862366867723434E-04   7.8841754710017779E-04   7.9833461728354605E-04
   8.0837642878645477E-04   8.1854455065897972E-04   8.2884057168731832E-04
   8.3926610064203667E-04   8.4982276652943809E-04   8.6051221884609231E-04
   8.7133612783656838E-04   8.8229618475440662E-04   8.9339410212637576E-04
   9.0463161402005131E-04   9.1601047631476300E-04   9.2753246697594382E-04
   9.3919938633293726E-04   9.5101305736029404E-04   9.6297532596260871E-04
   9.7508806126293552E-04   9.8735315589483855E-04   9.9977252629810808E-04
   1.0123481130182026E-03   1.0250818810094487E-03   1.0379758199420667E-03
   1.0510319445130440E-03   1.0642522947609315E-03   1.0776389363845885E-03
   1.0911939610659454E-03   1.1049194867968183E-03   1.1188176582098393E-03
   1.1328906469135491E-03   1.1471406518316996E-03   1.1615698995468297E-03
   1.1761806446481573E-03   1.1909751700838521E-03   1.2059557875177330E-03
   1.2211248376904566E-03   1.2364846907852482E-03   1.2520377467982269E-03
   1.2677864359134003E-03   1.2837332188823578E-03   1.2998805874087586E-03
   1.3162310645376415E-03   1.3327872050496363E-03   1.3495515958601356E-03
   1.3665268564234815E-03   1.3837156391422389E-03   1.4011206297816152E-03
   1.4187445478890926E-03   1.4365901472193424E-03   1.4546602161644728E-03
   1.4729575781896936E-03   1.4914850922744690E-03   1.5102456533591991E-03
   1.5292421927975393E-03   1.5484776788143926E-03   1.5679551169696718E-03
   1.5876775506278901E-03   1.6076480614336574E-03   1.6278697697931575E-03
   1.6483458353616807E-03   1.6690794575372873E-03   1.6900738759606793E-03
   1.7113323710213589E-03   1.7328582643701522E-03   1.7546549194381771E-03
   1.7767257419623417E-03   1.7990741805174472E-03   1.8217037270549837E-03
   1.8446179174487040E-03   1.8678203320470523E-03   1.8913145962325471E-03
   1.9151043809881975E-03   1.9391934034710360E-03   1.9635854275928699E-03
   1.9882842646083351E-03   2.0132937737103417E-03   2.0386178626330131E-03
   2.0642604882622033E-03   2.0902256572536814E-03   2.1165174266591200E-03
   2.1431399045599110E-03   2.1700972507089997E-03   2.1973936771807470E-03
   2.2250334490289936E-03   2.2530208849533737E-03   2.2813603579740407E-03
   2.3100562961148405E-03   2.3391131830950988E-03   2.3685355590300954E-03
   2.3983280211403563E-03   2.4284952244698547E-03   2.4590418826132446E-03
   2.4899727684522467E-03   2.5212927149012763E-03   2.5530066156624616E-03
   2.5851194259901545E-03   2.6176361634650393E-03   2.6505619087779852E-03
   2.6839018065237586E-03   2.7176610660047023E-03   2.7518449620445216E-03
   2.7864588358123155E-03   2.8215080956569441E-03   2.8569982179519034E-03
   2.8929347479508178E-03   2.9293233006536883E-03   2.9661695616840173E-03
   3.0034792881769856E-03   3.0412583096787668E-03   3.0795125290571704E-03
   3.1182479234237183E-03   3.1574705450673171E-03   3.1971865223996625E-03
   3.2374020609125293E-03   3.2781234441471140E-03   3.3193570346755114E-03
   3.3611092750945966E-03   3.4033866890323342E-03   3.4461958821667758E-03
   3.4895435432578527E-03   3.5334364451921423E-03   3.5778814460407505E-03
   3.6228854901305101E-03   3.6684556091286210E-03   3.7145989231409404E-03
   3.7613226418240645E-03   3.8086340655113771E-03   3.8565405863532835E-03
   3.9050496894717231E-03   3.9541689541292280E-03   4.0039060549126601E-03
   4.0542687629318130E-03   4.1052649470330960E-03   4.1569025750284360E-03
   4.2091897149396495E-03   4.2621345362584403E-03   4.3157453112222010E-03
   4.3700304161059036E-03   4.4249983325301391E-03   4.4806576487856674E-03
   4.5370170611745550E-03   4.5940853753681640E-03   4.6518715077822339E-03
   4.7103844869691896E-03   4.7696334550279846E-03   4.8296276690315979E-03
   4.8903765024724960E-03   4.9518894467262629E-03   5.0141761125335506E-03
   5.0772462315007080E-03   5.1411096576192009E-03   5.2057763688041422E-03
   5.2712564684521384E-03   5.3375601870186678E-03   5.4046978836153016E-03
   5.4726800476269577E-03   5.5415173003494356E-03   5.6112203966475656E-03
   5.6818002266341107E-03   5.7532678173697806E-03   5.8256343345845689E-03
   5.8989110844206915E-03   5.9731095151974046E-03   6.0482412191979872E-03
   6.1243179344790876E-03   6.2013515467028652E-03   6.2793540909920204E-03
   6.3583377538081968E-03   6.4383148748538427E-03   6.5192979489980271E-03
   6.6012996282263734E-03   6.6843327236154005E-03   6.7684102073317419E-03
   6.8535452146563135E-03   6.9397510460339467E-03   7.0270411691486763E-03
   7.1154292210250840E-03   7.2049290101559678E-03   7.2955545186566707E-03
   7.3873199044464290E-03   7.4802395034570691E-03   7.5743278318693647E-03
   7.6695995883774570E-03   7.7660696564815458E-03   7.8637531068094912E-03
   7.9626651994672507E-03   8.0628213864190647E-03   8.1642373138971248E-03
   8.2669288248416704E-03   8.3709119613715379E-03   8.4762029672856218E-03
   8.5828182905957773E-03   8.6907745860912034E-03   8.8000887179352002E-03
   8.9107777622941930E-03   9.0228590099997487E-03   9.1363499692439787E-03
   9.2512683683084723E-03   9.3676321583275081E-03   9.4854595160858250E-03
   9.6047688468512710E-03   9.7255787872429795E-03   9.8479082081353343E-03
   9.9717762175982431E-03   1.0097202163874192E-02   1.0224205638392405E-02
   1.0352806478820838E-02   1.0483024772156036E-02   1.0614880857851800E-02
   1.0748395330986807E-02   1.0883589045471815E-02   1.1020483117296899E-02
   1.1159098927819130E-02   1.1299458127091386E-02   1.1441582637232614E-02
   1.1585494655840122E-02   1.1731216659444505E-02   1.1878771407007454E-02
   1.2028181943463332E-02   1.2179471603304843E-02   1.2332664014213238E-02
   1.2487783100733939E-02   1.2644853087997697E-02   1.2803898505488260E-02
   1.2964944190856822E-02   1.3128015293783893E-02   1.3293137279889393E-02
   1.3460335934691032E-02   1.3629637367612173E-02   1.3801068016039440E-02
   1.3974654649430554E-02   1.4150424373473467E-02   1.4328404634296788E-02
   1.4508623222732796E-02   1.4691108278633049E-02   1.4875888295237710E-02
   1.5062992123598941E-02   1.5252448977059099E-02   1.5444288435784433E-02
   1.5638540451354984E-02   1.5835235351411049E-02   1.6034403844357527E-02
   1.6236077024125998E-02   1.6440286374995984E-02   1.6647063776475669E-02
   1.6856441508242885E-02   1.7068452255147054E-02   1.7283129112272980E-02
   1.7500505590066880E-02   1.7720615619525787E-02   1.7943493557450743E-02
   1.8169174191764805E-02   1.8397692746896323E-02   1.8629084889228511E-02
   1.8863386732616120E-02   1.9100634843969556E-02   1.9340866248907924E-02
   1.9584118437481229E-02   1.9830429369962620E-02   2.0079837482711884E-02
   2.0332381694110516E-02   2.0588101410569489E-02   2.0847036532610511E-02
   2.1109227461021472E-02   2.1374715103087159E-02   2.1643540878895893E-02
   2.1915746727723052E-02   2.2191375114492474E-02   2.2470469036316158E-02
   2.2753072029113919E-02   2.3039228174313107E-02   2.3328982105629691E-02
   2.3622379015931887E-02   2.3919464664186350E-02   2.4220285382488906E-02
   2.4524888083180211E-02   2.4833320266046986E-02   2.5145630025610752E-02
   2.5461866058503695E-02   2.5782077670933802E-02   2.6106314786239603E-02
   2.6434627952535563E-02   2.6767068350449355E-02   2.7103687800951532E-02
   2.7444538773279136E-02   2.7789674392953757E-02   2.8139148449895408E-02
   2.8493015406633126E-02   2.8851330406612811E-02   2.9214149282604466E-02
   2.9581528565208407E-02   2.9953525491462810E-02   3.0330198013552676E-02
   3.0711604807621622E-02   3.1097805282687626E-02   3.1488859589663590E-02
   3.1884828630483648E-02   3.2285774067336952E-02   3.2691758332008498E-02
   3.3102844635330121E-02   3.3519096976740693E-02   3.3940580153957886E-02
   3.4367359772762347E-02   3.4799502256894314E-02   3.5237074858065501E-02
   3.5680145666085586E-02   3.6128783619105473E-02   3.6583058513977980E-02
   3.7043041016736770E-02   3.7508802673194959E-02   3.7980415919664383E-02
   3.8457954093796112E-02   3.8941491445544082E-02   3.9431103148251746E-02
   3.9926865309863745E-02   4.0428854984263178E-02   4.0937150182735381E-02
   4.1451829885559600E-02   4.1972974053728587E-02   4.2500663640798554E-02
   4.3034980604869100E-02   4.3576007920694645E-02   4.4123829591928614E-02
   4.4678530663500013E-02   4.5240197234125083E-02   4.5808916468953208E-02
   4.6384776612349195E-02   4.6967867000811958E-02   4.7558278076030649E-02
   4.8156101398079132E-02   4.8761429658749376E-02   4.9374356695024678E-02
   4.9994977502693133E-02   5.0623388250102194E-02   5.1259686292055053E-02
   5.1903970183849180E-02   5.2556339695457505E-02   5.3216895825853566E-02
   5.3885740817479572E-02   5.4562978170859373E-02   5.5248712659355784E-02
   5.5943050344072799E-02   5.6646098588903342E-02   5.7357966075721696E-02
   5.8078762819722352E-02   5.8808600184904157E-02   5.9547590899699895E-02
   6.0295849072752407E-02   6.1053490208835166E-02   6.1820631224919036E-02
   6.2597390466384198E-02   6.3383887723376137E-02   6.4180244247306950E-02
   6.4986582767499926E-02   6.5803027507977202E-02   6.6629704204390863E-02
   6.7466740121094326E-02   6.8314264068356376E-02   6.9172406419712895E-02
   7.0041299129458764E-02   7.0921075750276577E-02   7.1811871451000764E-02
   7.2713823034516914E-02   7.3627068955793462E-02   7.4551749340043272E-02
   7.5488006001015712E-02   7.6435982459414006E-02   7.7395823961437488E-02
   7.8367677497445845E-02   7.9351691820741713E-02   8.0348017466470481E-02
   8.1356806770632492E-02   8.2378213889205618E-02   8.3412394817373739E-02
   8.4459507408857978E-02   8.5519711395346823E-02   8.6593168406019758E-02
   8.7680041987162199E-02   8.8780497621863866E-02   8.9894702749798397E-02
   9.1022826787077307E-02   9.2165041146173021E-02   9.3321519255904997E-02
   9.4492436581482736E-02   9.5677970644598848E-02   9.6878301043565443E-02
   9.8093609473486110E-02   9.9324079746456684E-02   1.0056989781178462E-01
   1.0183125177622064E-01   1.0310833192419243E-01   1.0440133073803091E-01
   1.0571044291817959E-01   1.0703586540337619E-01   1.0837779739079532E-01
   1.0973644035614179E-01   1.1111199807368112E-01   1.1250467663619579E-01
   1.1391468447485267E-01   1.1534223237896955E-01   1.1678753351566483E-01
   1.1825080344937548E-01   1.1973226016122808E-01   1.2123212406824518E-01
   1.2275061804237068E-01   1.2428796742929578E-01   1.2584440006706613E-01
   1.2742014630445098E-01   1.2901543901905305E-01   1.3063051363513750E-01
   1.3226560814115901E-01   1.3392096310696089E-01   1.3559682170062362E-01
   1.3729342970493616E-01   1.3901103553346428E-01   1.4074989024618736E-01
   1.4251024756467370E-01   1.4429236388676731E-01   1.4609649830075008E-01
   1.4792291259895041E-01   1.4977187129076225E-01   1.5164364161503815E-01
   1.5353849355182200E-01   1.5545669983337843E-01   1.5739853595448372E-01
   1.5936428018193197E-01   1.6135421356321569E-01   1.6336861993433335E-01
   1.6540778592667960E-01   1.6747200097296436E-01   1.6956155731211570E-01
   1.7167674999310778E-01   1.7381787687766348E-01   1.7598523864176907E-01
   1.7817913877594668E-01   1.8039988358421816E-01   1.8264778218169964E-01
   1.8492314649075589E-01   1.8722629123564830E-01   1.8955753393560204E-01
   1.9191719489621914E-01   1.9430559719915749E-01   1.9672306668999717E-01
   1.9916993196420710E-01   2.0164652435112923E-01   2.0415317789588425E-01
   2.0669022933911094E-01   2.0925801809443567E-01   2.1185688622357629E-01
   2.1448717840897133E-01   2.1714924192382901E-01   2.1984342659948156E-01
   2.2257008478992868E-01   2.2532957133344633E-01   2.2812224351114158E-01
   2.3094846100231423E-01   2.3380858583649966E-01   2.3670298234204529E-01
   2.3963201709108031E-01   2.4259605884072866E-01   2.4559547847040566E-01
   2.4863064891504369E-01   2.5170194509407495E-01   2.5480974383600119E-01
   2.5795442379837225E-01   2.6113636538298807E-01   2.6435595064613343E-01
   2.6761356320364654E-01   2.7090958813061949E-01   2.7424441185551629E-01
   2.7761842204849263E-01   2.8103200750368912E-01   2.8448555801526698E-01
   2.8797946424694082E-01   2.9151411759476520E-01   2.9508991004291113E-01
   2.9870723401217136E-01   3.0236648220091811E-01   3.0606804741822891E-01
   3.0981232240889139E-01   3.1359969966997875E-01   3.1743057125869573E-01
   3.2130532859116040E-01   3.2522436223180295E-01   3.2918806167303366E-01
   3.3319681510482974E-01   3.3725100917388151E-01   3.4135102873192302E-01
   3.4549725657286096E-01   3.4969007315831413E-01   3.5392985633114848E-01
   3.5821698101659682E-01   3.6255181891052957E-01   3.6693473815443284E-01
   3.7136610299664763E-01   3.7584627343939547E-01   3.8037560487111810E-01
   3.8495444768363740E-01   3.8958314687363049E-01   3.9426204162791045E-01
   3.9899146489197124E-01   4.0377174292126983E-01   4.0860319481468033E-01
   4.1348613202954854E-01   4.1842085787778788E-01   4.2340766700239313E-01
   4.2844684483378620E-01   4.3353866702537941E-01   4.3868339886769608E-01
   4.4388129468045029E-01   4.4913259718188592E-01   4.5443753683473254E-01
   4.5979633116810831E-01   4.6520918407464945E-01   4.7067628508220416E-01
   4.7619780859935662E-01   4.8177391313406659E-01   4.8740474048472116E-01
   4.9309041490282518E-01   4.9883104222663122E-01   5.0462670898493500E-01
   5.1047748147028948E-01   5.1638340478090583E-01   5.2234450183044911E-01
   5.2836077232500267E-01   5.3443219170643275E-01   5.4055871006139400E-01
   5.4674025099524526E-01   5.5297671047011587E-01   5.5926795560640252E-01
   5.6561382344696298E-01   5.7201411968331173E-01   5.7846861734311905E-01
   5.8497705543834078E-01   5.9153913757333398E-01   5.9815453051233713E-01
   6.0482286270571495E-01   6.1154372277442126E-01   6.1831665795214785E-01
   6.2514117248469891E-01   6.3201672598614000E-01   6.3894273175136640E-01
   6.4591855502476436E-01   6.5294351122470373E-01   6.6001686412370897E-01
   6.6713782398415911E-01   6.7430554564953993E-01   6.8151912659129832E-01
   6.8877760491145645E-01   6.9607995730131189E-01   7.0342509695656141E-01
   7.1081187144941205E-01   7.1823906055833553E-01   7.2570537405623714E-01
   7.3320944945805722E-01   7.4074984972888391E-01   7.4832506095390827E-01
   7.5593348997175747E-01   7.6357346197284948E-01   7.7124321806477192E-01
   7.7894091280680333E-01   7.8666461171599567E-01   7.9441228874753078E-01
   8.0218182375225511E-01   8.0997099991469745E-01   8.1777750117511072E-01
   8.2559890963944071E-01   8.3343270298149819E-01   8.4127625184191679E-01
   8.4912681722893901E-01   8.5698154792643177E-01   8.6483747791497645E-01
   8.7269152381234072E-01   8.8054048234007887E-01   8.8838102782353101E-01
   8.9620970973298797E-01   9.0402295027430757E-01   9.1181704203786607E-01
   9.1958814571525305E-01   9.2733228789376210E-01   9.3504535893930996E-01
   9.4272311097908146E-01   9.5036115599584781E-01   9.5795496404656766E-01
   9.6549986161861168E-01   9.7299103013760724E-01   9.8042350464167638E-01
   9.8779217263754870E-01   9.9509177315477437E-01   1.0023168960150608E+00
   1.0094619813344432E+00   1.0165213192768427E+00   1.0234890500782821E+00
   1.0303591643617835E+00   1.0371255037637628E+00   1.0437817618934047E+00
   1.0503214856472762E+00   1.0567380769020995E+00   1.0630247946092324E+00
   1.0691747573150894E+00   1.0751809461322275E+00   1.0810362081863834E+00
   1.0867332605652149E+00   1.0922646947947856E+00   1.0976229818702585E+00
   1.1028004778673364E+00   1.1077894301611355E+00   1.1125819842791811E+00
   1.1171701914149528E+00   1.1215460166282161E+00   1.1257013477578175E+00
   1.1296280050720131E+00   1.1333177516805879E+00   1.1367623047319106E+00
   1.1399533474168759E+00   1.1428825418001238E+00   1.1455415424971820E+00
   1.1479220112141155E+00   1.1500156321639616E+00   1.1518141283715211E+00
   1.1533092788751800E+00   1.1544929368310455E+00   1.1553570485210565E+00
   1.1558936732626597E+00   1.1560950042132272E+00   1.1559533900575756E+00
   1.1554613575617243E+00   1.1546116349704438E+00   1.1533971762200961E+00
   1.1518111859319065E+00   1.1498471451439878E+00   1.1474988377332982E+00
   1.1447603774712360E+00   1.1416262356487394E+00   1.1380912691987302E+00
   1.1341507492354417E+00   1.1298003899217270E+00   1.1250363775669860E+00
   1.1198553998498302E+00   1.1142546750512208E+00   1.1082319811740071E+00
   1.1017856848039622E+00   1.0949147695473478E+00   1.0876188638782749E+00
   1.0798982682224303E+00   1.0717539810939725E+00   1.0631877240928165E+00
   1.0542019655606873E+00   1.0447999426860088E+00   1.0349856818403378E+00
   1.0247640169227987E+00   1.0141406054837707E+00   1.0031219423955045E+00
   9.9171537083522987E-01   9.7992909034607290E-01   9.6777216174293856E-01
   9.5525450863453754E-01   9.4238691533923014E-01   9.2918102098158473E-01
   9.1564930956852231E-01   9.0180509585908908E-01   8.8766250686017867E-01
   8.7323645880228185E-01   8.5854262947451887E-01   8.4359742582702757E-01
   8.2841794678125469E-01   8.1302194122473315E-01   7.9742776120670045E-01
   7.8165431039397704E-01   7.6572098789308529E-01   7.4964762759408488E-01
   7.3345443324379267E-01   7.1716190951070780E-01   7.0079078936013028E-01
   6.8436195811557676E-01   6.6789637464053153E-01   6.5141499013209603E-01
   6.3493866507467600E-01   6.1848808495577268E-01   6.0208367539689556E-01
   5.8574551739896308E-01   5.6949326344200268E-01   5.5334605521284952E-01
   5.3732244375967197E-01   5.2144031288799531E-01   5.0571680661792462E-01
   4.9016826151490367E-01   4.7481014468638361E-01   4.5965699820223832E-01
   4.4472239064766811E-01   4.3001887645300235E-01   4.1555796356460201E-01
   4.0135008992592491E-01   3.8740460912741354E-01   3.7372978545970542E-01
   3.6033279846799787E-01   3.4721975695784152E-01   3.3439572224687847E-01
   3.2186474029565859E-01   3.0962988218689763E-01   2.9769329226050728E-01
   2.8605624305520094E-01   2.7471919606178119E-01   2.6368186716365893E-01
   2.5294329553298694E-01   2.4250191467364168E-01   2.3235562426284503E-01
   2.2250186145081813E-01   2.1293767034070712E-01   2.0365976849603420E-01
   1.9466460951238213E-01   1.8594844093832880E-01   1.7750735712177504E-01
   1.6933734686292265E-01   1.6143433603705687E-01   1.5379422583944974E-01
   1.4641292892720492E-01   1.3928639979913371E-01   1.3241065793354298E-01
   1.2578179856129490E-01   1.1939587774318385E-01   1.1324876156161701E-01
   1.0733613585475466E-01   1.0165353212511559E-01   9.6196349027270242E-02
   9.0959869614449768E-02   8.5939275129574125E-02   8.1129656240174972E-02
   7.6526022583631198E-02   7.2123311356500491E-02   6.7916395505767488E-02
   6.3900091901842968E-02   6.0069169717939977E-02   5.6418359118446698E-02
   5.2942360271435847E-02   4.9635852643349951E-02   4.6493504500754401E-02
   4.3509982528577219E-02   4.0679961470612098E-02   3.7998133701876463E-02
   3.5459218650466758E-02   3.3057971996453939E-02   3.0789194585854926E-02
   2.8647741007800542E-02   2.6628527792290885E-02   2.4726541194224516E-02
   2.2936844536576743E-02   2.1254585091841006E-02   1.9675000486175095E-02
   1.8193424615244654E-02   1.6805293064684867E-02   1.5506148031469037E-02
   1.4291642745428162E-02   1.3157545392766212E-02   1.2099742545735882E-02
   1.1114242104743908E-02   1.0197175761067280E-02   9.3448009901294631E-03
   8.5535025869204716E-03   7.8197937566579587E-03   7.1403167751980020E-03
   6.5118432350010323E-03   5.9312738936566209E-03   5.3956381430549892E-03
   4.9020931182707991E-03   4.4479224660872712E-03   4.0305347938302113E-03
   3.6474618198095833E-03   3.2963562471617774E-03   2.9749893832647211E-03
   2.6812485271487585E-03   2.4131341474487216E-03   2.1687568734496906E-03
   1.9463343216547329E-03   1.7441877800660715E-03   1.5607387720159422E-03
   1.3945055209132679E-03   1.2440993366972285E-03   1.1082209441053079E-03
   9.8565677208171162E-04   8.7527522277859951E-04   7.7602293763890859E-04
   6.8692107701326800E-04   6.0706162865229298E-04   5.3560375926043746E-04
   4.7177022209184648E-04   4.1484383234210905E-04   3.6416402085464363E-04
   3.1912347543156672E-04   2.7916487783343879E-04   2.4377774338492475E-04
   2.1249536898360820E-04   1.8489189424869028E-04   1.6057947954841402E-04
   1.3920560371408227E-04   1.2045048338487653E-04   1.0402461512893239E-04
   8.9666440750216928E-05   7.7140135513734711E-05   6.6233518399682909E-05
   5.6756082927613083E-05   4.8537146571196769E-05   4.1424116311178125E-05
   3.5280867447846342E-05   2.9986232413185167E-05   2.5432595987729437E-05
   2.1524593037391078E-05   1.8177904641398517E-05   1.5318148283694339E-05
   1.2879857626174609E-05   1.0805547271972004E-05   9.0448578591370594E-06
   7.5537767976172499E-06   6.2939299726415418E-06   5.2319397833544602E-06
   4.3388449626784989E-06   3.5895777303133287E-06   2.9624939615347772E-06
   2.4389522065004888E-06   2.0029375644927218E-06   1.6407266013741866E-06
   1.3405896931071669E-06   1.0925273802935474E-06   8.8803752539265300E-07
   7.1991027270753326E-07   5.8204801929315526E-07   4.6930781007400814E-07
   3.7736377115326395E-07   3.0258738982012977E-07   2.4194363688108951E-07
   1.9290110562771235E-07   1.5335451123278473E-07   1.2155805409179555E-07
   9.6068300249569999E-08   7.5695371419851018E-08   5.9461366178427765E-08
   4.6565052884290959E-08   3.6351983921904140E-08   2.8289280351152873E-08
   2.1944426386804638E-08   1.6967494770436603E-08   1.3076297547328614E-08
   1.0044022548098865E-08   7.6889745365201965E-09   5.8660920696528706E-09
   4.4599571602684409E-09   3.3790553574047416E-09   2.5510793853557190E-09
   1.9191004808340820E-09   1.4384585066980668E-09   1.0742452307747114E-09
   7.9927524055280733E-10   5.9245619187036861E-10   4.3748480386245711E-10
   3.2180752522690850E-10   2.3579539097677322E-10   1.7209151903233436E-10
   1.2509718983392419E-10   9.0568713018706590E-11   6.5302492198120550E-11
   4.6890009483129459E-11   3.3528004166467433E-11   2.3872034297435093E-11
   1.6923989549875815E-11   1.1946057790246824E-11   8.3952121690788903E-12
   5.8735450160231437E-12   4.0907839247428396E-12   2.8361300300202694E-12
   1.9571969304617581E-12   1.3443328672525842E-12   9.1900484579841019E-13
   6.2523307422791970E-13   4.2330497830183265E-13   2.8518448497947300E-13
   1.9117581729916091E-13   1.2751100518384285E-13   8.4614111297551862E-14
   5.5858689988401988E-14   3.6682891822101773E-14   2.3962544863786310E-14
   1.5569339376531466E-14   1.0061118149499631E-14   6.4659404033471292E-15
   4.1323463638583882E-15   2.6260990544601067E-15   1.6593739444857065E-15
       </PP_GIPAW_WFS_PS>
     </PP_GIPAW_ORBITAL.1>
     <PP_GIPAW_ORBITAL.2 index="2" label="2P" l="1" cutoff_radius="  2.00147428921631" ultrasoft_cutoff_radius="  2.00147428921631">
       <PP_GIPAW_WFS_AE size="1026">
   0.0000000000000000E+00   2.0100968746602758E-07   2.0523583430825274E-07
   2.0955940550979696E-07   2.1398354784731476E-07   2.1851044289210159E-07
   2.2314231933042101E-07   2.2788144668832958E-07   2.3273014752085189E-07
   2.3769079902958233E-07   2.4276583430192746E-07   2.4795774353728647E-07
   2.5326907532617214E-07   2.5870243796567908E-07   2.6426050080747378E-07
   2.6994599563858453E-07   2.7576171809586297E-07   2.8171052911486800E-07
   2.8779535641401103E-07   2.9401919601482136E-07   3.0038511379916565E-07
   3.0689624710433627E-07   3.1355580635690383E-07   3.2036707674625983E-07
   3.2733341993880825E-07   3.3445827583379539E-07   3.4174516436175420E-07
   3.4919768732660093E-07   3.5681953029244991E-07   3.6461446451619805E-07
   3.7258634892698732E-07   3.8073913215371126E-07   3.8907685460166170E-07
   3.9760365057956421E-07   4.0632375047818514E-07   4.1524148300176144E-07
   4.2436127745354098E-07   4.3368766607674120E-07   4.4322528645226332E-07
   4.5297888395454191E-07   4.6295331426693111E-07   4.7315354595810180E-07
   4.8358466312089444E-07   4.9425186807515921E-07   5.0516048413616464E-07
   5.1631595845013460E-07   5.2772386489855892E-07   5.3938990707298215E-07
   5.5131992132194269E-07   5.6351987987186741E-07   5.7599589402369999E-07
   5.8875421742712909E-07   6.0180124943430564E-07   6.1514353853500984E-07
   6.2878778587524197E-07   6.4274084886130614E-07   6.5700974485146516E-07
   6.7160165493733166E-07   6.8652392781718868E-07   7.0178408376350636E-07
   7.1738981868698027E-07   7.3334900829944387E-07   7.4966971237811945E-07
   7.6636017913368864E-07   7.8342884968474782E-07   8.0088436264127356E-07
   8.1873555879979860E-07   8.3699148595304369E-07   8.5566140381685251E-07
   8.7475478907731587E-07   8.9428134056107793E-07   9.1425098453185839E-07
   9.3467388011632953E-07   9.5556042486255146E-07   9.7692126043425405E-07
   9.9876727844433312E-07   1.0211096264310272E-06   1.0439597139803034E-06
   1.0673292189980977E-06   1.0912300941361340E-06   1.1156745733751242E-06
   1.1406751787692896E-06   1.1662447273562018E-06   1.1923963382360425E-06
   1.2191434398245544E-06   1.2464997772839309E-06   1.2744794201361514E-06
   1.3030967700632543E-06   1.3323665688992424E-06   1.3623039068183698E-06
   1.3929242307247371E-06   1.4242433528481790E-06   1.4562774595516340E-06
   1.4890431203552147E-06   1.5225572971824664E-06   1.5568373538342594E-06
   1.5919010656961049E-06   1.6277666296846073E-06   1.6644526744391512E-06
   1.7019782707647963E-06   1.7403629423328383E-06   1.7796266766452615E-06
   1.8197899362698707E-06   1.8608736703527247E-06   1.9028993264148538E-06
   1.9458888624404062E-06   1.9898647592634035E-06   2.0348500332606457E-06
   2.0808682493584027E-06   2.1279435343607422E-06   2.1761005906074476E-06
   2.2253647099699193E-06   2.2757617881933808E-06   2.3273183395940571E-06
   2.3800615121202838E-06   2.4340191027865590E-06   2.4892195734898836E-06
   2.5456920672179655E-06   2.6034664246590673E-06   2.6625732012235441E-06
   2.7230436844873587E-06   2.7849099120681406E-06   2.8482046899445401E-06
   2.9129616112300885E-06   2.9792150754127777E-06   3.0470003080720872E-06
   3.1163533810853954E-06   3.1873112333359895E-06   3.2599116919351685E-06
   3.3341934939713992E-06   3.4101963087996230E-06   3.4879607608841858E-06
   3.5675284532092814E-06   3.6489419912711770E-06   3.7322450076665318E-06
   3.8174821872919504E-06   3.9046992931698106E-06   3.9939431929163820E-06
   4.0852618858677457E-06   4.1787045308804658E-06   4.2743214748236663E-06
   4.3721642817796089E-06   4.4722857629708219E-06   4.5747400074316840E-06
   4.6795824134431360E-06   4.7868697207495802E-06   4.8966600435774987E-06
   5.0090129044758437E-06   5.1239892689985866E-06   5.2416515812508113E-06
   5.3620638003192838E-06   5.4852914376103880E-06   5.6114015951172575E-06
   5.7404630046400320E-06   5.8725460679824172E-06   6.0077228981494089E-06
   6.1460673615707537E-06   6.2876551213760573E-06   6.4325636817476403E-06
   6.5808724333779895E-06   6.7326627000593988E-06   6.8880177864342245E-06
   7.0470230269341604E-06   7.2097658359391002E-06   7.3763357591847445E-06
   7.5468245264515462E-06   7.7213261055654701E-06   7.8999367577444740E-06
   8.0827550943235546E-06   8.2698821348926982E-06   8.4614213668835975E-06
   8.6574788066402732E-06   8.8581630620114106E-06   9.0635853965017720E-06
   9.2738597950216385E-06   9.4891030312744133E-06   9.7094347368224042E-06
   9.9349774718734857E-06   1.0165856797830731E-05   1.0402201351649126E-05
   1.0644142922044639E-05   1.0891816527601083E-05   1.1145360496822582E-05
   1.1404916550179684E-05   1.1670629884198604E-05   1.1942649257645072E-05
   1.2221127079853556E-05   1.2506219501256708E-05   1.2798086506168533E-05
   1.3096892007877513E-05   1.3402803946107912E-05   1.3715994386906619E-05
   1.4036639625016869E-05   1.4364920288800425E-05   1.4701021447770755E-05
   1.5045132722803136E-05   1.5397448399086848E-05   1.5758167541888563E-05
   1.6127494115196133E-05   1.6505637103313975E-05   1.6892810635483761E-05
   1.7289234113605197E-05   1.7695132343133281E-05   1.8110735667231571E-05
   1.8536280104261126E-05   1.8972007488688998E-05   1.9418165615499304E-05
   1.9875008388194926E-05   2.0342795970478493E-05   2.0821794941702721E-05
   2.1312278456184565E-05   2.1814526406478152E-05   2.2328825590704030E-05
   2.2855469884036053E-05   2.3394760414447308E-05   2.3947005742821372E-05
   2.4512522047536471E-05   2.5091633313632067E-05   2.5684671526673034E-05
   2.6291976871424721E-05   2.6913897935460133E-05   2.7550791917818988E-05
   2.8203024842844369E-05   2.8870971779323979E-05   2.9555017065067154E-05
   3.0255554537051353E-05   3.0972987767275391E-05   3.1707730304459315E-05
   3.2460205921736684E-05   3.3230848870484157E-05   3.4020104140441208E-05
   3.4828427726274666E-05   3.5656286900744710E-05   3.6504160494637398E-05
   3.7372539183627251E-05   3.8261925782241766E-05   3.9172835545102308E-05
   4.0105796475618128E-05   4.1061349642319226E-05   4.2040049503012831E-05
   4.3042464236956974E-05   4.4069176085246794E-05   4.5120781699615257E-05
   4.6197892499854219E-05   4.7301135040067121E-05   4.8431151383968299E-05
   4.9588599489452797E-05   5.0774153602659934E-05   5.1988504661766075E-05
   5.3232360710741801E-05   5.4506447323318235E-05   5.5811508037411522E-05
   5.7148304800259965E-05   5.8517618424536741E-05   5.9920249055703668E-05
   6.1357016650882200E-05   6.2828761469520578E-05   6.4336344576144678E-05
   6.5880648355488071E-05   6.7462577040300510E-05   6.9083057252143553E-05
   7.0743038555491316E-05   7.2443494025454779E-05   7.4185420829466308E-05
   7.5969840823258178E-05   7.7797801161484038E-05   7.9670374923340042E-05
   8.1588661753543841E-05   8.3553788519049918E-05   8.5566909981877367E-05
   8.7629209488440820E-05   8.9741899675786676E-05   9.1906223195137743E-05
   9.4123453453169131E-05   9.6394895371441322E-05   9.8721886164427041E-05
   1.0110579613658431E-04   1.0354802949892867E-04   1.0605002520558068E-04
   1.0861325781076359E-04   1.1123923834674613E-04   1.1392951522323407E-04
   1.1668567514872263E-04   1.1950934407434083E-04   1.2240218816072414E-04
   1.2536591476846820E-04   1.2840227347273077E-04   1.3151305710255360E-04
   1.3470010280550480E-04   1.3796529313823825E-04   1.4131055718359238E-04
   1.4473787169486495E-04   1.4824926226790437E-04   1.5184680454168815E-04
   1.5553262542806153E-04   1.5930890437133153E-04   1.6317787463842874E-04
   1.6714182464035662E-04   1.7120309928567805E-04   1.7536410136679444E-04
   1.7962729297979352E-04   1.8399519697866586E-04   1.8847039846469539E-04
   1.9305554631186142E-04   1.9775335472909977E-04   2.0256660486029019E-04
   2.0749814642286472E-04   2.1255089938593922E-04   2.1772785568890330E-04
   2.2303208100141715E-04   2.2846671652578446E-04   2.3403498084270164E-04
   2.3974017180139132E-04   2.4558566845516556E-04   2.5157493304347653E-04
   2.5771151302154201E-04   2.6399904313865579E-04   2.7044124756631278E-04
   2.7704194207731579E-04   2.8380503627704304E-04   2.9073453588808804E-04
   2.9783454508951505E-04   3.0510926891198271E-04   3.1256301569004851E-04
   3.2020019957295026E-04   3.2802534309524104E-04   3.3604307980862895E-04
   3.4425815697645572E-04   3.5267543833223742E-04   3.6129990690374555E-04
   3.7013666790413079E-04   3.7919095169161479E-04   3.8846811679933653E-04
   3.9797365303693261E-04   4.0771318466550335E-04   4.1769247364763164E-04
   4.2791742297414729E-04   4.3839408006939902E-04   4.4912864027680139E-04
   4.6012745042646382E-04   4.7139701248678258E-04   4.8294398730185334E-04
   4.9477519841666876E-04   5.0689763599205359E-04   5.1931846081135419E-04
   5.3204500838095194E-04   5.4508479312666432E-04   5.5844551268821466E-04
   5.7213505231392737E-04   5.8616148935787841E-04   6.0053309788179782E-04
   6.1525835336399988E-04   6.3034593751776084E-04   6.4580474322151258E-04
   6.6164387956333857E-04   6.7787267700228392E-04   6.9450069264901249E-04
   7.1153771566846117E-04   7.2899377280713658E-04   7.4687913404774143E-04
   7.6520431839395976E-04   7.8398009978814952E-04   8.0321751316487881E-04
   8.2292786064319993E-04   8.4312271786065500E-04   8.6381394045207272E-04
   8.8501367067622043E-04   9.0673434419351068E-04   9.2898869699795832E-04
   9.5178977250665617E-04   9.7515092881014277E-04   9.9908584608700193E-04
   1.0236085341862270E-03   1.0487333403808104E-03   1.0744749572961820E-03
   1.1008484310171369E-03   1.1278691693769655E-03   1.1555529504325599E-03
   1.1839159311293780E-03   1.2129746561601207E-03   1.2427460670211762E-03
   1.2732475112707995E-03   1.3044967519932201E-03   1.3365119774728272E-03
   1.3693118110826713E-03   1.4029153213916635E-03   1.4373420324948194E-03
   1.4726119345710375E-03   1.5087454946729562E-03   1.5457636677534902E-03
   1.5836879079337452E-03   1.6225401800170527E-03   1.6623429712539516E-03
   1.7031193033630566E-03   1.7448927448127335E-03   1.7876874233686783E-03
   1.8315280389125180E-03   1.8764398765365616E-03   1.9224488199201053E-03
   1.9695813649924878E-03   2.0178646338884286E-03   2.0673263892010785E-03
   2.1179950485383276E-03   2.1698996993881102E-03   2.2230701142982420E-03
   2.2775367663767469E-03   2.3333308451184078E-03   2.3904842725634675E-03
   2.4490297197945418E-03   2.5090006237777043E-03   2.5704312045539304E-03
   2.6333564827870936E-03   2.6978122976746804E-03   2.7638353252276656E-03
   2.8314630969258469E-03   2.9007340187550772E-03   2.9716873906329750E-03
   3.0443634262295027E-03   3.1188032731892181E-03   3.1950490337617323E-03
   3.2731437858470997E-03   3.3531316044629776E-03   3.4350575836402269E-03
   3.5189678587539378E-03   3.6049096292966576E-03   3.6929311821008058E-03
   3.7830819150172315E-03   3.8754123610567899E-03   3.9699742130021093E-03
   4.0668203484964301E-03   4.1660048556166202E-03   4.2675830589374549E-03
   4.3716115460940615E-03   4.4781481948498302E-03   4.5872522006766359E-03
   4.6989841048544834E-03   4.8134058230977304E-03   4.9305806747145572E-03
   5.0505734123071277E-03   5.1734502520189426E-03   5.2992789043365763E-03
   5.4281286054525518E-03   5.5600701491959944E-03   5.6951759195380935E-03
   5.8335199236786818E-03   5.9751778257207495E-03   6.1202269809392260E-03
   6.2687464706503515E-03   6.4208171376879718E-03   6.5765216224928794E-03
   6.7359443998210198E-03   6.8991718160766272E-03   7.0662921272756510E-03
   7.2373955376453004E-03   7.4125742388647360E-03   7.5919224499520948E-03
   7.7755364578028160E-03   7.9635146583836754E-03   8.1559575985872112E-03
   8.3529680187504913E-03   8.5546508958420902E-03   8.7611134873209588E-03
   8.9724653756700998E-03   9.1888185136083898E-03   9.4102872699827443E-03
   9.6369884763429243E-03   9.8690414742007484E-03   1.0106568162975045E-02
   1.0349693048623198E-02   1.0598543292959891E-02   1.0853248763662771E-02
   1.1113942084964711E-02   1.1380758689031338E-02   1.1653836868022339E-02
   1.1933317826834260E-02   1.2219345736521711E-02   1.2512067788393914E-02
   1.2811634248781617E-02   1.3118198514470323E-02   1.3431917168793498E-02
   1.3752950038379541E-02   1.4081460250545475E-02   1.4417614291328627E-02
   1.4761582064148002E-02   1.5113536949085094E-02   1.5473655862773121E-02
   1.5842119318883258E-02   1.6219111489194384E-02   1.6604820265232766E-02
   1.6999437320466701E-02   1.7403158173039064E-02   1.7816182249021387E-02
   1.8238712946169647E-02   1.8670957698162464E-02   1.9113128039300129E-02
   1.9565439669641197E-02   2.0028112520553306E-02   2.0501370820651371E-02
   2.0985443162096828E-02   2.1480562567228457E-02   2.1986966555494123E-02
   2.2504897210651697E-02   2.3034601248204327E-02   2.3576330083034565E-02
   2.4130339897199607E-02   2.4696891707847494E-02   2.5276251435212862E-02
   2.5868689970647944E-02   2.6474483244642983E-02   2.7093912294788032E-02
   2.7727263333624994E-02   2.8374827816337846E-02   2.9036902508224712E-02
   2.9713789551894892E-02   3.0405796534130211E-02   3.1113236552347139E-02
   3.1836428280595193E-02   3.2575696035021709E-02   3.3331369838732923E-02
   3.4103785485976409E-02   3.4893284605567794E-02   3.5700214723481553E-02
   3.6524929324522414E-02   3.7367787912990058E-02   3.8229156072248568E-02
   3.9109405523105580E-02   4.0008914180905450E-02   4.0928066211235514E-02
   4.1867252084141257E-02   4.2826868626743834E-02   4.3807319074146644E-02
   4.4809013118517767E-02   4.5832366956226861E-02   4.6877803332914962E-02
   4.7945751586369198E-02   4.9036647687070882E-02   5.0150934276281665E-02
   5.1289060701526890E-02   5.2451483049333475E-02   5.3638664175071626E-02
   5.4851073729748456E-02   5.6089188183595359E-02   5.7353490846286111E-02
   5.8644471883618966E-02   5.9962628330491603E-02   6.1308464099990877E-02
   6.2682489988416676E-02   6.4085223676053155E-02   6.5517189723496502E-02
   6.6978919563341982E-02   6.8470951487030071E-02   6.9993830626644535E-02
   7.1548108931451013E-02   7.3134345138959930E-02   7.4753104740292495E-02
   7.6404959939621667E-02   7.8090489607459027E-02   7.9810279227547021E-02
   8.1564920837118290E-02   8.3355012960272673E-02   8.5181160534221229E-02
   8.7043974828140025E-02   8.8944073354370809E-02   9.0882079771704746E-02
   9.2858623780474006E-02   9.4874341009179131E-02   9.6929872892367513E-02
   9.9025866539481491E-02   1.0116297459438343E-01   1.0334185508526711E-01
   1.0556317126465475E-01   1.0782759143918109E-01   1.1013578878885633E-01
   1.1248844117550073E-01   1.1488623094003950E-01   1.1732984468834132E-01
   1.1981997306528404E-01   1.2235731051672569E-01   1.2494255503906092E-01
   1.2757640791603561E-01   1.3025957344249650E-01   1.3299275863474780E-01
   1.3577667292718593E-01   1.3861202785488716E-01   1.4149953672181856E-01
   1.4443991425434557E-01   1.4743387623971113E-01   1.5048213914915953E-01
   1.5358541974538628E-01   1.5674443467399310E-01   1.5995990003863228E-01
   1.6323253095953030E-01   1.6656304111508019E-01   1.6995214226620997E-01
   1.7340054376322009E-01   1.7690895203481616E-01   1.8047807005904651E-01
   1.8410859681587963E-01   1.8780122672116159E-01   1.9155664904169756E-01
   1.9537554729122902E-01   1.9925859860707174E-01   2.0320647310720968E-01
   2.0721983322764614E-01   2.1129933303983298E-01   2.1544561754801653E-01
   2.1965932196635179E-01   2.2394107097566693E-01   2.2829147795977064E-01
   2.3271114422122549E-01   2.3720065817652752E-01   2.4176059453066576E-01
   2.4639151343104992E-01   2.5109395960084008E-01   2.5586846145172232E-01
   2.6071553017622112E-01   2.6563565881966644E-01   2.7062932133195783E-01
   2.7569697159932904E-01   2.8083904245631780E-01   2.8605594467822387E-01
   2.9134806595434248E-01   2.9671576984232706E-01   3.0215939470406933E-01
   3.0767925262352530E-01   3.1327562830697181E-01   3.1894877796621768E-01
   3.2469892818534341E-01   3.3052627477160307E-01   3.3643098159115570E-01
   3.4241317939036775E-01   3.4847296460346505E-01   3.5461039814737322E-01
   3.6082550420465370E-01   3.6711826899547850E-01   3.7348863953966660E-01
   3.7993652240985393E-01   3.8646178247693164E-01   3.9306424164895731E-01
   3.9974367760479379E-01   4.0649982252381928E-01   4.1333236181309652E-01
   4.2024093283346398E-01   4.2722512362611587E-01   4.3428447164124545E-01
   4.4141846247047112E-01   4.4862652858482371E-01   4.5590804808010993E-01
   4.6326234343165551E-01   4.7068868026040689E-01   4.7818626611255083E-01
   4.8575424925490329E-01   4.9339171748835142E-01   5.0109769698186002E-01
   5.0887115112955728E-01   5.1671097943359168E-01   5.2461601641558020E-01
   5.3258503055951012E-01   5.4061672328916910E-01   5.4870972798320106E-01
   5.5686260903100027E-01   5.6507386093276524E-01   5.7334190744697955E-01
   5.8166510078868128E-01   5.9004172088176465E-01   5.9846997466843654E-01
   6.0694799547877853E-01   6.1547384246299353E-01   6.2404550008853510E-01
   6.3266087770367141E-01   6.4131780916837089E-01   6.5001405255241518E-01
   6.5874728989955622E-01   6.6751512705525129E-01   6.7631509355400532E-01
   6.8514464256070073E-01   6.9400115085855862E-01   7.0288191887447915E-01
   7.1178417073076605E-01   7.2070505431045406E-01   7.2964164132209985E-01
   7.3859092734879217E-01   7.4754983186565960E-01   7.5651519821045876E-01
   7.6548379349286444E-01   7.7445230843037527E-01   7.8341735710201910E-01
   7.9237547661559771E-01   8.0132312669009698E-01   8.1025668916177318E-01
   8.1917246743060645E-01   8.2806668587274979E-01   8.3693548925410677E-01
   8.4577494219009441E-01   8.5458102870601937E-01   8.6334965196126923E-01
   8.7207663420757153E-01   8.8075771705610295E-01   8.8938856212968576E-01
   8.9796475217328198E-01   9.0648179268832130E-01   9.1493511414344297E-01
   9.2332007479614220E-01   9.3163196413766469E-01   9.3986600694845746E-01
   9.4801736792584612E-01   9.5608115682181305E-01   9.6405243400900220E-01
   9.7192621637978316E-01   9.7969748347727392E-01   9.8736118375928117E-01
   9.9491224090531083E-01   1.0023455600916891E+00   1.0096560341783258E+00
   1.0168385497705319E+00   1.0238879931384048E+00   1.0307992559931665E+00
   1.0375672411331531E+00   1.0441868679816773E+00   1.0506530780445453E+00
   1.0569608403171513E+00   1.0631051566703273E+00   1.0690810672412654E+00
   1.0748836558515673E+00   1.0805080554693633E+00   1.0859494537270999E+00
   1.0912030985013015E+00   1.0962643035556774E+00   1.1011284542445448E+00
   1.1057910132697091E+00   1.1102475264807821E+00   1.1144936287063774E+00
   1.1185250496016090E+00   1.1223376194959569E+00   1.1259272752245435E+00
   1.1292900659253611E+00   1.1324221587848002E+00   1.1353198447138997E+00
   1.1379795439381204E+00   1.1403978114839426E+00   1.1425713425462680E+00
   1.1444969777213987E+00   1.1461717080912068E+00   1.1475926801450129E+00
   1.1487572005266282E+00   1.1496627405949456E+00   1.1503069407874202E+00
   1.1506876147766791E+00   1.1508027534114416E+00   1.1506505284337987E+00
   1.1502292959657840E+00   1.1495375997589976E+00   1.1485741742018807E+00
   1.1473379470800453E+00   1.1458280420858087E+00   1.1440437810739004E+00
   1.1419846860609890E+00   1.1396504809674448E+00   1.1370410931004413E+00
   1.1341566543781700E+00   1.1309975022956387E+00   1.1275641806331342E+00
   1.1238574399090713E+00   1.1198782375795397E+00   1.1156277379874269E+00
   1.1111073120645416E+00   1.1063185367906592E+00   1.1012631944138986E+00
   1.0959432714372597E+00   1.0903609573765798E+00   1.0845186432954690E+00
   1.0784189201231738E+00   1.0720645767615082E+00   1.0654585979872573E+00
   1.0586041621566276E+00   1.0515046387184039E+00   1.0441635855425702E+00
   1.0365847460711604E+00   1.0287720462980270E+00   1.0207295915841952E+00
   1.0124616633152201E+00   1.0039727154068385E+00   9.9526737066492743E-01
   9.8635041700540316E-01   9.7722680353945146E-01   9.6790163652890093E-01
   9.5838017521621499E-01   9.4866782753298085E-01   9.3877014569016737E-01
   9.2869282165290423E-01   9.1844168250174296E-01   9.0802268568172329E-01
   8.9744191413979479E-01   8.8670557135030037E-01   8.7581997622747376E-01
   8.6479155792304940E-01   8.5362685050707710E-01   8.4233248752238588E-01
   8.3091519642069733E-01   8.1938179286161006E-01   8.0773917487511904E-01
   7.9599431687892497E-01   7.8415426354275641E-01   7.7222612349123632E-01
   7.6021706283643264E-01   7.4813429853092683E-01   7.3598509153236669E-01
   7.2377673977067203E-01   7.1151657090988907E-01   6.9921193489777911E-01
   6.8687019629789103E-01   6.7449872640116393E-01   6.6210489511687687E-01
   6.4969606264639068E-01   6.3727957094736298E-01   6.2486273500101186E-01
   6.1245283390079253E-01   6.0005710178700633E-01   5.8768271865877098E-01
   5.7533680110206253E-01   5.6302639297987422E-01   5.5075845613823704E-01
   5.3853986118894737E-01   5.2637737843665211E-01   5.1427766902396210E-01
   5.0224727637285371E-01   4.9029261800413093E-01   4.7841997781800555E-01
   4.6663549891807138E-01   4.5494517705757920E-01   4.4335485478006420E-01
   4.3187021631602451E-01   4.2049678328209705E-01   4.0923991120831382E-01
   3.9810478689128481E-01   3.8709642653476301E-01   3.7621967459269223E-01
   3.6547920317187549E-01   3.5487951178084315E-01   3.4442492712926259E-01
   3.3411960259069529E-01   3.2396751684802516E-01   3.1397247115728116E-01
   3.0413808461076297E-01   2.9446778678037633E-01   2.8496480720792244E-01
   2.7563216141314312E-01   2.6647263343633931E-01   2.5748875542343230E-01
   2.4868278536440766E-01   2.4005668473028380E-01   2.3161209829060361E-01
   2.2335033867241938E-01   2.1527237809945607E-01   2.0737884914373375E-01
   1.9967005527806006E-01   1.9214599071376065E-01   1.8480636772662282E-01
   1.7765064871318004E-01   1.7067807979220431E-01   1.6388772292993567E-01
   1.5727848421680835E-01   1.5084913684358361E-01   1.4459833827743396E-01
   1.3852464193445863E-01   1.3262650418308994E-01   1.2690228777848198E-01
   1.2135026286667736E-01   1.1596860658227347E-01   1.1075540206747900E-01
   1.0570863752174052E-01   1.0082620568757238E-01   9.6105904009084059E-02
   9.1545435571222689E-02   8.7142410837708337E-02   8.2894350147612761E-02
   7.8798686897310039E-02   7.4852771318836650E-02   7.1053874761787733E-02
   6.7399194389298742E-02   6.3885858205974977E-02   6.0510930344882016E-02
   5.7271416550282367E-02   5.4164269801929725E-02   5.1186396035011822E-02
   4.8334659916928549E-02   4.5605890648120394E-02   4.2996887759084126E-02
   4.0504426879659973E-02   3.8125265459828486E-02   3.5856148423674801E-02
   3.3693813740067982E-02   3.1634997895044148E-02   2.9676441251985292E-02
   2.7814893286562486E-02   2.6047117684103730E-02   2.4369897287647373E-02
   2.2780038885481496E-02   2.1274377827482090E-02   1.9849782460098764E-02
   1.8503158370384288E-02   1.7231452430068541E-02   1.6031656631320366E-02
   1.4900811706545334E-02   1.3836010525330135E-02   1.2834401262453330E-02
   1.1893190331764026E-02   1.1009645081643369E-02   1.0181096248742905E-02
   9.4049401677151045E-03   8.6786407357042229E-03   7.9997311314784787E-03
   7.3658152902049343E-03   6.7745691360309775E-03   6.2237415758084804E-03
   5.7111552584650175E-03   5.2347071056915656E-03   4.7923686207350840E-03
   4.3821859831494761E-03   4.0022799383432912E-03   3.6508454916241197E-03
   3.3261514171813830E-03   3.0265395929980343E-03   2.7504241731039882E-03
   2.4962906087763336E-03   2.2626945303264416E-03   2.0482605009816534E-03
   1.8516806540911494E-03   1.6717132244985103E-03   1.5071809844699766E-03
   1.3569695940758876E-03   1.2200258754421220E-03   1.0953560198418578E-03
   9.8202373621042709E-04   8.7914834935314597E-04   7.8590285587551987E-04
   7.0151194569503502E-04   6.2524999687833263E-04   5.5643905146735137E-04
   4.9444677989455405E-04   4.3868444151631386E-04   3.8860484869758538E-04
   3.4370034174362944E-04   3.0350078178286095E-04   2.6757156845306839E-04
   2.3551168892704471E-04   2.0695180443519592E-04   1.8155238000581406E-04
   1.5900186265623202E-04   1.3901491273867690E-04   1.2133069258391741E-04
   1.0571121600435770E-04   9.1939761626444518E-05   7.9819352431349013E-05
   6.9171303300826775E-05   5.9833837801398049E-05   5.1660774901306035E-05
   4.4520285806931650E-05   3.8293720633508542E-05   3.2874504192448972E-05
   2.8167099786826602E-05   2.4086039559168339E-05   2.0555019632097935E-05
   1.7506058022054861E-05   1.4878713089074563E-05   1.2619360108795777E-05
   1.0680523415367913E-05   9.0202614627538966E-06   7.6016020845385035E-06
   6.3920251957538517E-06   5.3629901713187073E-06   4.4895051514050907E-06
   3.7497355612434995E-06   3.1246491886310538E-06   2.5976952337154888E-06
   2.1545148300736598E-06   1.7826806309139536E-06   1.4714631568085300E-06
   1.1918052604947265E-06   2.9837697659941429E-07   1.3586228660808361E-08
   0.0000000000000000E+00   0.0000000000000000E+00   0.0000000000000000E+00
   0.0000000000000000E+00   0.0000000000000000E+00   0.0000000000000000E+00
   0.0000000000000000E+00   0.0000000000000000E+00   0.0000000000000000E+00
   0.0000000000000000E+00   0.0000000000000000E+00   0.0000000000000000E+00
   0.0000000000000000E+00   0.0000000000000000E+00   0.0000000000000000E+00
   0.0000000000000000E+00   0.0000000000000000E+00   0.0000000000000000E+00
   0.0000000000000000E+00   0.0000000000000000E+00   0.0000000000000000E+00
   0.0000000000000000E+00   0.0000000000000000E+00   0.0000000000000000E+00
   0.0000000000000000E+00   0.0000000000000000E+00   0.0000000000000000E+00
   0.0000000000000000E+00   0.0000000000000000E+00   0.0000000000000000E+00
   0.0000000000000000E+00   0.0000000000000000E+00   0.0000000000000000E+00
   0.0000000000000000E+00   0.0000000000000000E+00   0.0000000000000000E+00
   0.0000000000000000E+00   0.0000000000000000E+00   0.0000000000000000E+00
   0.0000000000000000E+00   0.0000000000000000E+00   0.0000000000000000E+00
   0.0000000000000000E+00   0.0000000000000000E+00   0.0000000000000000E+00
       </PP_GIPAW_WFS_AE>
       <PP_GIPAW_WFS_PS size="1026">
   0.0000000000000000E+00   9.2565851339874384E-09   9.4909167030428702E-09
   9.7311804040195279E-09   9.9775264094955020E-09   1.0230108693739017E-08
   1.0489085128896993E-08   1.0754617583668690E-08   1.1026872024478862E-08
   1.1306018619212242E-08   1.1592231843573937E-08   1.1885690590142398E-08
   1.2186578280183179E-08   1.2495082978293128E-08   1.2811397509946867E-08
   1.3135719582019025E-08   1.3468251906357384E-08   1.3809202326484478E-08
   1.4158783947506442E-08   1.4517215269310694E-08   1.4884720323135448E-08
   1.5261528811596473E-08   1.5647876252258772E-08   1.6044004124842660E-08
   1.6450160022156396E-08   1.6866597804849822E-08   1.7293577760085442E-08
   1.7731366764226367E-08   1.8180238449642730E-08   1.8640473375740810E-08
   1.9112359204321709E-08   1.9596190879379372E-08   2.0092270811450157E-08
   2.0600909066629227E-08   2.1122423560371886E-08   2.1657140256201174E-08
   2.2205393369445492E-08   2.2767525576134135E-08   2.3343888227180934E-08
   2.3934841567989885E-08   2.4540754963620338E-08   2.5162007129652084E-08
   2.5798986368894813E-08   2.6452090814090075E-08   2.7121728676757135E-08
   2.7808318502338394E-08   2.8512289431803758E-08   2.9234081469877904E-08
   2.9974145760057266E-08   3.0732944866589452E-08   3.1510953063590891E-08
   3.2308656631483548E-08   3.3126554160935869E-08   3.3965156864498135E-08
   3.4824988896126956E-08   3.5706587678798387E-08   3.6610504240414708E-08
   3.7537303558214738E-08   3.8487564911902873E-08   3.9461882245717662E-08
   4.0460864539666228E-08   4.1485136190156562E-08   4.2535337400265189E-08
   4.3612124579885155E-08   4.4716170756003305E-08   4.5848165993363842E-08
   4.7008817825781267E-08   4.8198851698371832E-08   4.9419011420980220E-08
   5.0670059633084639E-08   5.1952778280471354E-08   5.3267969103975860E-08
   5.4616454140596977E-08   5.5999076237296480E-08   5.7416699577805646E-08
   5.8870210222768009E-08   6.0360516663556001E-08   6.1888550390107087E-08
   6.3455266473135406E-08   6.5061644161081536E-08   6.6708687492174471E-08
   6.8397425921987879E-08   7.0128914966883065E-08   7.1904236863740555E-08
   7.3724501246393397E-08   7.5590845839183664E-08   7.7504437168077053E-08
   7.9466471289779176E-08   8.1478174539309417E-08   8.3540804296499817E-08
   8.5655649771898220E-08   8.7824032812565724E-08   9.0047308728274181E-08
   9.2326867138618170E-08   9.4664132841571910E-08   9.7060566704033694E-08
   9.9517666574914942E-08   1.0203696822134333E-07   1.0462004628856713E-07
   1.0726851528415864E-07   1.0998403058713328E-07   1.1276828948261467E-07
   1.1562303222269208E-07   1.1855004311413390E-07   1.2155115163363620E-07
   1.2462823357130487E-07   1.2778321220308367E-07   1.3101805949286377E-07
   1.3433479732502396E-07   1.3773549876817335E-07   1.4122228937088487E-07
   1.4479734849023142E-07   1.4846291065395379E-07   1.5222126695711106E-07
   1.5607476649408866E-07   1.6002581782685713E-07   1.6407689049039959E-07
   1.6823051653625030E-07   1.7248929211510688E-07   1.7685587909950762E-07
   1.8133300674758540E-07   1.8592347340894220E-07   1.9063014827370455E-07
   1.9545597316585996E-07   2.0040396438198899E-07   2.0547721457654681E-07
   2.1067889469486964E-07   2.1601225595511630E-07   2.2148063188038154E-07
   2.2708744038225415E-07   2.3283618589711882E-07   2.3873046157653980E-07
   2.4477395153309302E-07   2.5097043314305371E-07   2.5732377940737375E-07
   2.6383796137242993E-07   2.7051705061205278E-07   2.7736522177238714E-07
   2.8438675518117622E-07   2.9158603952310209E-07   2.9896757458284996E-07
   3.0653597405761343E-07   3.1429596844080001E-07   3.2225240797873653E-07
   3.3041026570222378E-07   3.3877464053483673E-07   3.4735076047990801E-07
   3.5614398588819368E-07   3.6515981280825740E-07   3.7440387642167216E-07
   3.8388195456518084E-07   3.9359997134202553E-07   4.0356400082468981E-07
   4.1378027085138550E-07   4.2425516691864074E-07   4.3499523617243139E-07
   4.4600719150034801E-07   4.5729791572735434E-07   4.6887446591776511E-07
   4.8074407778612590E-07   4.9291417021975309E-07   5.0539234991576623E-07
   5.1818641613550159E-07   5.3130436557928885E-07   5.4475439738462879E-07
   5.5854491825090177E-07   5.7268454769380733E-07   5.8718212343282083E-07
   6.0204670691503247E-07   6.1728758897882140E-07   6.3291429566090813E-07
   6.4893659415040999E-07   6.6536449889362694E-07   6.8220827785336046E-07
   6.9947845892670003E-07   7.1718583652526510E-07   7.3534147832203015E-07
   7.5395673216894619E-07   7.7304323318967743E-07   7.9261291105189101E-07
   8.1267799742365135E-07   8.3325103361856007E-07   8.5434487843444328E-07
   8.7597271619046931E-07   8.9814806496772254E-07   9.2088478505839563E-07
   9.4419708762886184E-07   9.6809954360206194E-07   9.9260709276473875E-07
   1.0177350531052231E-06   1.0434991303876098E-06   1.0699154279683010E-06
   1.0970004568610420E-06   1.1247711460567700E-06   1.1532448531046994E-06
   1.1824393749612611E-06   1.2123729591136916E-06   1.2430643149852058E-06
   1.2745326256288916E-06   1.3067975597176350E-06   1.3398792838375676E-06
   1.3737984750927179E-06   1.4085763340287496E-06   1.4442345978838559E-06
   1.4807955541751080E-06   1.5182820546287268E-06   1.5567175294630062E-06
   1.5961260020327981E-06   1.6365321038447153E-06   1.6779610899524558E-06
   1.7204388547418397E-06   1.7639919481154472E-06   1.8086475920869634E-06
   1.8544336977955974E-06   1.9013788829512345E-06   1.9495124897211922E-06
   1.9988646030697702E-06   2.0494660695620657E-06   2.1013485166438064E-06
   2.1545443724092324E-06   2.2090868858694043E-06   2.2650101477335894E-06
   2.3223491117167222E-06   2.3811396163862441E-06   2.4414184075620169E-06
   2.5032231612832382E-06   2.5665925073567853E-06   2.6315660535016480E-06
   2.6981844101045953E-06   2.7664892156024976E-06   2.8365231625071799E-06
   2.9083300240891157E-06   2.9819546817365657E-06   3.0574431530073077E-06
   3.1348426203904996E-06   3.2142014607966064E-06   3.2955692757938455E-06
   3.3789969226100626E-06   3.4645365459194004E-06   3.5522416104335847E-06
   3.6421669343183105E-06   3.7343687234554512E-06   3.8289046065726500E-06
   3.9258336712621826E-06   4.0252165009115668E-06   4.1271152125690964E-06
   4.2315934957678634E-06   4.3387166523325895E-06   4.4485516371941449E-06
   4.5611671002372329E-06   4.6766334292074124E-06   4.7950227937042645E-06
   4.9164091902881951E-06   5.0408684887291000E-06   5.1684784794257214E-06
   5.2993189220254119E-06   5.4334715952746175E-06   5.5710203481312709E-06
   5.7120511521710843E-06   5.8566521553203677E-06   6.0049137369490612E-06
   6.1569285643583976E-06   6.3127916506984006E-06   6.4726004143515954E-06
   6.6364547398198061E-06   6.8044570401523048E-06   6.9767123209542278E-06
   7.1533282460151762E-06   7.3344152045992395E-06   7.5200863804382603E-06
   7.7104578224715117E-06   7.9056485173761952E-06   8.1057804639337093E-06
   8.3109787492785184E-06   8.5213716270770596E-06   8.7370905976855777E-06
   8.9582704903370663E-06   9.1850495474085117E-06   9.4175695108212806E-06
   9.6559757106285066E-06   9.9004171558447864E-06   1.0151046627575270E-05
   1.0408020774501750E-05   1.0671500210786074E-05   1.0941649616451578E-05
   1.1218637840305413E-05   1.1502638005466228E-05   1.1793827617562744E-05
   1.2092388675671450E-05   1.2398507786062021E-05   1.2712376278822053E-05
   1.3034190327433907E-05   1.3364151071378002E-05   1.3702464741839695E-05
   1.4049342790597906E-05   1.4405002022176126E-05   1.4769664729338536E-05
   1.5143558832015490E-05   1.5526918019745654E-05   1.5919981897723459E-05
   1.6322996136543089E-05   1.6736212625732966E-05   1.7159889631175980E-05
   1.7594291956514548E-05   1.8039691108640712E-05   1.8496365467375008E-05
   1.8964600459440155E-05   1.9444688736837916E-05   1.9936930359740786E-05
   2.0441632984012979E-05   2.0959112053477137E-05   2.1489690997047955E-05
   2.2033701430854569E-05   2.2591483365479229E-05   2.3163385418440688E-05
   2.3749765032055625E-05   2.4350988696814241E-05   2.4967432180408770E-05
   2.5599480762558988E-05   2.6247529475780865E-05   2.6911983352248456E-05
   2.7593257676904053E-05   2.8291778246973505E-05   2.9007981638050213E-05
   2.9742315476912400E-05   3.0495238721245884E-05   3.1267221946444686E-05
   3.2058747639671096E-05   3.2870310501356860E-05   3.3702417754334892E-05
   3.4555589460794361E-05   3.5430358847256114E-05   3.6327272637773150E-05
   3.7246891395562461E-05   3.8189789873282466E-05   3.9156557372175062E-05
   4.0147798110294874E-05   4.1164131600057912E-05   4.2206193035343727E-05
   4.3274633688392720E-05   4.4370121316747857E-05   4.5493340580492668E-05
   4.6644993470047956E-05   4.7825799744793410E-05   4.9036497382786978E-05
   5.0277843041865673E-05   5.1550612532410833E-05   5.2855601302078077E-05
   5.4193624932791091E-05   5.5565519650310040E-05   5.6972142846694430E-05
   5.8414373615982763E-05   5.9893113303427659E-05   6.1409286068625732E-05
   6.2963839462895261E-05   6.4557745021262130E-05   6.6191998869421167E-05
   6.7867622346054715E-05   6.9585662640894919E-05   7.1347193448926806E-05
   7.3153315641143142E-05   7.5005157952265922E-05   7.6903877685866753E-05
   7.8850661437323646E-05   8.0846725835065681E-05   8.2893318300569517E-05
   8.4991717827577395E-05   8.7143235781027558E-05   8.9349216716192912E-05
   9.1611039218536419E-05   9.3930116764813303E-05   9.6307898605947002E-05
   9.8745870672240459E-05   1.0124555650147756E-04   1.0380851819049913E-04
   1.0643635737084362E-04   1.0913071620906153E-04   1.1189327843232604E-04
   1.1472577037998148E-04   1.1762996208167975E-04   1.2060766836278358E-04
   1.2366074997771672E-04   1.2679111477197422E-04   1.3000071887351436E-04
   1.3329156791427031E-04   1.3666571828254882E-04   1.4012527840709084E-04
   1.4367241007359478E-04   1.4730932977452321E-04   1.5103831009303140E-04
   1.5486168112188145E-04   1.5878183191822244E-04   1.6280121199514154E-04
   1.6692233285091988E-04   1.7114776953693607E-04   1.7548016226519850E-04
   1.7992221805650778E-04   1.8447671243026413E-04   1.8914649113698547E-04
   1.9393447193459990E-04   1.9884364640962630E-04   2.0387708184436976E-04
   2.0903792313129176E-04   2.1432939473575212E-04   2.1975480270832988E-04
   2.2531753674798674E-04   2.3102107231734410E-04   2.3686897281139049E-04
   2.4286489178097136E-04   2.4901257521243097E-04   2.5531586386483090E-04
   2.6177869566619441E-04   2.6840510817025242E-04   2.7519924107523373E-04
   2.8216533880624800E-04   2.8930775316286236E-04   2.9663094603353031E-04
   3.0413949217852519E-04   3.1183808208313721E-04   3.1973152488287508E-04
   3.2782475136249744E-04   3.3612281703073311E-04   3.4463090527258071E-04
   3.5335433058115642E-04   3.6229854187107583E-04   3.7146912587542811E-04
   3.8087181062844503E-04   3.9051246903600570E-04   4.0039712253620176E-04
   4.1053194485221644E-04   4.2092326583983199E-04   4.3157757543195745E-04
   4.4250152768258950E-04   4.5370194491272932E-04   4.6518582196079219E-04
   4.7696033054014171E-04   4.8903282370644694E-04   5.0141084043757922E-04
   5.1410211032892677E-04   5.2711455840696896E-04   5.4045631006410300E-04
   5.5413569611776237E-04   5.6816125799691156E-04   5.8254175305914944E-04
   5.9728616004165293E-04   6.1240368464933850E-04   6.2790376528366160E-04
   6.4379607891556579E-04   6.6009054710620659E-04   6.7679734217912524E-04
   6.9392689354766770E-04   7.1148989420152580E-04   7.2949730735636276E-04
   7.4796037327061970E-04   7.6689061623365015E-04   7.8629985172946751E-04
   8.0620019378049553E-04   8.2660406247577714E-04   8.4752419168827539E-04
   8.6897363698595778E-04   8.9096578374148173E-04   9.1351435544545002E-04
   9.3663342222825624E-04   9.6033740959576032E-04   9.8464110738406439E-04
   1.0095596789388586E-03   1.0351086705248987E-03   1.0613040209713322E-03
   1.0881620715587166E-03   1.1156995761537405E-03   1.1439337115977516E-03
   1.1728820883554170E-03   1.2025627614299140E-03   1.2329942415512734E-03
   1.2641955066446206E-03   1.2961860135852102E-03   1.3289857102473756E-03
   1.3626150478545792E-03   1.3970949936380746E-03   1.4324470438117011E-03
   1.4686932368706406E-03   1.5058561672221195E-03   1.5439589991561450E-03
   1.5830254811647190E-03   1.6230799606180332E-03   1.6641473988063915E-03
   1.7062533863568738E-03   1.7494241590338396E-03   1.7936866139327378E-03
   1.8390683260768020E-03   1.8855975654264363E-03   1.9333033143114410E-03
   1.9822152852962921E-03   2.0323639394890722E-03   2.0837805053048647E-03
   2.1364969976945414E-03   2.1905462378504158E-03   2.2459618734001164E-03
   2.3027783991006849E-03   2.3610311780448852E-03   2.4207564633921133E-03
   2.4819914206366087E-03   2.5447741504258641E-03   2.6091437119424624E-03
   2.6751401468629540E-03   2.7428045039075239E-03   2.8121788639946799E-03
   2.8833063660153773E-03   2.9562312332413990E-03   3.0309988003831491E-03
   3.1076555413122463E-03   3.1862490974648126E-03   3.2668283069414998E-03
   3.3494432343208541E-03   3.4341452012028452E-03   3.5209868174997322E-03
   3.6100220134920079E-03   3.7013060726672326E-03   3.7948956653602443E-03
   3.8908488832134617E-03   3.9892252744764259E-03   4.0900858801641224E-03
   4.1934932710940955E-03   4.2995115858226567E-03   4.4082065695010830E-03
   4.5196456136729433E-03   4.6338977970342777E-03   4.7510339271786758E-03
   4.8711265833497894E-03   4.9942501602243490E-03   5.1204809127490302E-03
   5.2498970020551511E-03   5.3825785424754698E-03   5.5186076496879909E-03
   5.6580684900121520E-03   5.8010473308829349E-03   5.9476325925295129E-03
   6.0979149008847985E-03   6.2519871417534897E-03   6.4099445162660610E-03
   6.5718845976471220E-03   6.7379073893266894E-03   6.9081153844236919E-03
   7.0826136266313507E-03   7.2615097725347464E-03   7.4449141553910806E-03
   7.6329398504040441E-03   7.8257027415237941E-03   8.0233215898048212E-03
   8.2259181033543880E-03   8.4336170089046227E-03   8.6465461250420095E-03
   8.8648364371282252E-03   9.0886221739470072E-03   9.3180408861121694E-03
   9.5532335262719752E-03   9.7943445311461652E-03   1.0041521905431595E-02
   1.0294917307613559E-02   1.0554686137719831E-02   1.0820987627054949E-02
   1.1093984929952724E-02   1.1373845217585147E-02   1.1660739773866335E-02
   1.1954844093490452E-02   1.2256337982142547E-02   1.2565405658921957E-02
   1.2882235861017687E-02   1.3207021950675609E-02   1.3539962024497506E-02
   1.3881259025111845E-02   1.4231120855256567E-02   1.4589760494313696E-02
   1.4957396117336152E-02   1.5334251216606698E-02   1.5720554725768752E-02
   1.6116541146568811E-02   1.6522450678249832E-02   1.6938529349634746E-02
   1.7365029153938467E-02   1.7802208186346952E-02   1.8250330784400515E-02
   1.8709667671218472E-02   1.9180496101601368E-02   1.9663100011045858E-02
   2.0157770167706937E-02   2.0664804327340358E-02   2.1184507391257521E-02
   2.1717191567323480E-02   2.2263176534027412E-02   2.2822789607653059E-02
   2.3396365912575066E-02   2.3984248554704823E-02   2.4586788798108362E-02
   2.5204346244814740E-02   2.5837289017833096E-02   2.6485993947391699E-02
   2.7150846760410914E-02   2.7832242273218545E-02   2.8530584587511596E-02
   2.9246287289566918E-02   2.9979773652696981E-02   3.0731476842944323E-02
   3.1501840128003548E-02   3.2291317089354413E-02   3.3100371837584734E-02
   3.3929479230876310E-02   3.4779125096621046E-02   3.5649806456128662E-02
   3.6542031752379987E-02   3.7456321080773319E-02   3.8393206422803756E-02
   3.9353231882606213E-02   4.0336953926287042E-02   4.1344941623956369E-02
   4.2377776894366982E-02   4.3436054752054046E-02   4.4520383556857515E-02
   4.5631385265701936E-02   4.6769695686490607E-02   4.7935964733964054E-02
   4.9130856687354021E-02   5.0355050449653403E-02   5.1609239808306513E-02
   5.2894133697106577E-02   5.4210456459073332E-02   5.5558948110062643E-02
   5.6940364602843824E-02   5.8355478091360206E-02   5.9805077194865074E-02
   6.1289967261608035E-02   6.2810970631719226E-02   6.4368926898915435E-02
   6.5964693170631347E-02   6.7599144326143779E-02   6.9273173272236963E-02
   7.0987691195922686E-02   7.2743627813697573E-02   7.4541931616792304E-02
   7.6383570111824825E-02   7.8269530056244332E-02   8.0200817687905712E-02
   8.2178458948078181E-02   8.4203499697158152E-02   8.6277005922295355E-02
   8.8400063936115381E-02   9.0573780565667228E-02   9.2799283330663826E-02
   9.5077720610058258E-02   9.7410261795914249E-02   9.9798097433494465E-02
   1.0224243934643057E-01   1.0474452074575832E-01   1.0730559632156768E-01
   1.0992694231592429E-01   1.1260985657566190E-01   1.1535565858358401E-01
   1.1816568946650834E-01   1.2104131197854646E-01   1.2398391045790363E-01
   1.2699489075540660E-01   1.3007568013289797E-01   1.3322772712951197E-01
   1.3645250139378823E-01   1.3975149347946214E-01   1.4312621460267405E-01
   1.4657819635824998E-01   1.5010899039257716E-01   1.5372016803051305E-01
   1.5741331985363083E-01   1.6119005522700841E-01   1.6505200177163207E-01
   1.6900080477937340E-01   1.7303812656736611E-01   1.7716564576848590E-01
   1.8138505655449488E-01   1.8569806778829148E-01   1.9010640210154900E-01
   1.9461179489391114E-01   1.9921599324973741E-01   2.0392075476827873E-01
   2.0872784630299590E-01   2.1363904260557973E-01   2.1865612487011823E-01
   2.2378087917264369E-01   2.2901509480120175E-01   2.3436056247140086E-01
   2.3981907242223566E-01   2.4539241238688356E-01   2.5108236543294621E-01
   2.5689070766652822E-01   2.6281920579438106E-01   2.6886961453816471E-01
   2.7504367389482409E-01   2.8134310623685915E-01   2.8776961324620748E-01
   2.9432487267534624E-01   3.0101053492905272E-01   3.0782821946026601E-01
   3.1477951097333112E-01   3.2186595542786905E-01   3.2908905583651504E-01
   3.3645026784962728E-01   3.4395099512018001E-01   3.5159258444197783E-01
   3.5937632065438968E-01   3.6730342130690208E-01   3.7537503107680492E-01
   3.8359221593353404E-01   3.9195595704329411E-01   4.0046714440781406E-01
   4.0912657023133903E-01   4.1793492201022220E-01   4.2689277533984765E-01
   4.3600058643401390E-01   4.4525868435231569E-01   4.5466726293165127E-01
   4.6422637241850107E-01   4.7393591079931696E-01   4.8379561482709221E-01
   4.9380505074298631E-01   5.0396360469281654E-01   5.1427047283919425E-01
   5.2472465117123734E-01   5.3532492501493401E-01   5.4606985824863674E-01
   5.5695778222954984E-01   5.6798678443865569E-01   5.7915469685328391E-01
   5.9045908405826364E-01   6.0189723110870330E-01   6.1346613115951554E-01
   6.2516247287910931E-01   6.3698262766719660E-01   6.4892263669920236E-01
   6.6097819782267619E-01   6.7314465233407306E-01   6.8541697166739657E-01
   6.9778974402970240E-01   7.1025716102189551E-01   7.2281300428710604E-01
   7.3545063223293183E-01   7.4816296687785688E-01   7.6094248087673177E-01
   7.7378118478457580E-01   7.8667061462281562E-01   7.9960181981706080E-01
   8.1256535158046561E-01   8.2555125182223266E-01   8.3854904266607488E-01
   8.5154771666911044E-01   8.6453572783738331E-01   8.7750098353988404E-01
   8.9043083742891982E-01   9.0331208348050041E-01   9.1613095127427524E-01
   9.2887310263848666E-01   9.4152362979105630E-01   9.5406705511361389E-01
   9.6648733270066578E-01   9.7876785183122339E-01   9.9089144251511796E-01
   1.0028403832705397E+00   1.0145964112933183E+00   1.0261407351817742E+00
   1.0374540503835807E+00   1.0485165575329660E+00   1.0593079838474651E+00
   1.0698076077533663E+00   1.0799942869076757E+00   1.0898464897819247E+00
   1.0993423309690062E+00   1.1084596103687094E+00   1.1171758564001515E+00
   1.1254683733800048E+00   1.1333142931940599E+00   1.1406906313759300E+00
   1.1475743476906586E+00   1.1539424113023022E+00   1.1597718705830673E+00
   1.1650399275973113E+00   1.1697240172661600E+00   1.1738018911877643E+00
   1.1772517060541594E+00   1.1800521165681435E+00   1.1821823727226126E+00
   1.1836224212601192E+00   1.1843530110822680E+00   1.1843558023267324E+00
   1.1836134787744022E+00   1.1821098631905211E+00   1.1798300351417748E+00
   1.1767604507665228E+00   1.1728890639079126E+00   1.1682054479499828E+00
   1.1627009176255056E+00   1.1563686499918233E+00   1.1492038036980314E+00
   1.1412036355942574E+00   1.1323676136625520E+00   1.1226975251798905E+00
   1.1121975789582679E+00   1.1008745004460714E+00   1.0887376184201756E+00
   1.0757989419511473E+00   1.0620732262859756E+00   1.0475780262658301E+00
   1.0323337358819149E+00   1.0163636125727920E+00   9.9969378488309735E-01
   9.8235324213845299E-01   9.6437380484653745E-01   9.4579007461116127E-01
   9.2663936244701328E-01   9.0696159450861713E-01   8.8679919439934596E-01
   8.6619694140656012E-01   8.4520180421694358E-01   8.2386274990309705E-01
   8.0223052823763619E-01   7.8035743168360538E-01   7.5829703172929319E-01
   7.3610389257832365E-01   7.1383326357026045E-01   6.9154075208891697E-01
   6.6928197910999176E-01   6.4711221994232826E-01   6.2508603312023292E-01
   6.0325688080169859E-01   5.8167674441081607E-01   5.6039573962262790E-01
   5.3946173511700213E-01   5.1891997981368798E-01   4.9881274353425231E-01
   4.7917897620788646E-01   4.6005399083695125E-01   4.4146917545612746E-01
   4.2345173924776519E-01   4.0602449780885630E-01   3.8920570229802842E-01
   3.7300891682082871E-01   3.5744294793984183E-01   3.4251182962592541E-01
   3.2821486630528940E-01   3.1454673591536908E-01   3.0149765407438117E-01
   2.8905359961352733E-01   2.7719660083773312E-01   2.6590508099420207E-01
   2.5515426056268103E-01   2.4491661316203614E-01   2.3516237111761742E-01
   2.2586007607238465E-01   2.1697716946523535E-01   2.0848061724723913E-01
   2.0033756285411891E-01   1.9251600218114229E-01   1.8498547407760263E-01
   1.7771775963650507E-01   1.7068758324554292E-01   1.6387330815968318E-01
   1.5725761789363857E-01   1.5082817246358868E-01   1.4457817584866825E-01
   1.3850526257702195E-01   1.3260788618142794E-01   1.2688441017033364E-01
   1.2133310492475477E-01   1.1595214781692173E-01   1.1073962223567747E-01
   1.0569351663615767E-01   1.0081172402531867E-01   9.6092042119957796E-02
   9.1532174285352652E-02   8.7129731272568470E-02   8.2882233714428696E-02
   7.8787115306899289E-02   7.4841726586933624E-02   7.1043339213905113E-02
   6.7389150665171593E-02   6.3876289263627442E-02   6.0501819464348468E-02
   5.7262747337006703E-02   5.4156026189860276E-02   5.1178562289403165E-02
   4.8327220636856551E-02   4.5598830768713010E-02   4.2990192553467581E-02
   4.0498081960617945E-02   3.8119256781170140E-02   3.5850462281306984E-02
   3.3688436772766249E-02   3.1629917084917414E-02   2.9671643924628975E-02
   2.7810367110895681E-02   2.6042850671886376E-02   2.4365877792674587E-02
   2.2776255602452573E-02   2.1270819790543242E-02   1.9846439041059233E-02
   1.8500019276606831E-02   1.7228507702036492E-02   1.6028896639884022E-02
   1.4898227149852332E-02   1.3833592425445058E-02   1.2832140961673084E-02
   1.1891079488636659E-02   1.1007675666698993E-02   1.0179260539946446E-02
   9.4032307456516605E-03   8.6770504785085596E-03   7.9982532095212947E-03
   7.3644431605490515E-03   6.7732965366714502E-03   6.2225625197112212E-03
   5.7100640274188970E-03   5.2336982439894529E-03   4.7914369286995153E-03
   4.3813265105188039E-03   4.0014879775342798E-03   3.6501165708869689E-03
   3.3254812936630452E-03   3.0259242457296733E-03   2.7498597959281783E-03
   2.4957736032295542E-03   2.2622214984921391E-03   2.0478282383290546E-03
   1.8512861423147858E-03   1.6713536243732562E-03   1.5068536287362083E-03
   1.3566719803691492E-03   1.2197556592814646E-03   1.0951110076906920E-03
   9.8180187862341537E-04   8.7894773422222299E-04   7.8572170178765693E-04
   7.0134859541379278E-04   6.2510291096061119E-04   5.5630680202603284E-04
   4.9432804451694768E-04   4.3857799734747940E-04   3.8850956669669715E-04
   3.4361518112062601E-04   3.0342478462163931E-04   2.6750385452650022E-04
   2.3545145070808429E-04   2.0689830230735239E-04   1.8150493767527076E-04
   1.5895986276692132E-04   1.3897779269068122E-04   1.2129794055465518E-04
   1.0568236717115606E-04   9.1914394588278462E-05   7.9797085826770585E-05
   6.9151792618399045E-05   5.9816772378305246E-05   5.1645875105225830E-05
   4.4507300395732804E-05   3.8282424286875128E-05   3.2864695209129084E-05
   2.8158597940856476E-05   2.4078684108128089E-05   2.0548667470206978E-05
   1.7500581970707379E-05   1.4874000317239562E-05   1.2615310675553392E-05
   1.0677048926711164E-05   9.0172838346391317E-06   7.5990524040020629E-06
   6.3898426717045786E-06   5.3611211663416288E-06   4.4879022855377562E-06
   3.7483568781730218E-06   3.1234573740554493E-06   2.5966568746515582E-06
   2.1535997025901300E-06   1.7818610020136483E-06   1.4707130843941558E-06
   1.2109163230254010E-06   9.9453251223331412E-07   8.1475872274756618E-07
   6.6577980135736367E-07   5.4263777946826981E-07   4.4111657071110488E-07
   3.5764045120749577E-07   2.8918492676714554E-07   2.3319869860471867E-07
   1.8753554251019764E-07   1.5039501540302015E-07   1.2027099752704766E-07
   9.5907167940445657E-08   7.6258595262819442E-08   6.0458704762406756E-08
   4.7790956763531275E-08   3.7664640049083572E-08   2.9594247496989891E-08
   2.3181959730424538E-08   1.8102816238897604E-08   1.4092202420200324E-08
   1.0935325502451015E-08   8.4583925719554155E-09   6.5212401910453602E-09
   5.0111975971066391E-09   3.8379944886652856E-09   2.9295501875555191E-09
   2.2285037768948581E-09   1.6893649070347262E-09   1.2761825816193683E-09
   9.6064461968194327E-10   7.2053386407544528E-10   5.3847877931974572E-10
   4.0094605533861740E-10   2.9743138880732463E-10   2.1981192085060744E-10
   1.6183002309004364E-10   1.1868338385799233E-10   8.6700779298033665E-11
   6.3086633402928284E-11   4.5720577734304762E-11   3.3000804658214924E-11
   2.3722146459473515E-11   1.6981574455629111E-11   1.2105257545368451E-11
   8.5924995937221254E-12   6.0728340263143601E-12   4.2733297319855958E-12
       </PP_GIPAW_WFS_PS>
     </PP_GIPAW_ORBITAL.2>
     <PP_GIPAW_ORBITAL.3 index="3" label="3S" l="0" cutoff_radius="  1.87401139646807" ultrasoft_cutoff_radius="  1.87401139646807">
       <PP_GIPAW_WFS_AE size="1026">
   0.0000000000000000E+00   1.9459739557231337E-04   1.9703566265327828E-04
   1.9950443876045069E-04   2.0200410000905013E-04   2.0453503268314427E-04
   2.0709762785120099E-04   2.0969228152108976E-04   2.1231939464108968E-04
   2.1497937315885000E-04   2.1767262808344606E-04   2.2039957554841516E-04
   2.2316063687543924E-04   2.2595623863878189E-04   2.2878681273051342E-04
   2.3165279642653813E-04   2.3455463245343017E-04   2.3749276905609120E-04
   2.4046766006623603E-04   2.4347976497171887E-04   2.4652954898670917E-04
   2.4961748312272758E-04   2.5274404426055204E-04   2.5590971522300432E-04
   2.5911498484862801E-04   2.6236034806626857E-04   2.6564630597056515E-04
   2.6897336589836688E-04   2.7234204150608347E-04   2.7575285284798135E-04
   2.7920632645543663E-04   2.8270299541715725E-04   2.8624339946038436E-04
   2.8982808503308583E-04   2.9345760538715285E-04   2.9713252066261244E-04
   3.0085339797286724E-04   3.0462081149097470E-04   3.0843534253697879E-04
   3.1229757966630645E-04   3.1620811875924127E-04   3.2016756311148642E-04
   3.2417652352583121E-04   3.2823561840493394E-04   3.3234547384523367E-04
   3.3650672373200372E-04   3.4072000983556322E-04   3.4498598190865683E-04
   3.4930529778501844E-04   3.5367862347913302E-04   3.5810663328720899E-04
   3.6259000988937804E-04   3.6712944445313375E-04   3.7172563673802667E-04
   3.7637929520162701E-04   3.8109113710677500E-04   3.8586188863012769E-04
   3.9069228497202221E-04   3.9558307046766927E-04   4.0053499869969198E-04
   4.0554883261202684E-04   4.1062534462520128E-04   4.1576531675300394E-04
   4.2096954072056732E-04   4.2623881808387322E-04   4.3157396035070243E-04
   4.3697578910304363E-04   4.4244513612097769E-04   4.4798284350805565E-04
   4.5358976381818704E-04   4.5926676018405742E-04   4.6501470644708760E-04
   4.7083448728896070E-04   4.7672699836472879E-04   4.8269314643751594E-04
   4.8873384951484376E-04   4.9485003698659133E-04   5.0104264976460740E-04
   5.0731264042400061E-04   5.1366097334612027E-04   5.2008862486324864E-04
   5.2659658340502746E-04   5.3318584964663293E-04   5.3985743665872310E-04
   5.4661237005917691E-04   5.5345168816664330E-04   5.6037644215592387E-04
   5.6738769621520477E-04   5.7448652770516616E-04   5.8167402731998331E-04
   5.8895129925024209E-04   5.9631946134779525E-04   6.0377964529257353E-04
   6.1133299676137897E-04   6.1898067559868159E-04   6.2672385598943746E-04
   6.3456372663395894E-04   6.4250149092484783E-04   6.5053836712603138E-04
   6.5867558855390240E-04   6.6691440376060818E-04   6.7525607671949507E-04
   6.8370188701274601E-04   6.9225313002122164E-04   7.0091111711653980E-04
   7.0967717585541511E-04   7.1855265017627676E-04   7.2753890059820009E-04
   7.3663730442216689E-04   7.4584925593468895E-04   7.5517616661380899E-04
   7.6461946533751680E-04   7.7418059859459822E-04   7.8386103069794653E-04
   7.9366224400035886E-04   8.0358573911285317E-04   8.1363303512551623E-04
   8.2380566983093219E-04   8.3410519995019336E-04   8.4453320136154404E-04
   8.5509126933166785E-04   8.6578101874965573E-04   8.7660408436368066E-04
   8.8756212102040284E-04   8.9865680390714187E-04   9.0988982879683887E-04
   9.2126291229583605E-04   9.3277779209451084E-04   9.4443622722078125E-04
   9.5623999829652878E-04   9.6819090779695020E-04   9.8029078031288308E-04
   9.9254146281612223E-04   1.0049448249277771E-03   1.0175027591896723E-03
   1.0302171813388473E-03   1.0430900305851733E-03   1.0561232698921244E-03
   1.0693188862607238E-03   1.0826788910167163E-03   1.0962053201009729E-03
   1.1099002343631854E-03   1.1237657198588595E-03   1.1378038881496603E-03
   1.1520168766071240E-03   1.1664068487197811E-03   1.1809759944037155E-03
   1.1957265303165995E-03   1.2106607001752330E-03   1.2257807750766176E-03
   1.2410890538226106E-03   1.2565878632481767E-03   1.2722795585532790E-03
   1.2881665236384524E-03   1.3042511714440692E-03   1.3205359442933580E-03
   1.3370233142391886E-03   1.3537157834146701E-03   1.3706158843875904E-03
   1.3877261805187373E-03   1.4050492663241255E-03   1.4225877678411749E-03
   1.4403443429988688E-03   1.4583216819919291E-03   1.4765225076590421E-03
   1.4949495758651678E-03   1.5136056758879783E-03   1.5324936308084352E-03
   1.5516162979055787E-03   1.5709765690555290E-03   1.5905773711347426E-03
   1.6104216664275860E-03   1.6305124530382182E-03   1.6508527653068459E-03
   1.6714456742303830E-03   1.6922942878875404E-03   1.7134017518683872E-03
   1.7347712497084158E-03   1.7564060033271474E-03   1.7783092734713055E-03
   1.8004843601626098E-03   1.8229346031501932E-03   1.8456633823677173E-03
   1.8686741183951759E-03   1.8919702729254591E-03   1.9155553492356827E-03
   1.9394328926633370E-03   1.9636064910872747E-03   1.9880797754135747E-03
   2.0128564200663154E-03   2.0379401434832863E-03   2.0633347086166857E-03
   2.0890439234387968E-03   2.1150716414527248E-03   2.1414217622081921E-03
   2.1680982318224226E-03   2.1951050435061632E-03   2.2224462380948497E-03
   2.2501259045849768E-03   2.2781481806756591E-03   2.3065172533154547E-03
   2.3352373592544404E-03   2.3643127856015954E-03   2.3937478703875002E-03
   2.4235470031323848E-03   2.4537146254195517E-03   2.4842552314741934E-03
   2.5151733687476287E-03   2.5464736385069821E-03   2.5781606964303300E-03
   2.6102392532073274E-03   2.6427140751453461E-03   2.6755899847811298E-03
   2.7088718614979921E-03   2.7425646421485781E-03   2.7766733216832104E-03
   2.8112029537837916E-03   2.8461586515033492E-03   2.8815455879111717E-03
   2.9173689967435862E-03   2.9536341730603578E-03   2.9903464739067572E-03
   3.0275113189812625E-03   3.0651341913089112E-03   3.1032206379203553E-03
   3.1417762705365383E-03   3.1808067662590662E-03   3.2203178682662257E-03
   3.2603153865146798E-03   3.3008051984468288E-03   3.3417932497037920E-03
   3.3832855548440823E-03   3.4252881980678706E-03   3.4678073339468977E-03
   3.5108491881599996E-03   3.5544200582342104E-03   3.5985263142914430E-03
   3.6431743998007228E-03   3.6883708323359582E-03   3.7341222043391965E-03
   3.7804351838893815E-03   3.8273165154765125E-03   3.8747730207812480E-03
   3.9228115994598706E-03   3.9714392299345690E-03   4.0206629701890189E-03
   4.0704899585692136E-03   4.1209274145894521E-03   4.1719826397435137E-03
   4.2236630183208751E-03   4.2759760182279616E-03   4.3289291918143557E-03
   4.3825301767039032E-03   4.4367866966306211E-03   4.4917065622793522E-03
   4.5472976721311047E-03   4.6035680133129303E-03   4.6605256624523026E-03
   4.7181787865359353E-03   4.7765356437728312E-03   4.8356045844615610E-03
   4.8953940518616451E-03   4.9559125830688534E-03   5.0171688098944378E-03
   5.0791714597480213E-03   5.1419293565241270E-03   5.2054514214921951E-03
   5.2697466741898720E-03   5.3348242333195123E-03   5.4006933176477126E-03
   5.4673632469076699E-03   5.5348434427043092E-03   5.6031434294218424E-03
   5.6722728351337555E-03   5.7422413925149072E-03   5.8130589397555948E-03
   5.8847354214773976E-03   5.9572808896505326E-03   6.0307055045125870E-03
   6.1050195354883019E-03   6.1802333621102535E-03   6.2563574749401711E-03
   6.3334024764905555E-03   6.4113790821465179E-03   6.4902981210873262E-03
   6.5701705372075989E-03   6.6510073900377239E-03   6.7328198556632201E-03
   6.8156192276427980E-03   6.8994169179246896E-03   6.9842244577609895E-03
   7.0700534986196739E-03   7.1569158130938325E-03   7.2448232958078930E-03
   7.3337879643203385E-03   7.4238219600225707E-03   7.5149375490335445E-03
   7.6071471230896599E-03   7.7004632004295847E-03   7.7948984266734836E-03
   7.8904655756962400E-03   7.9871775504941466E-03   8.0850473840446274E-03
   8.1840882401584304E-03   8.2843134143238233E-03   8.3857363345421886E-03
   8.4883705621545506E-03   8.5922297926583312E-03   8.6973278565139044E-03
   8.8036787199402208E-03   8.9112964856988951E-03   9.0201953938661983E-03
   9.1303898225921602E-03   9.2418942888461870E-03   9.3547234491485037E-03
   9.4688921002865686E-03   9.5844151800159750E-03   9.7013077677446744E-03
   9.8195850852001929E-03   9.9392624970786724E-03   1.0060355511675058E-02
   1.0182879781493575E-02   1.0306851103837536E-02   1.0432285421377701E-02
   1.0559198822698091E-02   1.0687607542818498E-02   1.0817527963692458E-02
   1.0948976614679945E-02   1.1081970172993512E-02   1.1216525464117005E-02
   1.1352659462195653E-02   1.1490389290396317E-02   1.1629732221236979E-02
   1.1770705676884081E-02   1.1913327229416579E-02   1.2057614601055484E-02
   1.2203585664357489E-02   1.2351258442371504E-02   1.2500651108756764E-02
   1.2651781987860827E-02   1.2804669554756542E-02   1.2959332435236021E-02
   1.3115789405760466E-02   1.3274059393364162E-02   1.3434161475511068E-02
   1.3596114879902525E-02   1.3759938984234140E-02   1.3925653315900491E-02
   1.4093277551645684E-02   1.4262831517158054E-02   1.4434335186607285E-02
   1.4607808682121720E-02   1.4783272273204490E-02   1.4960746376086055E-02
   1.5140251553011304E-02   1.5321808511459270E-02   1.5505438103293035E-02
   1.5691161323838021E-02   1.5878999310886332E-02   1.6068973343624671E-02
   1.6261104841483943E-02   1.6455415362907642E-02   1.6651926604037175E-02
   1.6850660397311198E-02   1.7051638709976530E-02   1.7254883642508351E-02
   1.7460417426936388E-02   1.7668262425075063E-02   1.7878441126654491E-02
   1.8090976147349305E-02   1.8305890226702950E-02   1.8523206225943736E-02
   1.8742947125690423E-02   1.8965136023543529E-02   1.9189796131559689E-02
   1.9416950773605553E-02   1.9646623382588033E-02   1.9878837497557329E-02
   2.0113616760679843E-02   2.0350984914076484E-02   2.0590965796523863E-02
   2.0833583340013805E-02   2.1078861566167964E-02   2.1326824582503592E-02
   2.1577496578546296E-02   2.1830901821786264E-02   2.2087064653473459E-02
   2.2346009484247843E-02   2.2607760789600442E-02   2.2872343105160724E-02
   2.3139781021806236E-02   2.3410099180589530E-02   2.3683322267478258E-02
   2.3959475007903613E-02   2.4238582161112160E-02   2.4520668514316595E-02
   2.4805758876640324E-02   2.5093878072850490E-02   2.5385050936875170E-02
   2.5679302305098545E-02   2.5976657009429652E-02   2.6277139870138608E-02
   2.6580775688455141E-02   2.6887589238924023E-02   2.7197605261511121E-02
   2.7510848453455094E-02   2.7827343460858151E-02   2.8147114870010075E-02
   2.8470187198439995E-02   2.8796584885688724E-02   2.9126332283796186E-02
   2.9459453647497569E-02   2.9795973124120800E-02   3.0135914743180059E-02
   3.0479302405657778E-02   3.0826159872968519E-02   3.1176510755598290E-02
   3.1530378501411452E-02   3.1887786383619235E-02   3.2248757488401683E-02
   3.2613314702176523E-02   3.2981480698507294E-02   3.3353277924642849E-02
   3.3728728587681701E-02   3.4107854640352396E-02   3.4490677766403077E-02
   3.4877219365592120E-02   3.5267500538271268E-02   3.5661542069554596E-02
   3.6059364413063837E-02   3.6460987674242787E-02   3.6866431593232114E-02
   3.7275715527296173E-02   3.7688858432793820E-02   3.8105878846684114E-02
   3.8526794867558736E-02   3.8951624136192832E-02   3.9380383815604048E-02
   3.9813090570613156E-02   4.0249760546895642E-02   4.0690409349516177E-02
   4.1135052020937153E-02   4.1583703018491534E-02   4.2036376191311856E-02
   4.2493084756705705E-02   4.2953841275968900E-02   4.3418657629627162E-02
   4.3887544992097079E-02   4.4360513805756979E-02   4.4837573754419276E-02
   4.5318733736194397E-02   4.5804001835737226E-02   4.6293385295867372E-02
   4.6786890488553667E-02   4.7284522885254143E-02   4.7786287026602148E-02
   4.8292186491430134E-02   4.8802223865121112E-02   4.9316400707280363E-02
   4.9834717518717618E-02   5.0357173707731157E-02   5.0883767555685709E-02
   5.1414496181875095E-02   5.1949355507661783E-02   5.2488340219884855E-02
   5.3031443733528486E-02   5.3578658153643266E-02   5.4129974236512259E-02
   5.4685381350054525E-02   5.5244867433459313E-02   5.5808418956043160E-02
   5.6376020875323611E-02   5.6947656594303085E-02   5.7523307917956380E-02
   5.8102955008916463E-02   5.8686576342352297E-02   5.9274148660034380E-02
   5.9865646923582094E-02   6.0461044266889474E-02   6.1060311947725050E-02
   6.1663419298501478E-02   6.2270333676213499E-02   6.2881020411539520E-02
   6.3495442757106529E-02   6.4113561834916094E-02   6.4735336582930236E-02
   6.5360723700817622E-02   6.5989677594859242E-02   6.6622150322015544E-02
   6.7258091533156469E-02   6.7897448415456099E-02   6.8540165633956304E-02
   6.9186185272301678E-02   6.9835446772652410E-02   7.0487886874779485E-02
   7.1143439554348764E-02   7.1802035960402896E-02   7.2463604352047156E-02
   7.3128070034351345E-02   7.3795355293476403E-02   7.4465379331038500E-02
   7.5138058197723276E-02   7.5813304726164016E-02   7.6491028463099173E-02
   7.7171135600826626E-02   7.7853528907971176E-02   7.8538107659586159E-02
   7.9224767566608956E-02   7.9913400704693133E-02   8.0603895442440662E-02
   8.1296136369060218E-02   8.1990004221478507E-02   8.2685375810932479E-02
   8.3382123949074391E-02   8.4080117373621283E-02   8.4779220673582512E-02
   8.5479294214103441E-02   8.6180194060960724E-02   8.6881771904751867E-02
   8.7583874984819760E-02   8.8286346012957331E-02   8.8989023096939054E-02
   8.9691739663927766E-02   9.0394324383808733E-02   9.1096601092504600E-02
   9.1798388715327014E-02   9.2499501190424854E-02   9.3199747392388857E-02
   9.3898931056078105E-02   9.4596850700734925E-02   9.5293299554456840E-02
   9.5988065479100382E-02   9.6680930895689174E-02   9.7371672710407281E-02
   9.8060062241258641E-02   9.8745865145476105E-02   9.9428841347770483E-02
   1.0010874496950735E-01   1.0078532425890956E-01   1.0145832152238077E-01
   1.0212747305705298E-01   1.0279250908466123E-01   1.0345315368685583E-01
   1.0410912474206233E-01   1.0476013386400650E-01   1.0540588634202240E-01
   1.0604608108326799E-01   1.0668041055697441E-01   1.0730856074086058E-01
   1.0793021106984797E-01   1.0854503438721420E-01   1.0915269689832885E-01
   1.0975285812711738E-01   1.1034517087540667E-01   1.1092928118530457E-01
   1.1150482830477515E-01   1.1207144465657184E-01   1.1262875581069726E-01
   1.1317638046056105E-01   1.1371393040301274E-01   1.1424101052242937E-01
   1.1475721877904357E-01   1.1526214620169994E-01   1.1575537688523453E-01
   1.1623648799267339E-01   1.1670504976245293E-01   1.1716062552086727E-01
   1.1760277169995292E-01   1.1803103786102472E-01   1.1844496672408082E-01
   1.1884409420329976E-01   1.1922794944885362E-01   1.1959605489526960E-01
   1.1994792631657079E-01   1.2028307288843597E-01   1.2060099725761643E-01
   1.2090119561885612E-01   1.2118315779956092E-01   1.2144636735246848E-01
   1.2169030165657098E-01   1.2191443202654872E-01   1.2211822383097098E-01
   1.2230113661952810E-01   1.2246262425955588E-01   1.2260213508211941E-01
   1.2271911203792278E-01   1.2281299286331307E-01   1.2288321025664929E-01
   1.2292919206530652E-01   1.2295036148358587E-01   1.2294613726180430E-01
   1.2291593392683205E-01   1.2285916201435235E-01   1.2277522831311109E-01
   1.2266353612142650E-01   1.2252348551622526E-01   1.2235447363487056E-01
   1.2215589497004399E-01   1.2192714167793976E-01   1.2166760390002809E-01
   1.2137667009863663E-01   1.2105372740659759E-01   1.2069816199120070E-01
   1.2030935943268549E-01   1.1988670511750213E-01   1.1942958464655885E-01
   1.1893738425866923E-01   1.1840949126940094E-01   1.1784529452551909E-01
   1.1724418487520676E-01   1.1660555565423183E-01   1.1592880318821977E-01
   1.1521332731117714E-01   1.1445853190039461E-01   1.1366382542784668E-01
   1.1282862152818693E-01   1.1195233958341853E-01   1.1103440532430642E-01
   1.1007425144857237E-01   1.0907131825589840E-01   1.0802505429973845E-01
   1.0693491705591888E-01   1.0580037360798185E-01   1.0462090134920110E-01
   1.0339598870117443E-01   1.0212513584886806E-01   1.0080785549195982E-01
   9.9443673612299846E-02   9.8032130257272213E-02   9.6572780338813599E-02
   9.5065194447807727E-02   9.3508959683540671E-02   9.1903680497869567E-02
   9.0248979553712430E-02   8.8544498597438806E-02   8.6789899344693736E-02
   8.4984864379151273E-02   8.3129098063654649E-02   8.1222327463150695E-02
   7.9264303278795384E-02   7.7254800792550510E-02   7.5193620821557949E-02
   7.3080590681529362E-02   7.0915565158336136E-02   6.8698427486955885E-02
   6.6429090336865879E-02   6.4107496802932790E-02   6.1733621400813773E-02
   5.9307471065804800E-02   5.6829086154057531E-02   5.4298541445012886E-02
   5.1715947143847113E-02   4.9081449882699892E-02   4.6395233719364048E-02
   4.3657521132094645E-02   4.0868574009126774E-02   3.8028694631421243E-02
   3.5138226647135458E-02   3.2197556036214547E-02   2.9207112063470181E-02
   2.6167368218442330E-02   2.3078843140263365E-02   1.9942101525714882E-02
   1.6757755018574072E-02   1.3526463078311258E-02   1.0248933826146726E-02
   6.9259248664178975E-03   3.5582440811987776E-03   1.4675039607244385E-04
  -3.3076454850177743E-03  -6.8039803779031943E-03  -1.0341237951304471E-02
  -1.3918348096828325E-02  -1.7534186337611137E-02  -2.1187573277189512E-02
  -2.4877274089931366E-02  -2.8601998054086204E-02  -3.2360398128147672E-02
  -3.6151070570855447E-02  -3.9972554604705904E-02  -4.3823332122415494E-02
  -4.7701827435316028E-02  -5.1606407062229194E-02  -5.5535379557036864E-02
  -5.9486995372850189E-02  -6.3459446760608620E-02  -6.7450867699972619E-02
  -7.1459333860651911E-02  -7.5482862592890124E-02  -7.9519412946595855E-02
  -8.3566885719779022E-02  -8.7623123538355746E-02  -9.1685910971051832E-02
  -9.5752974685123879E-02  -9.9821983650652715E-02  -1.0389054940337439E-01
  -1.0795622637812499E-01  -1.1201651232681686E-01  -1.1606884883639393E-01
  -1.2011062196299747E-01  -1.2413916299860715E-01  -1.2815174938545357E-01
  -1.3214560579137249E-01  -1.3611790535618457E-01  -1.4006577111508711E-01
  -1.4398627760036742E-01  -1.4787645261786173E-01  -1.5173327918988760E-01
  -1.5555369765246441E-01  -1.5933460789174561E-01  -1.6307287170305110E-01
  -1.6676531525572896E-01  -1.7040873164815584E-01  -1.7399988353928833E-01
  -1.7753550584591313E-01  -1.8101230849773250E-01  -1.8442697924538223E-01
  -1.8777618651903888E-01  -1.9105658233735984E-01  -1.9426480526795659E-01
  -1.9739748344145894E-01  -2.0045123762153738E-01  -2.0342268433308819E-01
  -2.0630843905029339E-01  -2.0910511944548532E-01  -2.1180934869887455E-01
  -2.1441775886819348E-01  -2.1692699431634097E-01  -2.1933371519417322E-01
  -2.2163460097469578E-01  -2.2382635403415566E-01  -2.2590570327484075E-01
  -2.2786940778382803E-01  -2.2971426052146970E-01  -2.3143709203303231E-01
  -2.3303477417665719E-01  -2.3450422386063244E-01  -2.3584240678286492E-01
  -2.3704634116543308E-01  -2.3811310147712519E-01  -2.3903982213696792E-01
  -2.3982370119188473E-01  -2.4046200396179168E-01  -2.4095206664564986E-01
  -2.4129129988221218E-01  -2.4147719225946015E-01  -2.4150731376698462E-01
  -2.4137931918583919E-01  -2.4109095141068471E-01  -2.4064004469933339E-01
  -2.4002452784509648E-01  -2.3924242726764361E-01  -2.3829187001838123E-01
  -2.3717108669666545E-01  -2.3587841427345879E-01  -2.3441229881935363E-01
  -2.3277129813416803E-01  -2.3095408427562783E-01  -2.2895944598492265E-01
  -2.2678629100721087E-01  -2.2443364830542098E-01  -2.2190067016594511E-01
  -2.1918663419508258E-01  -2.1629094520531059E-01  -2.1321313699068384E-01
  -2.0995287399086024E-01  -2.0650995284342463E-01  -2.0288430382434208E-01
  -1.9907599217650249E-01  -1.9508521932643108E-01  -1.9091232398929764E-01
  -1.8655778316244975E-01  -1.8202221300766858E-01  -1.7730636962237101E-01
  -1.7241114969994253E-01  -1.6733759107927698E-01  -1.6208687318355056E-01
  -1.5666031734807595E-01  -1.5105938703692653E-01  -1.4528568794785243E-01
  -1.3934096800472284E-01  -1.3322711723652794E-01  -1.2694616754167259E-01
  -1.2050029233594876E-01  -1.1389180608233238E-01  -1.0712316370029713E-01
  -1.0019695985207483E-01  -9.3115928102878706E-02  -8.5882939951718126E-02
  -7.8501003729141219E-02  -7.0973263357802532E-02  -6.3302996971488987E-02
  -5.5493615387909721E-02  -4.7548660430274323E-02  -3.9471803092517806E-02
  -3.1266841542856541E-02  -2.2937698960302434E-02  -1.4488421198816902E-02
  -5.9231742739042064E-03   2.7537583332541415E-03   1.1537978558599501E-02
   2.0424976828809404E-02   2.9410135328815586E-02   3.8488731465340160E-02
   4.7655941527333719E-02   5.6906844542807214E-02   6.6236426329831830E-02
   7.5639583737660651E-02   8.5111129071765518E-02   9.4645794694326643E-02
   1.0423823778930705E-01   1.1388304527867350E-01   1.2357473887391633E-01
   1.3330778024454470E-01   1.4307657628308329E-01   1.5287548444436766E-01
   1.6269881813558495E-01   1.7254085213312295E-01   1.8239582800265405E-01
   1.9225795950044799E-01   2.0212143793692602E-01   2.1198043748778489E-01
   2.2182912044429740E-01   2.3166164240234061E-01   2.4147215739950528E-01
   2.5125482302156765E-01   2.6100380551299696E-01   2.7071328494148100E-01
   2.8037746048282292E-01   2.8999055590956363E-01   2.9954682538369432E-01
   3.0904055966915689E-01   3.1846609289214489E-01   3.2781780998376797E-01
   3.3709015493693650E-01   3.4627763999294336E-01   3.5537485583681494E-01
   3.6437648281672452E-01   3.7327730310291701E-01   3.8207221355623910E-01
   3.9075623887804056E-01   3.9932454435774978E-01   4.0777244722689676E-01
   4.1609542528794069E-01   4.2428912115302014E-01   4.3234934016887228E-01
   4.4027204001430786E-01   4.4805331015167854E-01   4.5568933990873289E-01
   4.6317637503918485E-01   4.7051066414747639E-01   4.7768839821590386E-01
   4.8470564832658181E-01   4.9155830808869944E-01   4.9824204778802278E-01
   5.0475228654371640E-01   5.1108418674341616E-01   5.1723267206632473E-01
   5.2319246713618839E-01   5.2895815402025814E-01   5.3452423901151103E-01
   5.3988522267161576E-01   5.4503566686591765E-01   5.4997025410325195E-01
   5.5468383641072905E-01   5.5917147279112023E-01   5.6342845574501754E-01
   5.6745032827939812E-01   5.7123289329056082E-01   5.7477221730225980E-01
   5.7806463038391087E-01   5.8110672378327255E-01   5.8389534647085917E-01
   5.8642760146656758E-01   5.8870084253399768E-01   5.9071267159719243E-01
   5.9246093705834457E-01   5.9394373306767290E-01   5.9515939970958620E-01
   5.9610652401363173E-01   5.9678394166674920E-01   5.9719073928831790E-01
   5.9732625712639287E-01   5.9719009203832252E-01   5.9678210062885106E-01
   5.9610240243172175E-01   5.9515138303524284E-01   5.9392969706729903E-01
   5.9243827097012736E-01   5.9067830550946554E-01   5.8865127797605710E-01
   5.8635894404985556E-01   5.8380333930847750E-01   5.8098678037148255E-01
   5.7791186568090014E-01   5.7458147592604858E-01   5.7099877412711020E-01
   5.6716720539711285E-01   5.6309049640584574E-01   5.5877265457176040E-01
   5.5421796700893711E-01   5.4943099925558148E-01   5.4441659380806851E-01
   5.3917986848004573E-01   5.3372621459933411E-01   5.2806129504600485E-01
   5.2219104212300038E-01   5.1612165523565490E-01   5.0985959833858874E-01
   5.0341159708771566E-01   4.9678463561176073E-01   4.8998595279255447E-01
   4.8302303791699991E-01   4.7590362553759064E-01   4.6863568935412381E-01
   4.6122743490873669E-01   4.5368729087198006E-01   4.4602389869144388E-01
   4.3824610037881473E-01   4.3036292422788824E-01   4.2238356828513923E-01
   4.1431738145875924E-01   4.0617384215512103E-01   3.9796253448399377E-01
   3.8969312209025453E-01   3.8137531978290368E-01   3.7301886321388522E-01
   3.6463347694147125E-01   3.5622884128563898E-01   3.4781455844177045E-01
   3.3940011836024486E-01   3.3099486492125474E-01   3.2260796293540067E-01
   3.1424836648184695E-01   3.0592478905914966E-01   2.9764567597173991E-01
   2.8941917931121675E-01   2.8125313581971695E-01   2.7315504784633732E-01
   2.6513206753058854E-01   2.5719098427187553E-01   2.4933821547365018E-01
   2.4157980048686814E-01   2.3392139762087841E-01   2.2636828404164355E-01
   2.1892535833732493E-01   2.1159714549978131E-01   2.0438780404693727E-01
   1.9730113499489396E-01   1.9034059237941459E-01   1.8350929502351415E-01
   1.7681003925071437E-01   1.7024531225160522E-01   1.6381730582428261E-01
   1.5752793022654540E-01   1.5137882789906845E-01   1.4537138684380091E-01
   1.3950675346998476E-01   1.3378584475110530E-01   1.2820935956906920E-01
   1.2277778915620041E-01   1.1749142658058660E-01   1.1235037525477946E-01
   1.0735455648102205E-01   1.0250371607708553E-01   9.7797430154331677E-02
   9.3235110143244718E-02   8.8816007180448117E-02   8.4539215984869853E-02
   8.0403678358981781E-02   7.6408186453836818E-02   7.2551385934388118E-02
   6.8831779174627475E-02   6.5247728601106572E-02   6.1797460289260225E-02
   5.8479067900297388E-02   5.5290517028300776E-02   5.2229650008293424E-02
   4.9294191217136567E-02   4.6481752881235162E-02   4.3789841386939268E-02
   4.1215864077003325E-02   3.8757136499254732E-02   3.6410890065492446E-02
   3.4174280068412569E-02   3.2044393997357562E-02   3.0018260089119467E-02
   2.8092856047058978E-02   2.6265117860638683E-02   2.4531948657852003E-02
   2.2890227524717862E-02   2.1336818228801697E-02   1.9868577787400546E-02
   1.8482364825396416E-02   1.7175047672651322E-02   1.5943512156032895E-02
   1.4784669046574174E-02   1.3695461127755581E-02   1.2672869856362769E-02
   1.1713921592719938E-02   1.0815693382256511E-02   9.9753182752974588E-03
   9.1899901766020406E-03   8.4569682205180036E-03   7.7735806716196119E-03
   7.1372283543571294E-03   6.5453876185680099E-03   5.9956128506612853E-03
   5.4855385429200256E-03   5.0128809356631537E-03   4.5754392489799119E-03
   4.1710965224268362E-03   3.7978200824521917E-03   3.4536616584200379E-03
   3.1367571689580793E-03   2.8453262009604276E-03   2.5776712039702531E-03
   2.3321764228535070E-03   2.1073065916759992E-03   1.9016054115336403E-03
   1.7136938347650876E-03   1.5422681775276593E-03   1.3860980821443344E-03
   1.2440243499542260E-03   1.1149566646348203E-03   9.9787122512003763E-04
       </PP_GIPAW_WFS_AE>
       <PP_GIPAW_WFS_PS size="1026">
   0.0000000000000000E+00  -3.3730565537020768E-05  -3.4154843826637408E-05
  -3.4584458880055258E-05  -3.5019477825474030E-05  -3.5459968635478705E-05
  -3.5906000137647467E-05  -3.6357642025302698E-05  -3.6814964868400628E-05
  -3.7278040124558134E-05  -3.7746940150217938E-05  -3.8221738211954563E-05
  -3.8702508497922395E-05  -3.9189326129447646E-05  -3.9682267172766160E-05
  -4.0181408650909072E-05  -4.0686828555737607E-05  -4.1198605860129631E-05
  -4.1716820530319144E-05  -4.2241553538391289E-05  -4.2772886874934274E-05
  -4.3310903561850642E-05  -4.3855687665329552E-05  -4.4407324308982274E-05
  -4.4965899687142929E-05  -4.5531501078336479E-05  -4.6104216858916151E-05
  -4.6684136516872495E-05  -4.7271350665815851E-05  -4.7865951059135156E-05
  -4.8468030604334277E-05  -4.9077683377549201E-05  -4.9695004638247514E-05
  -5.0320090844112810E-05  -5.0953039666116493E-05  -5.1593950003778916E-05
  -5.2242922000622719E-05  -5.2900057059820239E-05  -5.3565457860038233E-05
  -5.4239228371481238E-05  -5.4921473872137444E-05  -5.5612300964228266E-05
  -5.6311817590865286E-05  -5.7020133052916510E-05  -5.7737358026084805E-05
  -5.8463604578201147E-05  -5.9198986186735408E-05  -5.9943617756527497E-05
  -6.0697615637741203E-05  -6.1461097644044353E-05  -6.2234183071017182E-05
  -6.3016992714792620E-05  -6.3809648890930787E-05  -6.4612275453530927E-05
  -6.5424997814584053E-05  -6.6247942963568507E-05  -6.7081239487292319E-05
  -6.7925017589985266E-05  -6.8779409113643177E-05  -6.9644547558628795E-05
  -7.0520568104531051E-05  -7.1407607631287465E-05  -7.2305804740571401E-05
  -7.3215299777449130E-05  -7.4136234852308820E-05  -7.5068753863065499E-05
  -7.6013002517645196E-05  -7.6969128356752189E-05  -7.7937280776922419E-05
  -7.8917611053866662E-05  -7.9910272366108006E-05  -8.0915419818915722E-05
  -8.1933210468540819E-05  -8.2963803346756683E-05  -8.4007359485707394E-05
  -8.5064041943069417E-05  -8.6134015827529851E-05  -8.7217448324584354E-05
  -8.8314508722660563E-05  -8.9425368439569210E-05  -9.0550201049288605E-05
  -9.1689182309085846E-05  -9.2842490186978617E-05  -9.4010304889543370E-05
  -9.5192808890072659E-05  -9.6390186957086575E-05  -9.7602626183203276E-05
  -9.8830316014372386E-05  -1.0007344827947587E-04  -1.0133221722030146E-04
  -1.0260681952189367E-04  -1.0389745434328524E-04  -1.0520432334861640E-04
  -1.0652763073864487E-04  -1.0786758328265235E-04  -1.0922439035075257E-04
  -1.1059826394660539E-04  -1.1198941874054236E-04  -1.1339807210310955E-04
  -1.1482444413903108E-04  -1.1626875772160163E-04  -1.1773123852750949E-04
  -1.1921211507209920E-04  -1.2071161874507734E-04  -1.2222998384666664E-04
  -1.2376744762421612E-04  -1.2532425030927071E-04  -1.2690063515510759E-04
  -1.2849684847474448E-04  -1.3011313967942637E-04  -1.3174976131759562E-04
  -1.3340696911435322E-04  -1.3508502201141541E-04  -1.3678418220757356E-04
  -1.3850471519966253E-04  -1.4024688982404473E-04  -1.4201097829861576E-04
  -1.4379725626533800E-04  -1.4560600283331019E-04  -1.4743750062237799E-04
  -1.4929203580729252E-04  -1.5116989816242618E-04  -1.5307138110704884E-04
  -1.5499678175117488E-04  -1.5694640094198625E-04  -1.5892054331083984E-04
  -1.6091951732086552E-04  -1.6294363531516381E-04  -1.6499321356560855E-04
  -1.6706857232226470E-04  -1.6917003586342625E-04  -1.7129793254628571E-04
  -1.7345259485823758E-04  -1.7563435946883115E-04  -1.7784356728237267E-04
  -1.8008056349119305E-04  -1.8234569762958205E-04  -1.8463932362840335E-04
  -1.8696179987039499E-04  -1.8931348924616667E-04  -1.9169475921090051E-04
  -1.9410598184176466E-04  -1.9654753389605005E-04  -1.9901979687003801E-04
  -2.0152315705860752E-04  -2.0405800561559335E-04  -2.0662473861490302E-04
  -2.0922375711240153E-04  -2.1185546720857554E-04  -2.1452028011198588E-04
  -2.1721861220351673E-04  -2.1995088510143505E-04  -2.2271752572726491E-04
  -2.2551896637249490E-04  -2.2835564476612053E-04  -2.3122800414303868E-04
  -2.3413649331330020E-04  -2.3708156673223578E-04  -2.4006368457146212E-04
  -2.4308331279078186E-04  -2.4614092321098742E-04  -2.4923699358758169E-04
  -2.5237200768542316E-04  -2.5554645535431415E-04  -2.5876083260553527E-04
  -2.6201564168934575E-04  -2.6531139117345599E-04  -2.6864859602248974E-04
  -2.7202777767844393E-04  -2.7544946414215899E-04  -2.7891419005581831E-04
  -2.8242249678648077E-04  -2.8597493251066622E-04  -2.8957205230000383E-04
  -2.9321441820795858E-04  -2.9690259935764694E-04  -3.0063717203075940E-04
  -3.0441871975759872E-04  -3.0824783340825158E-04  -3.1212511128490735E-04
  -3.1605115921533842E-04  -3.2002659064755371E-04  -3.2405202674564527E-04
  -3.2812809648683877E-04  -3.3225543675976523E-04  -3.3643469246396761E-04
  -3.4066651661066055E-04  -3.4495157042475563E-04  -3.4929052344817113E-04
  -3.5368405364443828E-04  -3.5813284750462745E-04  -3.6263760015460333E-04
  -3.6719901546362768E-04  -3.7181780615433245E-04  -3.7649469391407172E-04
  -3.8123040950767553E-04  -3.8602569289162208E-04  -3.9088129332964474E-04
  -3.9579796950979290E-04  -4.0077648966296652E-04  -4.0581763168293929E-04
  -4.1092218324789172E-04  -4.1609094194347296E-04  -4.2132471538740941E-04
  -4.2662432135568161E-04  -4.3199058791028576E-04  -4.3742435352860380E-04
  -4.4292646723439902E-04  -4.4849778873045834E-04  -4.5413918853290483E-04
  -4.5985154810719803E-04  -4.6563576000584108E-04  -4.7149272800782607E-04
  -4.7742336725982600E-04  -4.8342860441916662E-04  -4.8950937779859499E-04
  -4.9566663751286582E-04  -5.0190134562717458E-04  -5.0821447630745398E-04
  -5.1460701597256337E-04  -5.2107996344838675E-04  -5.2763433012387336E-04
  -5.3427114010903842E-04  -5.4099143039494592E-04  -5.4779625101571236E-04
  -5.5468666521253846E-04  -5.6166374959980649E-04  -5.6872859433326588E-04
  -5.7588230328033390E-04  -5.8312599419253622E-04  -5.9046079888011420E-04
  -5.9788786338883044E-04  -6.0540834817899485E-04  -6.1302342830674064E-04
  -6.2073429360758059E-04  -6.2854214888227115E-04  -6.3644821408501183E-04
  -6.4445372451400794E-04  -6.5255993100443656E-04  -6.6076810012382725E-04
  -6.6907951436990924E-04  -6.7749547237093671E-04  -6.8601728908853721E-04
  -6.9464629602310917E-04  -7.0338384142179869E-04  -7.1223129048909233E-04
  -7.2119002560005715E-04  -7.3026144651625621E-04  -7.3944697060438554E-04
  -7.4874803305765127E-04  -7.5816608711993432E-04  -7.6770260431276703E-04
  -7.7735907466516775E-04  -7.8713700694635889E-04  -7.9703792890141152E-04
  -8.0706338748985206E-04  -8.1721494912726476E-04  -8.2749419992992983E-04
  -8.3790274596253801E-04  -8.4844221348901740E-04  -8.5911424922650653E-04
  -8.6992052060252685E-04  -8.8086271601537562E-04  -8.9194254509780170E-04
  -9.0316173898398445E-04  -9.1452205057986958E-04  -9.2602525483690464E-04
  -9.3767314902920497E-04  -9.4946755303420942E-04  -9.6141030961685635E-04
  -9.7350328471732699E-04  -9.8574836774241318E-04  -9.9814747186052657E-04
  -1.0107025343004325E-03  -1.0234155166537222E-03  -1.0362884051810836E-03
  -1.0493232111224275E-03  -1.0625219710108961E-03  -1.0758867469908250E-03
  -1.0894196271396886E-03  -1.1031227257940893E-03  -1.1169981838798457E-03
  -1.1310481692462168E-03  -1.1452748770043226E-03  -1.1596805298698186E-03
  -1.1742673785098609E-03  -1.1890377018944443E-03  -1.2039938076521214E-03
  -1.2191380324302157E-03  -1.2344727422595341E-03  -1.2500003329236648E-03
  -1.2657232303329112E-03  -1.2816438909029049E-03  -1.2977648019379835E-03
  -1.3140884820193675E-03  -1.3306174813982128E-03  -1.3473543823935891E-03
  -1.3643017997954489E-03  -1.3814623812726577E-03  -1.3988388077861309E-03
  -1.4164337940071570E-03  -1.4342500887409677E-03  -1.4522904753556110E-03
  -1.4705577722162087E-03  -1.4890548331246527E-03  -1.5077845477648117E-03
  -1.5267498421533236E-03  -1.5459536790960284E-03  -1.5653990586501289E-03
  -1.5850890185921368E-03  -1.6050266348916781E-03  -1.6252150221912497E-03
  -1.6456573342919596E-03  -1.6663567646453745E-03  -1.6873165468515154E-03
  -1.7085399551630834E-03  -1.7300303049960167E-03  -1.7517909534464171E-03
  -1.7738252998139629E-03  -1.7961367861318643E-03  -1.8187288977034529E-03
  -1.8416051636454911E-03  -1.8647691574382589E-03  -1.8882244974825525E-03
  -1.9119748476636130E-03  -1.9360239179221491E-03  -1.9603754648324515E-03
  -1.9850332921877785E-03  -2.0100012515930246E-03  -2.0352832430648232E-03
  -2.0608832156391306E-03  -2.0868051679864023E-03  -2.1130531490344551E-03
  -2.1396312585991195E-03  -2.1665436480227396E-03  -2.1937945208206819E-03
  -2.2213881333358735E-03  -2.2493287954015386E-03  -2.2776208710121935E-03
  -2.3062687790029999E-03  -2.3352769937376220E-03  -2.3646500458046177E-03
  -2.3943925227225510E-03  -2.4245090696538691E-03  -2.4550043901276717E-03
  -2.4858832467715207E-03  -2.5171504620523006E-03  -2.5488109190263636E-03
  -2.5808695620989767E-03  -2.6133313977932345E-03  -2.6462014955285426E-03
  -2.6794849884087574E-03  -2.7131870740201599E-03  -2.7473130152393158E-03
  -2.7818681410510062E-03  -2.8168578473763044E-03  -2.8522875979109159E-03
  -2.8881629249739639E-03  -2.9244894303672880E-03  -2.9612727862453965E-03
  -2.9985187359962331E-03  -3.0362330951328319E-03  -3.0744217521960359E-03
  -3.1130906696684199E-03  -3.1522458848994798E-03  -3.1918935110423390E-03
  -3.2320397380019789E-03  -3.2726908333952408E-03  -3.3138531435226884E-03
  -3.3555330943524555E-03  -3.3977371925162972E-03  -3.4404720263178624E-03
  -3.4837442667534769E-03  -3.5275606685454797E-03  -3.5719280711883059E-03
  -3.6168534000074653E-03  -3.6623436672315432E-03  -3.7084059730774044E-03
  -3.7550475068487731E-03  -3.8022755480482417E-03  -3.8500974675030469E-03
  -3.8985207285045743E-03  -3.9475528879618941E-03  -3.9972015975694337E-03
  -4.0474746049889709E-03  -4.0983797550460605E-03  -4.1499249909411617E-03
  -4.2021183554755304E-03  -4.2549679922921106E-03  -4.3084821471315775E-03
  -4.3626691691037106E-03  -4.4175375119742599E-03  -4.4730957354674767E-03
  -4.5293525065845342E-03  -4.5863166009379461E-03  -4.6439969041022055E-03
  -4.7024024129808731E-03  -4.7615422371901283E-03  -4.8214256004592204E-03
  -4.8820618420477649E-03  -4.9434604181802545E-03  -5.0056309034978491E-03
  -5.0685829925276931E-03  -5.1323265011699913E-03  -5.1968713682028983E-03
  -5.2622276568055929E-03  -5.3284055560996338E-03  -5.3954153827087282E-03
  -5.4632675823373215E-03  -5.5319727313679554E-03  -5.6015415384777856E-03
  -5.6719848462744105E-03  -5.7433136329511098E-03  -5.8155390139618610E-03
  -5.8886722437162418E-03  -5.9627247172944183E-03  -6.0377079721825062E-03
  -6.1136336900283784E-03  -6.1905136984182702E-03  -6.2683599726743155E-03
  -6.3471846376731995E-03  -6.4269999696862602E-03  -6.5078183982410290E-03
  -6.5896525080047031E-03  -6.6725150406895164E-03  -6.7564188969803313E-03
  -6.8413771384847411E-03  -6.9274029897056690E-03  -7.0145098400369076E-03
  -7.1027112457817052E-03  -7.1920209321945936E-03  -7.2824527955467414E-03
  -7.3740209052149380E-03  -7.4667395057945556E-03  -7.5606230192365748E-03
  -7.6556860470089524E-03  -7.7519433722825727E-03  -7.8494099621417828E-03
  -7.9481009698200954E-03  -8.0480317369608523E-03  -8.1492177959033383E-03
  -8.2516748719944789E-03  -8.3554188859261708E-03  -8.4604659560986832E-03
  -8.5668324010101434E-03  -8.6745347416723895E-03  -8.7835897040533621E-03
  -8.8940142215461569E-03  -9.0058254374650055E-03  -9.1190407075684016E-03
  -9.2336776026093366E-03  -9.3497539109131233E-03  -9.4672876409826624E-03
  -9.5862970241315723E-03  -9.7068005171452136E-03  -9.8288168049697096E-03
  -9.9523648034293144E-03  -1.0077463661971970E-02  -1.0204132766443495E-02
  -1.0332391741890296E-02  -1.0462260455390870E-02  -1.0593759018916193E-02
  -1.0726907792218904E-02  -1.0861727385751734E-02  -1.0998238663614945E-02
  -1.1136462746533056E-02  -1.1276421014860805E-02  -1.1418135111618521E-02
  -1.1561626945556765E-02  -1.1706918694250567E-02  -1.1854032807222917E-02
  -1.2002992009097891E-02  -1.2153819302783116E-02  -1.2306537972681646E-02
  -1.2461171587933396E-02  -1.2617744005685719E-02  -1.2776279374393460E-02
  -1.2936802137148033E-02  -1.3099337035035762E-02  -1.3263909110525050E-02
  -1.3430543710882512E-02  -1.3599266491617806E-02  -1.3770103419956709E-02
  -1.3943080778342821E-02  -1.4118225167967098E-02  -1.4295563512325263E-02
  -1.4475123060802795E-02  -1.4656931392286946E-02  -1.4841016418805860E-02
  -1.5027406389194066E-02  -1.5216129892784034E-02  -1.5407215863123613E-02
  -1.5600693581718368E-02  -1.5796592681798925E-02  -1.5994943152112293E-02
  -1.6195775340736795E-02  -1.6399119958920117E-02  -1.6605008084939376E-02
  -1.6813471167983082E-02  -1.7024541032053801E-02  -1.7238249879890803E-02
  -1.7454630296912136E-02  -1.7673715255174745E-02  -1.7895538117351981E-02
  -1.8120132640727593E-02  -1.8347532981204739E-02  -1.8577773697329301E-02
  -1.8810889754325988E-02  -1.9046916528146045E-02  -1.9285889809525485E-02
  -1.9527845808051888E-02  -1.9772821156238927E-02  -2.0020852913606522E-02
  -2.0271978570765254E-02  -2.0526236053503333E-02  -2.0783663726873951E-02
  -2.1044300399281731E-02  -2.1308185326565553E-02  -2.1575358216076149E-02
  -2.1845859230746077E-02  -2.2119728993149710E-02  -2.2397008589550946E-02
  -2.2677739573935884E-02  -2.2961963972027846E-02  -2.3249724285282228E-02
  -2.3541063494857711E-02  -2.3836025065561380E-02  -2.4134652949763840E-02
  -2.4436991591281567E-02  -2.4743085929222766E-02  -2.5052981401792816E-02
  -2.5366723950055993E-02  -2.5684360021648752E-02  -2.6005936574440999E-02
  -2.6331501080140738E-02  -2.6661101527837249E-02  -2.6994786427478542E-02
  -2.7332604813277563E-02  -2.7674606247042328E-02  -2.8020840821424371E-02
  -2.8371359163079854E-02  -2.8726212435737555E-02  -2.9085452343167173E-02
  -2.9449131132042144E-02  -2.9817301594689635E-02  -3.0190017071721264E-02
  -3.0567331454536880E-02  -3.0949299187693870E-02  -3.1335975271134367E-02
  -3.1727415262261853E-02  -3.2123675277858588E-02  -3.2524811995835255E-02
  -3.2930882656802982E-02  -3.3341945065458602E-02  -3.3758057591772847E-02
  -3.4179279171970882E-02  -3.4605669309294575E-02  -3.5037288074534850E-02
  -3.5474196106322554E-02  -3.5916454611165417E-02  -3.6364125363218473E-02
  -3.6817270703774531E-02  -3.7275953540460927E-02  -3.7740237346128254E-02
  -3.8210186157416316E-02  -3.8685864572981232E-02  -3.9167337751368443E-02
  -3.9654671408514017E-02  -4.0147931814857298E-02  -4.0647185792047041E-02
  -4.1152500709221641E-02  -4.1663944478844660E-02  -4.2181585552074595E-02
  -4.2705492913648599E-02  -4.3235736076257927E-02  -4.3772385074392718E-02
  -4.4315510457632004E-02  -4.4865183283355023E-02  -4.5421475108848752E-02
  -4.5984457982784152E-02  -4.6554204436035369E-02  -4.7130787471812423E-02
  -4.7714280555078349E-02  -4.8304757601220473E-02  -4.8902292963943925E-02
  -4.9506961422355021E-02  -5.0118838167199871E-02  -5.0737998786223398E-02
  -5.1364519248612350E-02  -5.1998475888483879E-02  -5.2639945387381072E-02
  -5.3289004755734261E-02  -5.3945731313245995E-02  -5.4610202668156312E-02
  -5.5282496695342631E-02  -5.5962691513207694E-02  -5.6650865459307025E-02
  -5.7347097064665155E-02  -5.8051465026729261E-02  -5.8764048180905720E-02
  -5.9484925470624353E-02  -6.0214175915871887E-02  -6.0951878580135628E-02
  -6.1698112535695036E-02  -6.2452956827197544E-02  -6.3216490433452358E-02
  -6.3988792227373664E-02  -6.4769940934002665E-02  -6.5560015086535500E-02
  -6.6359092980280837E-02  -6.7167252624469972E-02  -6.7984571691837636E-02
  -6.8811127465890534E-02  -6.9646996785778181E-02  -7.0492255988675381E-02
  -7.1346980849586003E-02  -7.2211246518473216E-02  -7.3085127454616233E-02
  -7.3968697358095400E-02  -7.4862029098299185E-02  -7.5765194639346972E-02
  -7.6678264962315723E-02  -7.7601309984156847E-02  -7.8534398473185704E-02
  -7.9477597961021440E-02  -8.0430974650853138E-02  -8.1394593321902964E-02
  -8.2368517229953059E-02  -8.3352808003802001E-02  -8.4347525537506948E-02
  -8.5352727878270529E-02  -8.6368471109821654E-02  -8.7394809231137668E-02
  -8.8431794030352867E-02  -8.9479474953689603E-02  -9.0537898969248326E-02
  -9.1607110425486443E-02  -9.2687150904210369E-02  -9.3778059067904512E-02
  -9.4879870501210953E-02  -9.5992617546375059E-02  -9.7116329132463042E-02
  -9.8251030598153863E-02  -9.9396743507908239E-02  -1.0055348546130304E-01
  -1.0172126989532486E-01  -1.0290010587940902E-01  -1.0408999790299860E-01
  -1.0529094565540836E-01  -1.0650294379775907E-01  -1.0772598172675162E-01
  -1.0896004333005019E-01  -1.1020510673302471E-01  -1.1146114403661873E-01
  -1.1272812104608909E-01  -1.1400599699036688E-01  -1.1529472423179135E-01
  -1.1659424796595112E-01  -1.1790450591138177E-01  -1.1922542798885227E-01
  -1.2055693598997684E-01  -1.2189894323489296E-01  -1.2325135421872908E-01
  -1.2461406424660343E-01  -1.2598695905688359E-01  -1.2736991443243703E-01
  -1.2876279579961311E-01  -1.3016545781468544E-01  -1.3157774393749883E-01
  -1.3299948599205758E-01  -1.3443050371380433E-01  -1.3587060428333789E-01
  -1.3731958184632698E-01  -1.3877721701938445E-01  -1.4024327638167328E-01
  -1.4171751195202434E-01  -1.4319966065136130E-01  -1.4468944375023313E-01
  -1.4618656630127683E-01  -1.4769071655643848E-01  -1.4920156536880816E-01
  -1.5071876557893649E-01  -1.5224195138552027E-01  -1.5377073770037927E-01
  -1.5530471948765184E-01  -1.5684347108718552E-01  -1.5838654552211556E-01
  -1.5993347379065845E-01  -1.6148376414219423E-01  -1.6303690133773105E-01
  -1.6459234589490562E-01  -1.6614953331771090E-01  -1.6770787331118342E-01
  -1.6926674898135435E-01  -1.7082551602080237E-01  -1.7238350188022170E-01
  -1.7394000492648473E-01  -1.7549429358772997E-01  -1.7704560548610565E-01
  -1.7859314655885627E-01  -1.8013609016853269E-01  -1.8167357620320229E-01
  -1.8320471016761258E-01  -1.8472856226638237E-01  -1.8624416648038747E-01
  -1.8775051963762504E-01  -1.8924658047996623E-01  -1.9073126872731899E-01
  -1.9220346414087142E-01  -1.9366200558721527E-01  -1.9510569010529899E-01
  -1.9653327197831902E-01  -1.9794346181281225E-01  -1.9933492562738811E-01
  -2.0070628395371673E-01  -2.0205611095256934E-01  -2.0338293354790646E-01
  -2.0468523058220969E-01  -2.0596143199645853E-01  -2.0720991803837577E-01
  -2.0842901850278553E-01  -2.0961701200816590E-01  -2.1077212531371040E-01
  -2.1189253268147060E-01  -2.1297635528839301E-01  -2.1402166069333539E-01
  -2.1502646236440637E-01  -2.1598871927224605E-01  -2.1690633555514324E-01
  -2.1777716026215785E-01  -2.1859898718070850E-01  -2.1936955475536149E-01
  -2.2008654610484474E-01  -2.2074758914459616E-01  -2.2135025682243145E-01
  -2.2189206747519985E-01  -2.2237048531456272E-01  -2.2278292105029326E-01
  -2.2312673265975463E-01  -2.2339922631244355E-01  -2.2359765745871993E-01
  -2.2371923209204700E-01  -2.2376110819424880E-01  -2.2372039737345634E-01
  -2.2359416670454008E-01  -2.2337944078193170E-01  -2.2307320399479391E-01
  -2.2267240303452379E-01  -2.2217394964454809E-01  -2.2157472362229164E-01
  -2.2087157608307390E-01  -2.2006133299548869E-01  -2.1914079899756969E-01
  -2.1810676150270228E-01  -2.1695599510383501E-01  -2.1568526628404566E-01
  -2.1429133844091955E-01  -2.1277097723151628E-01  -2.1112095624390095E-01
  -2.0933806300030985E-01  -2.0741910529600180E-01  -2.0536091787668576E-01
  -2.0316036945615051E-01  -2.0081437007429545E-01  -1.9831987879421267E-01
  -1.9567391173527066E-01  -1.9287355043729557E-01  -1.8991595054895224E-01
  -1.8679835083127505E-01  -1.8351808246499760E-01  -1.8007257864786616E-01
  -1.7645938446555318E-01  -1.7267616701701480E-01  -1.6872072577229913E-01
  -1.6459100313782576E-01  -1.6028509520104600E-01  -1.5580126262327146E-01
  -1.5113794164619401E-01  -1.4629375517436935E-01  -1.4126752389226932E-01
  -1.3605827736805465E-01  -1.3066526508993456E-01  -1.2508796737913019E-01
  -1.1932610612033528E-01  -1.1337965524676251E-01  -1.0724885091295733E-01
  -1.0093420128496718E-01  -9.4436495873926857E-02  -8.7756814335865588E-02
  -8.0896534657678959E-02  -7.3857340646580116E-02  -6.6641228638306613E-02
  -5.9250513337761490E-02  -5.1687832704777656E-02  -4.3956151797457023E-02
  -3.6058765486001156E-02  -2.7999299951315410E-02  -1.9781712885004084E-02
  -1.1410292310696908E-02  -2.8896539511654631E-03   5.7752629286265582E-03
   1.4579201265395794E-02   2.3516593582836316E-02   3.2581571063069817E-02
   4.1767974337701859E-02   5.1069366019216314E-02   6.0479044979106972E-02
   6.9990062363423700E-02   7.9595239319076083E-02   8.9287186385578823E-02
   9.9058324486925087E-02   1.0890090743699725E-01   1.1880704584978113E-01
   1.2876873232251326E-01   1.3877786773629291E-01   1.4882628849487170E-01
   1.5890579449843670E-01   1.6900817762603096E-01   1.7912525047783323E-01
   1.8924887510759006E-01   1.9937099145665679E-01   2.0948364518456314E-01
   2.1957901457791154E-01   2.2964943620992331E-01   2.3968742901783036E-01
   2.4968571646545948E-01   2.5963724646380132E-01   2.6953520873429326E-01
   2.7937304931799117E-01   2.8914448195924330E-01   2.9884349612542638E-01
   3.0846436146440348E-01   3.1800162854897618E-01   3.2745012581218941E-01
   3.3680495263834120E-01   3.4606146864140364E-01   3.5521527923387064E-01
   3.6426221766365419E-01   3.7319832377285539E-01   3.8201981980778388E-01
   3.9072308368261233E-01   3.9930462016643298E-01   4.0776103052262930E-01
   4.1608898117704562E-01   4.2428517202385357E-01   4.3234630499180365E-01
   4.4026905348483697E-01   4.4805003327661752E-01   4.5568577537588062E-01
   4.6317270128777238E-01   4.7050710097743581E-01   4.7768511370123690E-01
   4.8470271171777973E-01   4.9155568673856548E-01   4.9823963890375472E-01
   5.0474996827772545E-01   5.1108186748603424E-01   5.1723031483187265E-01
   5.2319007150330132E-01   5.2895572369284827E-01   5.3452177780920562E-01
   5.3988273435472200E-01   5.4503315514243400E-01   5.4996772262102800E-01
   5.5468128874926836E-01   5.5916891245317479E-01   5.6342588614864864E-01
   5.6744775275091974E-01   5.7123031505857258E-01   5.7476963949281923E-01
   5.7806205601677607E-01   5.8110415576910002E-01   5.8389278760920071E-01
   5.8642505444451587E-01   5.8869830992534489E-01   5.9071015586198039E-01
   5.9245844054271402E-01   5.9394125800393749E-01   5.9515694821647869E-01
   5.9610409809668941E-01   5.9678154321880617E-01   5.9718837009010595E-01
   5.9732391884723213E-01   5.9718778623691227E-01   5.9677982875415869E-01
   5.9610016582397607E-01   5.9514918292703844E-01   5.9392753458481595E-01
   5.9243614713446946E-01   5.9067622123812258E-01   5.8864923408448977E-01
   5.8635694125320137E-01   5.8380137822337752E-01   5.8098486151802109E-01
   5.7790998948465533E-01   5.7457964272024142E-01   5.7099698415484490E-01
   5.6716545881370228E-01   5.6308879328120265E-01   5.5877099489285242E-01
   5.5421635068228847E-01   5.4942942610981482E-01   5.4441506359647429E-01
   5.3917838088317183E-01   5.3372476922758849E-01   5.2805989144226995E-01
   5.2218967976525155E-01   5.1612033353959097E-01   5.0985831666027581E-01
   5.0341035472625606E-01   4.9678343181199891E-01   4.8998478674783935E-01
   4.8302190877202561E-01   4.7590253239134156E-01   4.6863463126295368E-01
   4.6122641088961169E-01   4.5368629990591658E-01   4.4602293972717222E-01
   4.3824517233670179E-01   4.3036202600429785E-01   4.2238269875825668E-01
   4.1431653948999803E-01   4.0617302659598531E-01   3.9796174418126617E-01
   3.8969235589144163E-01   3.8137457654182561E-01   3.7301814179633880E-01
   3.6463277623088902E-01   3.5622816018865316E-01   3.4781389589359418E-01
   3.3939947332977743E-01   3.3099423641582487E-01   3.2260735000506441E-01
   3.1424776822317418E-01   3.0592420461843967E-01   2.9764510454762605E-01
   2.8941862015663250E-01   2.8125258824321481E-01   2.7315451121276452E-01
   2.6513154126113891E-01   2.5719046784355054E-01   2.4933770841816910E-01
   2.4157930238908051E-01   2.3392090811673430E-01   2.2636780281578261E-01
   2.1892488512034949E-01   2.1159668006527549E-01   2.0438734620829627E-01
   1.9730068460202374E-01   1.9034014931535959E-01   1.8350885920106613E-01
   1.7680961060904998E-01   1.7024489075299640E-01   1.6381689145091646E-01
   1.5752752297748557E-01   1.5137842778738381E-01   1.4537099389388206E-01
   1.3950636771506256E-01   1.3378546623098131E-01   1.2820898832806149E-01
   1.2277742524130558E-01   1.1749107003985292E-01   1.1235002613588260E-01
   1.0735421483003300E-01   1.0250338193741672E-01   9.7797103565845561E-02
   9.3234791141508497E-02   8.8815695796117033E-02   8.4538912243182218E-02
   8.0403382279348817E-02   7.6407898049511758E-02   7.2551105212200706E-02
   6.8831506134770681E-02   6.5247463236965800E-02   6.1797202587275550E-02
   5.8478817839852586E-02   5.5290274581634227E-02   5.2229415140427685E-02
   4.9293963885825041E-02   4.6481533036925655E-02   4.3789628972754943E-02
   4.1215659028742767E-02   3.8756938745413014E-02   3.6410699527305267E-02
   3.4174096659926372E-02   3.2044217625527262E-02   3.0018090653936173E-02
   2.8092693441709001E-02   2.6264961971695196E-02   2.4531799365499742E-02
   2.2890084703010901E-02   2.1336681745953785E-02   1.9868447506106904E-02
   1.8482240603185193E-02   1.7174929362262826E-02   1.5943399605823801E-02
   1.4784562100944025E-02   1.3695359627592184E-02   1.2672773639503218E-02
   1.1713830494423557E-02   1.0815607235686133E-02   9.9752369120052285E-03
   9.1899134270161491E-03   8.4568959144267139E-03   7.7735126386490857E-03
   7.1371644244398015E-03   6.5453276223983899E-03   5.9955566201362947E-03
   5.4854859115613551E-03   5.0128317390192119E-03   4.5753933250054059E-03
   4.1710537118381978E-03   3.7977802290574264E-03   3.4536246094218387E-03
   3.1367227752293510E-03   2.8452943172916395E-03   2.5776416892883311E-03
   2.3321491404121966E-03   2.1072814092178973E-03   1.9015822014243279E-03
   1.7136724740999568E-03   1.5422485482122605E-03   1.3860800709491867E-03
   1.2440078485452446E-03   1.1149415695805513E-03   9.9785743787707010E-04
       </PP_GIPAW_WFS_PS>
     </PP_GIPAW_ORBITAL.3>
   </PP_GIPAW_ORBITALS>
   <PP_GIPAW_VLOCAL>
     <PP_GIPAW_VLOCAL_AE size="1026">
   0.0000000000000000E+00  -1.2052745219082292E+01  -1.2045019167781485E+01
  -1.2045423195998367E+01  -1.2045723695469876E+01  -1.2046039294878804E+01
  -1.2046367301572783E+01  -1.2046688137099315E+01  -1.2046999579507659E+01
  -1.2047301265551235E+01  -1.2047593042097603E+01  -1.2047874727122739E+01
  -1.2048146137117785E+01  -1.2048407095775346E+01  -1.2048657435403406E+01
  -1.2048896997609422E+01  -1.2049125633845501E+01  -1.2049343206010978E+01
  -1.2049549586715013E+01  -1.2049744659949356E+01  -1.2049928321124650E+01
  -1.2050100477674677E+01  -1.2050261049137683E+01  -1.2050409967509538E+01
  -1.2050547177317965E+01  -1.2050672635948933E+01  -1.2050786313502140E+01
  -1.2050888193049344E+01  -1.2050978270663775E+01  -1.2051056555171829E+01
  -1.2051123068410215E+01  -1.2051177844871676E+01  -1.2051220931762936E+01
  -1.2051252388652820E+01  -1.2051272287432996E+01  -1.2051280712009280E+01
  -1.2051277757992409E+01  -1.2051263532491861E+01  -1.2051238153729933E+01
  -1.2051201750688929E+01  -1.2051154462759134E+01  -1.2051096439313898E+01
  -1.2051027839333612E+01  -1.2050948830901595E+01  -1.2050859590802213E+01
  -1.2050760304030804E+01  -1.2050651163297307E+01  -1.2050532368559967E+01
  -1.2050404126504995E+01  -1.2050266650039420E+01  -1.2050120157779501E+01
  -1.2049964873540528E+01  -1.2049801025814928E+01  -1.2049628847223575E+01
  -1.2049448574091286E+01  -1.2049260445816349E+01  -1.2049064704463566E+01
  -1.2048861594223176E+01  -1.2048651360931977E+01  -1.2048434251586059E+01
  -1.2048210513905868E+01  -1.2047980395824089E+01  -1.2047744145118100E+01
  -1.2047502008909484E+01  -1.2047254233323690E+01  -1.2047001063035333E+01
  -1.2046742740924063E+01  -1.2046479507711975E+01  -1.2046211601602245E+01
  -1.2045939257979034E+01  -1.2045662709080803E+01  -1.2045382183722893E+01
  -1.2045097907029566E+01  -1.2044810100178879E+01  -1.2044518980175891E+01
  -1.2044224759638634E+01  -1.2043927646609113E+01  -1.2043627844366599E+01
  -1.2043325551284415E+01  -1.2043020960684231E+01  -1.2042714260707484E+01
  -1.2042405634229022E+01  -1.2042095258733349E+01  -1.2041783306289904E+01
  -1.2041469943451649E+01  -1.2041155331234682E+01  -1.2040839625080899E+01
  -1.2040522974842181E+01  -1.2040205524786952E+01  -1.2039887413612682E+01
  -1.2039568774426414E+01  -1.2039249734828312E+01  -1.2038930416928332E+01
  -1.2038610937390480E+01  -1.2038291407521465E+01  -1.2037971933299971E+01
  -1.2037652615481672E+01  -1.2037333549650263E+01  -1.2037014826365521E+01
  -1.2036696531190096E+01  -1.2036378744817579E+01  -1.2036061543170730E+01
  -1.2035744997522713E+01  -1.2035429174616224E+01  -1.2035114136708840E+01
  -1.2034799941772562E+01  -1.2034486643553741E+01  -1.2034174291761460E+01
  -1.2033862932069159E+01  -1.2033552606374386E+01  -1.2033243352798175E+01
  -1.2032935205878118E+01  -1.2032628196686019E+01  -1.2032322352929858E+01
  -1.2032017699035011E+01  -1.2031714256328899E+01  -1.2031412043131771E+01
  -1.2031111074886473E+01  -1.2030811364165757E+01  -1.2030512921013319E+01
  -1.2030215752732664E+01  -1.2029919864343738E+01  -1.2029625258370732E+01
  -1.2029331935184487E+01  -1.2029039892917730E+01  -1.2028749127700776E+01
  -1.2028459633681214E+01  -1.2028171403147638E+01  -1.2027884426516144E+01
  -1.2027598692667258E+01  -1.2027314188640032E+01  -1.2027030900154163E+01
  -1.2026748811280788E+01  -1.2026467904837807E+01  -1.2026188162191959E+01
  -1.2025909563582527E+01  -1.2025632087968431E+01  -1.2025355713265679E+01
  -1.2025080416194999E+01  -1.2024806172627278E+01  -1.2024532957355248E+01
  -1.2024260744354551E+01  -1.2023989506698182E+01  -1.2023719216688287E+01
  -1.2023449845825562E+01  -1.2023181364978640E+01  -1.2022913744235407E+01
  -1.2022646953158867E+01  -1.2022380960637655E+01  -1.2022115735022371E+01
  -1.2021851244114041E+01  -1.2021587455300702E+01  -1.2021324335384950E+01
  -1.2021061850780983E+01  -1.2020799967502706E+01  -1.2020538651150943E+01
  -1.2020277866983928E+01  -1.2020017579870967E+01  -1.2019757754370026E+01
  -1.2019498354763424E+01  -1.2019239345005305E+01  -1.2018980688770633E+01
  -1.2018722349537242E+01  -1.2018464290437537E+01  -1.2018206474440889E+01
  -1.2017948864294063E+01  -1.2017691422463262E+01  -1.2017434111330328E+01
  -1.2017176892972678E+01  -1.2016919729310471E+01  -1.2016662582159423E+01
  -1.2016405413021953E+01  -1.2016148183396806E+01  -1.2015890854491987E+01
  -1.2015633387405462E+01  -1.2015375743115209E+01  -1.2015117882343237E+01
  -1.2014859765804427E+01  -1.2014601353969223E+01  -1.2014342607149356E+01
  -1.2014083485600478E+01  -1.2013823949327998E+01  -1.2013563958298290E+01
  -1.2013303472229692E+01  -1.2013042450748829E+01  -1.2012780853360750E+01
  -1.2012518639305748E+01  -1.2012255767832590E+01  -1.2011992197920906E+01
  -1.2011727888391503E+01  -1.2011462797985427E+01  -1.2011196885198485E+01
  -1.2010930108427397E+01  -1.2010662425811036E+01  -1.2010393795407079E+01
  -1.2010124175030819E+01  -1.2009853522340215E+01  -1.2009581794786055E+01
  -1.2009308949674956E+01  -1.2009034944013202E+01  -1.2008759734741259E+01
  -1.2008483278442762E+01  -1.2008205531636293E+01  -1.2007926450505567E+01
  -1.2007645991030271E+01  -1.2007364109025222E+01  -1.2007080759975221E+01
  -1.2006795899197257E+01  -1.2006509481717799E+01  -1.2006221462281696E+01
  -1.2005931795464081E+01  -1.2005640435437266E+01  -1.2005347336246080E+01
  -1.2005052451527865E+01  -1.2004755734651988E+01  -1.2004457138793276E+01
  -1.2004156616685616E+01  -1.2003854120810230E+01  -1.2003549603361510E+01
  -1.2003243016135611E+01  -1.2002934310675576E+01  -1.2002623438100809E+01
  -1.2002310349263759E+01  -1.2001994994580231E+01  -1.2001677324155201E+01
  -1.2001357287729066E+01  -1.2001034834599174E+01  -1.2000709913743563E+01
  -1.2000382473701343E+01  -1.2000052462611816E+01  -1.1999719828245610E+01
  -1.1999384517867465E+01  -1.1999046478405564E+01  -1.1998705656277787E+01
  -1.1998361997468862E+01  -1.1998015447580023E+01  -1.1997665951630445E+01
  -1.1997313454242983E+01  -1.1996957899556019E+01  -1.1996599231174853E+01
  -1.1996237392260864E+01  -1.1995872325424697E+01  -1.1995503972737728E+01
  -1.1995132275831137E+01  -1.1994757175698734E+01  -1.1994378612852964E+01
  -1.1993996527223317E+01  -1.1993610858158501E+01  -1.1993221544481449E+01
  -1.1992828524352861E+01  -1.1992431735425168E+01  -1.1992031114673679E+01
  -1.1991626598469400E+01  -1.1991218122605382E+01  -1.1990805622164643E+01
  -1.1990389031634702E+01  -1.1989968284832308E+01  -1.1989543314870499E+01
  -1.1989114054239874E+01  -1.1988680434693828E+01  -1.1988242387299321E+01
  -1.1987799842416766E+01  -1.1987352729642893E+01  -1.1986900977908620E+01
  -1.1986444515317414E+01  -1.1985983269272236E+01  -1.1985517166363090E+01
  -1.1985046132415226E+01  -1.1984570092458707E+01  -1.1984088970720997E+01
  -1.1983602690565338E+01  -1.1983111174585799E+01  -1.1982614344471461E+01
  -1.1982112121096000E+01  -1.1981604424437016E+01  -1.1981091173578593E+01
  -1.1980572286742888E+01  -1.1980047681183258E+01  -1.1979517273285648E+01
  -1.1978980978469924E+01  -1.1978438711170856E+01  -1.1977890384921228E+01
  -1.1977335912218017E+01  -1.1976775204588439E+01  -1.1976208172541567E+01
  -1.1975634725543152E+01  -1.1975054772061466E+01  -1.1974468219458572E+01
  -1.1973874974062220E+01  -1.1973274941101556E+01  -1.1972668024686239E+01
  -1.1972054127843323E+01  -1.1971433152435864E+01  -1.1970804999187679E+01
  -1.1970169567655120E+01  -1.1969526756214155E+01  -1.1968876462032561E+01
  -1.1968218581066697E+01  -1.1967553008040765E+01  -1.1966879636424617E+01
  -1.1966198358406592E+01  -1.1965509064913762E+01  -1.1964811645539141E+01
  -1.1964105988580052E+01  -1.1963391980969060E+01  -1.1962669508278728E+01
  -1.1961938454726425E+01  -1.1961198703101255E+01  -1.1960450134785670E+01
  -1.1959692629730718E+01  -1.1958926066414211E+01  -1.1958150321851864E+01
  -1.1957365271545873E+01  -1.1956570789496226E+01  -1.1955766748144910E+01
  -1.1954953018378122E+01  -1.1954129469514884E+01  -1.1953295969245941E+01
  -1.1952452383650888E+01  -1.1951598577158615E+01  -1.1950734412517209E+01
  -1.1949859750808379E+01  -1.1948974451358522E+01  -1.1948078371787815E+01
  -1.1947171367921593E+01  -1.1946253293840130E+01  -1.1945324001769819E+01
  -1.1944383342131424E+01  -1.1943431163460296E+01  -1.1942467312419961E+01
  -1.1941491633775433E+01  -1.1940503970321494E+01  -1.1939504162926184E+01
  -1.1938492050448520E+01  -1.1937467469731063E+01  -1.1936430255581557E+01
  -1.1935380240742367E+01  -1.1934317255833566E+01  -1.1933241129392540E+01
  -1.1932151687766771E+01  -1.1931048755139869E+01  -1.1929932153478708E+01
  -1.1928801702508387E+01  -1.1927657219695496E+01  -1.1926498520189959E+01
  -1.1925325416838335E+01  -1.1924137720101363E+01  -1.1922935238058951E+01
  -1.1921717776372578E+01  -1.1920485138236154E+01  -1.1919237124383937E+01
  -1.1917973533000209E+01  -1.1916694159742979E+01  -1.1915398797672697E+01
  -1.1914087237231463E+01  -1.1912759266216639E+01  -1.1911414669742204E+01
  -1.1910053230180043E+01  -1.1908674727178251E+01  -1.1907278937571160E+01
  -1.1905865635371370E+01  -1.1904434591731572E+01  -1.1902985574897663E+01
  -1.1901518350190466E+01  -1.1900032679942454E+01  -1.1898528323490060E+01
  -1.1897005037107469E+01  -1.1895462573979392E+01  -1.1893900684174092E+01
  -1.1892319114576219E+01  -1.1890717608885083E+01  -1.1889095907534585E+01
  -1.1887453747680139E+01  -1.1885790863141592E+01  -1.1884106984377789E+01
  -1.1882401838425052E+01  -1.1880675148879819E+01  -1.1878926635820301E+01
  -1.1877156015815777E+01  -1.1875363001820515E+01  -1.1873547303181336E+01
  -1.1871708625569863E+01  -1.1869846670930158E+01  -1.1867961137471211E+01
  -1.1866051719568103E+01  -1.1864118107763723E+01  -1.1862159988689168E+01
  -1.1860177045037341E+01  -1.1858168955510628E+01  -1.1856135394763431E+01
  -1.1854076033379648E+01  -1.1851990537790002E+01  -1.1849878570252537E+01
  -1.1847739788790623E+01  -1.1845573847146488E+01  -1.1843380394725017E+01
  -1.1841159076565001E+01  -1.1838909533257983E+01  -1.1836631400927004E+01
  -1.1834324311154905E+01  -1.1831987890940910E+01  -1.1829621762655723E+01
  -1.1827225543973096E+01  -1.1824798847843308E+01  -1.1822341282411248E+01
  -1.1819852450986636E+01  -1.1817331951978948E+01  -1.1814779378846845E+01
  -1.1812194320056363E+01  -1.1809576359007512E+01  -1.1806925073990660E+01
  -1.1804240038143629E+01  -1.1801520819374700E+01  -1.1798766980327061E+01
  -1.1795978078318564E+01  -1.1793153665279027E+01  -1.1790293287721674E+01
  -1.1787396486650900E+01  -1.1784462797540717E+01  -1.1781491750263946E+01
  -1.1778482869035962E+01  -1.1775435672374190E+01  -1.1772349673026095E+01
  -1.1769224377932526E+01  -1.1766059288155926E+01  -1.1762853898837914E+01
  -1.1759607699142295E+01  -1.1756320172201027E+01  -1.1752990795056101E+01
  -1.1749619038621541E+01  -1.1746204367606014E+01  -1.1742746240485140E+01
  -1.1739244109429016E+01  -1.1735697420262925E+01  -1.1732105612413591E+01
  -1.1728468118848500E+01  -1.1724784366046359E+01  -1.1721053773922169E+01
  -1.1717275755794580E+01  -1.1713449718333294E+01  -1.1709575061504820E+01
  -1.1705651178540277E+01  -1.1701677455869330E+01  -1.1697653273091941E+01
  -1.1693578002922484E+01  -1.1689451011149130E+01  -1.1685271656594262E+01
  -1.1681039291071267E+01  -1.1676753259337005E+01  -1.1672412899069027E+01
  -1.1668017540806920E+01  -1.1663566507931858E+01  -1.1659059116624345E+01
  -1.1654494675826239E+01  -1.1649872487221906E+01  -1.1645191845189752E+01
  -1.1640452036790361E+01  -1.1635652341723448E+01  -1.1630792032315089E+01
  -1.1625870373485125E+01  -1.1620886622727456E+01  -1.1615840030099147E+01
  -1.1610729838186648E+01  -1.1605555282105030E+01  -1.1600315589475031E+01
  -1.1595009980421356E+01  -1.1589637667551919E+01  -1.1584197855969865E+01
  -1.1578689743250223E+01  -1.1573112519458835E+01  -1.1567465367142116E+01
  -1.1561747461334438E+01  -1.1555957969573413E+01  -1.1550096051902621E+01
  -1.1544160860895774E+01  -1.1538151541665240E+01  -1.1532067231893070E+01
  -1.1525907061848015E+01  -1.1519670154419247E+01  -1.1513355625148568E+01
  -1.1506962582263220E+01  -1.1500490126723598E+01  -1.1493937352258749E+01
  -1.1487303345419623E+01  -1.1480587185632135E+01  -1.1473787945252896E+01
  -1.1466904689629503E+01  -1.1459936477172123E+01  -1.1452882359414433E+01
  -1.1445741381101987E+01  -1.1438512580259253E+01  -1.1431194988284513E+01
  -1.1423787630036575E+01  -1.1416289523928016E+01  -1.1408699682033973E+01
  -1.1401017110186647E+01  -1.1393240808097474E+01  -1.1385369769466305E+01
  -1.1377402982107881E+01  -1.1369339428081469E+01  -1.1361178083820120E+01
  -1.1352917920272308E+01  -1.1344557903052850E+01  -1.1336096992585414E+01
  -1.1327534144265430E+01  -1.1318868308624356E+01  -1.1310098431495764E+01
  -1.1301223454196222E+01  -1.1292242313701466E+01  -1.1283153942839759E+01
  -1.1273957270482910E+01  -1.1264651221747059E+01  -1.1255234718203228E+01
  -1.1245706678083570E+01  -1.1236066016509792E+01  -1.1226311645708945E+01
  -1.1216442475250629E+01  -1.1206457412283164E+01  -1.1196355361778261E+01
  -1.1186135226776651E+01  -1.1175795908649908E+01  -1.1165336307354256E+01
  -1.1154755321704366E+01  -1.1144051849638895E+01  -1.1133224788502897E+01
  -1.1122273035329389E+01  -1.1111195487124828E+01  -1.1099991041167527E+01
  -1.1088658595297053E+01  -1.1077197048223287E+01  -1.1065605299827524E+01
  -1.1053882251473526E+01  -1.1042026806323502E+01  -1.1030037869649654E+01
  -1.1017914349159982E+01  -1.1005655155314438E+01  -1.0993259201654856E+01
  -1.0980725405128057E+01  -1.0968052686414707E+01  -1.0955239970258599E+01
  -1.0942286185798213E+01  -1.0929190266891574E+01  -1.0915951152450658E+01
  -1.0902567786766424E+01  -1.0889039119837213E+01  -1.0875364107694192E+01
  -1.0861541712720539E+01  -1.0847570903976411E+01  -1.0833450657506505E+01
  -1.0819179956656223E+01  -1.0804757792374238E+01  -1.0790183163511527E+01
  -1.0775455077116078E+01  -1.0760572548714592E+01  -1.0745534602591494E+01
  -1.0730340272054017E+01  -1.0714988599693028E+01  -1.0699478637625752E+01
  -1.0683809447734291E+01  -1.0667980101885064E+01  -1.0651989682142073E+01
  -1.0635837280955728E+01  -1.0619522001347889E+01  -1.0603042957071370E+01
  -1.0586399272757264E+01  -1.0569590084044606E+01  -1.0552614537684828E+01
  -1.0535471791637118E+01  -1.0518161015129728E+01  -1.0500681388710936E+01
  -1.0483032104270738E+01  -1.0465212365039378E+01  -1.0447221385565891E+01
  -1.0429058391663778E+01  -1.0410722620335919E+01  -1.0392213319672704E+01
  -1.0373529748716932E+01  -1.0354671177305798E+01  -1.0335636885882030E+01
  -1.0316426165271601E+01  -1.0297038316438371E+01  -1.0277472650198785E+01
  -1.0257728486913239E+01  -1.0237805156141581E+01  -1.0217701996266836E+01
  -1.0197418354090903E+01  -1.0176953584391283E+01  -1.0156307049454897E+01
  -1.0135478118571967E+01  -1.0114466167505244E+01  -1.0093270577925574E+01
  -1.0071890736819018E+01  -1.0050326035862939E+01  -1.0028575870780777E+01
  -1.0006639640660502E+01  -9.9845167472590326E+00  -9.9622065942759370E+00
  -9.9397085866101946E+00  -9.9170221295990650E+00  -9.8941466282363741E+00
  -9.8710814863850711E+00  -9.8478261059722563E+00  -9.8243798861843032E+00
  -9.8007422226554759E+00  -9.7769125066596203E+00  -9.7528901243104542E+00
  -9.7286744557661589E+00  -9.7042648744589872E+00  -9.6796607463398150E+00
  -9.6548614291548649E+00  -9.6298662717532650E+00  -9.6046746134391707E+00
  -9.5792857833674461E+00  -9.5536990999983402E+00  -9.5279138706123376E+00
  -9.5019293908956612E+00  -9.4757449446064346E+00  -9.4493598033240964E+00
  -9.4227732262989647E+00  -9.3959844603976084E+00  -9.3689927401678972E+00
  -9.3417972880168083E+00  -9.3143973145184589E+00  -9.2867920188561506E+00
  -9.2589805894022810E+00  -9.2309622044476587E+00  -9.2027360330770058E+00
  -9.1743012362005061E+00  -9.1456569677387058E+00  -9.1168023759597450E+00
  -9.0877366049694004E+00  -9.0584587963444747E+00  -9.0289680909010794E+00
  -8.9992636305894731E+00  -8.9693445604922957E+00  -8.9392100309128111E+00
  -8.9088591995222419E+00  -8.8782912335387341E+00  -8.8475053119023137E+00
  -8.8165006274002806E+00  -8.7852763887023055E+00  -8.7538318222463687E+00
  -8.7221661739193710E+00  -8.6902787104725689E+00  -8.6581687205932010E+00
  -8.6258355155757904E+00  -8.5932784295157543E+00  -8.5604968189453086E+00
  -8.5274900618677645E+00  -8.4942575561110267E+00  -8.4607987169648524E+00
  -8.4271129740859578E+00  -8.3931997676517902E+00  -8.3590585438188274E+00
  -8.3246887495587636E+00  -8.2900898270019852E+00  -8.2552612075169396E+00
  -8.2202023057870619E+00  -8.1849125142933872E+00  -8.1493911986993304E+00
  -8.1136376947545070E+00  -8.0776513075101057E+00  -8.0414313137573004E+00
  -8.0049769687784753E+00  -7.9682875186779096E+00  -7.9313622196651190E+00
  -7.8942003659360962E+00  -7.8568013272826409E+00  -7.8191645995747177E+00
  -7.7812898672263353E+00  -7.7431770817508321E+00  -7.7048265559242841E+00
  -7.6662390749151967E+00  -7.6274160243309970E+00  -7.5883595344315795E+00
  -7.5490726386209968E+00  -7.5095594430462373E+00  -7.4698253026466030E+00
  -7.4298769973684733E+00  -7.3897229006125702E+00  -7.3493731304267431E+00
  -7.3088396725739093E+00  -7.2681364636694319E+00  -7.2272794221428009E+00
  -7.1862864149843393E+00  -7.1451771493039065E+00  -7.1039729794802575E+00
  -7.0626966233130952E+00  -7.0213717839319223E+00  -6.9800226780905401E+00
  -6.9386734759819939E+00  -6.8973476625503611E+00  -6.8560673355218107E+00
  -6.8148524611156720E+00  -6.7737201143704748E+00  -6.7326837373497659E+00
  -6.6917524546075819E+00  -6.6509304904111337E+00  -6.6102167353648644E+00
  -6.5696045094833586E+00  -6.5290815631485959E+00  -6.4886303455700718E+00
  -6.4482285520069622E+00  -6.4078499374895186E+00  -6.3674653584622067E+00
  -6.3270439785588026E+00  -6.2865545550384718E+00  -6.2459667118357585E+00
  -6.2052521062659576E+00  -6.1643854091740646E+00  -6.1233450405825822E+00
  -6.0821136308884931E+00  -6.0406782066160050E+00  -5.9990301252616094E+00
  -5.9571648028301754E+00  -5.9150812884686772E+00  -5.8727817435236496E+00
  -5.8302708785544768E+00  -5.7875553934227719E+00  -5.7446434548508067E+00
  -5.7015442345534346E+00  -5.6582675207460325E+00  -5.6148234073124996E+00
  -5.5712220584674084E+00  -5.5274735424120029E+00  -5.4835877249527822E+00
  -5.4395742129031408E+00  -5.3954423370485305E+00  -5.3512011650565228E+00
  -5.3068595357129604E+00  -5.2624261071220726E+00  -5.2179094127170025E+00
  -5.1733179201808133E+00  -5.1286600894668171E+00  -5.0839444270852665E+00
  -5.0391795346821846E+00  -4.9943741506241910E+00  -4.9495371838766760E+00
  -4.9046777399424801E+00  -4.8598051389445160E+00  -4.8149289262233568E+00
  -4.7700588760049651E+00  -4.7252049887750642E+00  -4.6803774831143583E+00
  -4.6355867827253370E+00  -4.5908434993851017E+00  -4.5461584125472969E+00
  -4.5015424462188136E+00  -4.4570066437227149E+00  -4.4125621408718958E+00
  -4.3682201380000247E+00  -4.3239918712684560E+00  -4.2798885835667040E+00
  -4.2359214952886282E+00  -4.1921017752343870E+00  -4.1484405117958021E+00
  -4.1049486846034311E+00  -4.0616371367472484E+00  -4.0185165476546247E+00
  -3.9755974067271111E+00  -3.9328899877695607E+00  -3.8904043242718616E+00
  -3.8481501855872713E+00  -3.8061370540210224E+00  -3.7643741028756188E+00
  -3.7228701754696036E+00  -3.6816337651461164E+00  -3.6406729963169222E+00
  -3.5999956065380001E+00  -3.5596089296628715E+00  -3.5195198800984153E+00
  -3.4797349381734088E+00  -3.4402601366813323E+00  -3.4011010486033419E+00
  -3.3622627760588517E+00  -3.3237499405303335E+00  -3.2855666743863750E+00
  -3.2477166137628668E+00  -3.2102028928494826E+00  -3.1730281396257078E+00
  -3.1361944731174725E+00  -3.0997035022344481E+00  -3.0635563262495840E+00
  -3.0277535370206285E+00  -2.9922952230133233E+00  -2.9571809752479470E+00
  -2.9224098952610049E+00  -2.8879806052015264E+00  -2.8538912602052320E+00
  -2.8201395631782411E+00  -2.7867227821557274E+00  -2.7536377704155384E+00
  -2.7208809895203507E+00  -2.6884485354996697E+00  -2.6563361683935445E+00
  -2.6245393451857062E+00  -2.5930532572583451E+00  -2.5618728700532913E+00
  -2.5309929695432252E+00  -2.5004082102449434E+00  -2.4701131698235530E+00
  -2.4401024068576338E+00  -2.4103705234594188E+00  -2.3809122319414646E+00
  -2.3517224252802302E+00  -2.3227962507887794E+00  -2.2941291861970079E+00
  -2.2657171170643706E+00  -2.2375564141084108E+00  -2.2096440087291258E+00
  -2.1819774646056556E+00  -2.1545550428752400E+00  -2.1273757580451784E+00
  -2.1004394214050426E+00  -2.0737466684401915E+00  -2.0472989665066930E+00
  -2.0210985988942340E+00  -1.9951486214408971E+00  -1.9694527879915542E+00
  -1.9440154413491126E+00  -1.9188413668958189E+00  -1.8939356067688105E+00
  -1.8693032334308999E+00  -1.8449490825976411E+00  -1.8208774468382865E+00
  -1.7970917327833715E+00  -1.7735940867448532E+00  -1.7503849958775792E+00
  -1.7274628748847520E+00  -1.7048236519783233E+00  -1.6824603727423393E+00
  -1.6603628471069747E+00  -1.6385173734092595E+00  -1.6169065849711519E+00
  -1.5955094790862552E+00  -1.5743017056786370E+00  -1.5532562121678222E+00
  -1.5323443597785973E+00  -1.5115376400928535E+00  -1.4908101213867482E+00
  -1.4701417312355218E+00  -1.4495224205629513E+00  -1.4289571387196962E+00
  -1.4084713658070671E+00  -1.3881166937540177E+00  -1.3679756392924181E+00
  -1.3481645615210651E+00  -1.3288333388692886E+00  -1.3101604690020323E+00
  -1.2923426356340000E+00  -1.2755786290134601E+00  -1.2600487964696072E+00
  -1.2458926177218896E+00  -1.2331882607179074E+00  -1.2219383002438295E+00
  -1.2120650699610214E+00  -1.2034171763009558E+00  -1.1957861720635483E+00
  -1.1889300596319881E+00  -1.1825989699953905E+00  -1.1765584114521301E+00
  -1.1706067143893277E+00  -1.1645851296951644E+00  -1.1583808020582897E+00
  -1.1519240695902417E+00  -1.1451820829117918E+00  -1.1381506926434874E+00
  -1.1308461519628747E+00  -1.1232976504288699E+00  -1.1155412003936931E+00
  -1.1076150202840613E+00  -1.0995563179161401E+00  -1.0913992529334795E+00
  -1.0831738172246905E+00  -1.0749053831225897E+00  -1.0666147057359343E+00
  -1.0583182105992242E+00  -1.0500284411496563E+00  -1.0417545775905801E+00
  -1.0335029680054395E+00  -1.0252776345884891E+00  -1.0170807335679106E+00
  -1.0089129582070542E+00  -1.0007738814418208E+00  -9.9266223918581020E-01
  -9.8457615802536980E-01  -9.7651333244942939E-01  -9.6847115734167810E-01
  -9.6044682156991290E-01  -9.5243736825108605E-01  -9.4443972685630950E-01
  -9.3645072183154499E-01  -9.2846706188092298E-01  -9.2048531355844665E-01
  -9.1250186239528874E-01  -9.0451286437898237E-01  -8.9651419036241153E-01
  -8.8850136575168326E-01  -8.8046950775247079E-01  -8.7241326247956319E-01
  -8.6432674432607770E-01  -8.5620348023842185E-01  -8.4803636184248721E-01
  -8.3981760874490352E-01  -8.3153874679269313E-01  -8.2319060551436851E-01
  -8.1476333937912238E-01  -8.0624647786455172E-01  -7.9762900943354786E-01
  -7.8889950442803358E-01  -7.8004628141205801E-01  -7.7105762050870175E-01
  -7.6192202583106361E-01  -7.5262853696011967E-01  -7.4316708672005372E-01
  -7.3352889924449483E-01  -7.2370691862028391E-01  -7.1369625459062369E-01
  -7.0349462801530516E-01  -6.9310279675507402E-01  -6.8252493436940220E-01
  -6.7176895232899547E-01  -6.6084672084290030E-01  -6.4977419140153236E-01
  -6.3857139167085153E-01  -6.2726228884221935E-01  -6.1587451834012719E-01
  -6.0443898322862333E-01  -5.9298933679851007E-01  -5.8156136702602179E-01
  -5.7019230640170704E-01  -5.5892009360784090E-01  -5.4778261456465205E-01
  -5.3681694958708703E-01  -5.2605865101133531E-01  -5.1554107210555900E-01
  -5.0529476380220295E-01  -4.9534695122960332E-01  -4.8572109758888049E-01
  -4.7643655890966768E-01  -4.6750832984885143E-01  -4.5894687806118623E-01
  -4.5075806280282033E-01  -4.4294313226274767E-01  -4.3549879355334886E-01
  -4.2841734920608648E-01  -4.2168689424870542E-01  -4.1529156835329095E-01
  -4.0921185800974663E-01  -4.0342494405164847E-01  -3.9790509009914687E-01
  -3.9262406746303058E-01  -3.8755161178578562E-01  -3.8265590616428441E-01
  -3.7790408471802073E-01  -3.7326274963087053E-01  -3.6869849367093727E-01
  -3.6417841919548438E-01  -3.5967064381812447E-01  -3.5514478235483882E-01
  -3.5057239449651645E-01  -3.4592738797052591E-01  -3.4118636777807465E-01
  -3.3632892344828325E-01  -3.3133784808054934E-01  -3.2619928514427021E-01
  -3.2090280146648004E-01  -3.1544138737614913E-01  -3.0981138744713449E-01
  -3.0401236752628413E-01  -2.9804692561374874E-01  -2.9192045559290564E-01
  -2.8564087372531266E-01  -2.7921831822074439E-01  -2.7266483209900488E-01
  -2.6599403902808316E-01  -2.5922082094133359E-01  -2.5236100500725683E-01
  -2.4543106639720358E-01  -2.3844785555040338E-01  -2.3142833381209271E-01
  -2.2438937006996412E-01  -2.1734752326380702E-01  -2.1031888540758370E-01
  -2.0331893756202105E-01  -1.9636243622692862E-01  -1.8946332401124549E-01
  -1.8263466308144569E-01  -1.7588858907472196E-01  -1.6923628311070374E-01
  -1.6268795953432619E-01  -1.5625286709147609E-01  -1.4993930136136960E-01
  -1.4375462642800615E-01  -1.3770530395407418E-01  -1.3179692801347198E-01
  -1.2603426423359781E-01  -1.2042129198951169E-01  -1.1496124857392864E-01
  -1.0965667443621122E-01  -1.0450945873835427E-01  -9.9520884615126648E-02
  -9.4691673648781616E-02  -9.0022029176603804E-02  -8.5511678142428771E-02
  -8.1159911282437783E-02  -7.6965621502033024E-02  -7.2927340355648462E-02
  -6.9043272586348806E-02  -6.5311328718146711E-02  -6.1729155722307277E-02
  -5.8294165800733856E-02  -5.5003563345665654E-02  -5.1854370146421705E-02
  -4.8843448921578402E-02  -4.5967525259390143E-02  -4.3223208051244959E-02
  -4.0607008502875401E-02  -3.8115357806445975E-02  -3.5744623553943582E-02
  -3.3491124968709235E-02  -3.1351147027889409E-02  -2.9320953544140847E-02
  -2.7396799270355387E-02  -2.5574941086598114E-02  -2.3851648323954151E-02
     </PP_GIPAW_VLOCAL_AE>
     <PP_GIPAW_VLOCAL_PS size="1026">
   0.0000000000000000E+00  -1.2156021897429890E-03  -1.2332790503330267E-03
  -1.2485677843125185E-03  -1.2643392423943693E-03  -1.2802467327036491E-03
  -1.2963496866629117E-03  -1.3126564373734551E-03  -1.3291671379018397E-03
  -1.3458863674423733E-03  -1.3628157077299539E-03  -1.3799572967254151E-03
  -1.3973153447640609E-03  -1.4148914809397365E-03  -1.4326887531165913E-03
  -1.4507096620636089E-03  -1.4689574608800914E-03  -1.4874345376549344E-03
  -1.5061443798218305E-03  -1.5250891467118511E-03  -1.5442726554984673E-03
  -1.5636969861742174E-03  -1.5833661646762560E-03  -1.6032823827170591E-03
  -1.6234492990970860E-03  -1.6438696971908160E-03  -1.6645469949316618E-03
  -1.6854846466851391E-03  -1.7066853056047692E-03  -1.7281527548613583E-03
  -1.7498904318850558E-03  -1.7719013596514223E-03  -1.7941890403059837E-03
  -1.8167571055120370E-03  -1.8396092478993023E-03  -1.8627488178598814E-03
  -1.8861790371195006E-03  -1.9099045161226535E-03  -1.9339282562238574E-03
  -1.9582538790965599E-03  -1.9828857347475885E-03  -2.0078274534922193E-03
  -2.0330828516714051E-03  -2.0586558338364959E-03  -2.0845506363255930E-03
  -2.1107710075995035E-03  -2.1373213245156684E-03  -2.1642054775996215E-03
  -2.1914279494543660E-03  -2.2189924990112203E-03  -2.2469043265150685E-03
  -2.2751667241941360E-03  -2.3037848145212774E-03  -2.3327630097356648E-03
  -2.3621053874047795E-03  -2.3918171000447391E-03  -2.4219027063309018E-03
  -2.4523661295184347E-03  -2.4832132397260829E-03  -2.5144484542028427E-03
  -2.5460760827137807E-03  -2.5781018970794265E-03  -2.6105304277004391E-03
  -2.6433669329436341E-03  -2.6766162918649334E-03  -2.7102841518825459E-03
  -2.7443751259585395E-03  -2.7788953278968069E-03  -2.8138494395218931E-03
  -2.8492433997316744E-03  -2.8850823700360077E-03  -2.9213723402479633E-03
  -2.9581187082576600E-03  -2.9953272815264813E-03  -3.0330037444797342E-03
  -3.0711542858947714E-03  -3.1097847797510471E-03  -3.1489010189484508E-03
  -3.1885093065718026E-03  -3.2286157661793715E-03  -3.2692268634609699E-03
  -3.3103486978088275E-03  -3.3519877405011702E-03  -3.3941504525908323E-03
  -3.4368437509664203E-03  -3.4800739992357282E-03  -3.5238478712937261E-03
  -3.5681723402790147E-03  -3.6130544933480140E-03  -3.6585011390560867E-03
  -3.7045194977682826E-03  -3.7511165482619121E-03  -3.7982998094905946E-03
  -3.8460765253142278E-03  -3.8944542799129898E-03  -3.9434404145242252E-03
  -3.9930429034514565E-03  -4.0432690703097393E-03  -4.0941272149822737E-03
  -4.1456249982859258E-03  -4.1977705633062523E-03  -4.2505720083521022E-03
  -4.3040376432119535E-03  -4.3581756946744921E-03  -4.4129949795889455E-03
  -4.4685034538586160E-03  -4.5247104053728936E-03  -4.5816242037099867E-03
  -4.6392539543719186E-03  -4.6976086453190584E-03  -4.7566972275180086E-03
  -4.8165291392624522E-03  -4.8771135741336137E-03  -4.9384601933374029E-03
  -5.0005783354571086E-03  -5.0634779059746931E-03  -5.1271684962362852E-03
  -5.1916605345891037E-03  -5.2569634045589921E-03  -5.3230879729069787E-03
  -5.3900441456849225E-03  -5.4578425432283096E-03  -5.5264937447473666E-03
  -5.5960084853830371E-03  -5.6663976276479710E-03  -5.7376721227992101E-03
  -5.8098430714269038E-03  -5.8829220080196332E-03  -5.9569199713785459E-03
  -6.0318488481790238E-03  -6.1077201268090811E-03  -6.1845458038064854E-03
  -6.2623377686024774E-03  -6.3411083593232003E-03  -6.4208695723344767E-03
  -6.5016342375111124E-03  -6.5834146193893116E-03  -6.6662238803063267E-03
  -6.7500745951078415E-03  -6.8349800700000891E-03  -6.9209535114125344E-03
  -7.0080084012719987E-03  -7.0961582416427084E-03  -7.1854169730988047E-03
  -7.2757983190086294E-03  -7.3673165880733128E-03  -7.4599859978125354E-03
  -7.5538210684798438E-03  -7.6488364390536814E-03  -7.7450469564499282E-03
  -7.8424675038070921E-03  -7.9411136993457910E-03  -8.0410005647805309E-03
  -8.1421438429272550E-03  -8.2445593996711749E-03  -8.3482631349441477E-03
  -8.4532713367078995E-03  -8.5596004211976554E-03  -8.6672668293521198E-03
  -8.7762876690340302E-03  -8.8866796953531862E-03  -8.9984603059487817E-03
  -9.1116469924267009E-03  -9.2262573522574765E-03  -9.3423093036012674E-03
  -9.4598211362419034E-03  -9.5788109131577683E-03  -9.6992974785179639E-03
  -9.8212996169394755E-03  -9.9448362621074125E-03  -1.0069926876184339E-02
  -1.0196590861927545E-02  -1.0324848156460315E-02  -1.0454718694093182E-02
  -1.0586222764942650E-02  -1.0719381088634728E-02  -1.0854214111096652E-02
  -1.0990743288857794E-02  -1.1128989767445399E-02  -1.1268975117465638E-02
  -1.1410721299892559E-02  -1.1554250393062581E-02  -1.1699584905470184E-02
  -1.1846747485385674E-02  -1.1995761077126254E-02  -1.2146649153479187E-02
  -1.2299435013544026E-02  -1.2454142754455423E-02  -1.2610796525788918E-02
  -1.2769420634756496E-02  -1.2930040084299724E-02  -1.3092679800146657E-02
  -1.3257365350834023E-02  -1.3424122320764661E-02  -1.3592976849547475E-02
  -1.3763955282005575E-02  -1.3937084373168084E-02  -1.4112391166436178E-02
  -1.4289903024757467E-02  -1.4469647681502022E-02  -1.4651653275612594E-02
  -1.4835948186580496E-02  -1.5022561223589592E-02  -1.5211521640724470E-02
  -1.5402858750045705E-02  -1.5596602662721892E-02  -1.5792783533842884E-02
  -1.5991432069626031E-02  -1.6192579292367754E-02  -1.6396256566944243E-02
  -1.6602495843202166E-02  -1.6811329228089263E-02  -1.7022789450152325E-02
  -1.7236909485147688E-02  -1.7453722775958341E-02  -1.7673263264940387E-02
  -1.7895565240432783E-02  -1.8120663362094672E-02  -1.8348592908911984E-02
  -1.8579389374143905E-02  -1.8813088961094557E-02  -1.9049728074903963E-02
  -1.9289343753177431E-02  -1.9531973350311073E-02  -1.9777654887676726E-02
  -2.0026426700389986E-02  -2.0278327636756924E-02  -2.0533397085590564E-02
  -2.0791674892206492E-02  -2.1053201415579613E-02  -2.1318017520013787E-02
  -2.1586164560417710E-02  -2.1857684492658975E-02  -2.2132619672470207E-02
  -2.2411013058100594E-02  -2.2692908242852375E-02  -2.2978349170758000E-02
  -2.3267380453632809E-02  -2.3560047316664647E-02  -2.3856395404744244E-02
  -2.4156471095749067E-02  -2.4460321239205156E-02  -2.4767993285809312E-02
  -2.5079535365826102E-02  -2.5394996116470746E-02  -2.5714424815345555E-02
  -2.6037871451169727E-02  -2.6365386436539802E-02  -2.6697021074140376E-02
  -2.7032827055761280E-02  -2.7372856960359959E-02  -2.7717163875277055E-02
  -2.8065801523846742E-02  -2.8418824515375290E-02  -2.8776287898004679E-02
  -2.9138247573640835E-02  -2.9504760097088262E-02  -2.9875882687398429E-02
  -3.0251673410507472E-02  -3.0632190910814493E-02  -3.1017494655429880E-02
  -3.1407644888217165E-02  -3.1802702495650780E-02  -3.2202729283069005E-02
  -3.2607787690213517E-02  -3.3017941029428899E-02  -3.3433253394858892E-02
  -3.3853789634487853E-02  -3.4279615500848931E-02  -3.4710797513910464E-02
  -3.5147403011012379E-02  -3.5589500242093883E-02  -3.6037158260099497E-02
  -3.6490447036295705E-02  -3.6949437361400390E-02  -3.7414200945616101E-02
  -3.7884810453557752E-02  -3.8361339341887166E-02  -3.8843862104539287E-02
  -3.9332454147174740E-02  -3.9827191758848635E-02  -4.0328152260345980E-02
  -4.0835413923788644E-02  -4.1349056007800644E-02  -4.1869158761465457E-02
  -4.2395803397705975E-02  -4.2929072279414483E-02  -4.3469048642063753E-02
  -4.4015816911080079E-02  -4.4569462478086901E-02  -4.5130071836018283E-02
  -4.5697732596406256E-02  -4.6272533429293890E-02  -4.6854564140032764E-02
  -4.7443915655603658E-02  -4.8040680086013338E-02  -4.8644950606540838E-02
  -4.9256821660417581E-02  -4.9876388843499743E-02  -5.0503748939209205E-02
  -5.1138999953831941E-02  -5.1782241140661475E-02  -5.2433572985262140E-02
  -5.3093097268239756E-02  -5.3760916992075296E-02  -5.4437136495562963E-02
  -5.5121861437477840E-02  -5.5815198778548708E-02  -5.6517256827146672E-02
  -5.7228145281130384E-02  -5.7947975171623860E-02  -5.8676858980904960E-02
  -5.9414910543642098E-02  -6.0162245198571877E-02  -6.0918979657057011E-02
  -6.1685232143421066E-02  -6.2461122387462147E-02  -6.3246771561807455E-02
  -6.4042302419709374E-02  -6.4847839221740339E-02  -6.5663507806817151E-02
  -6.6489435614660031E-02  -6.7325751629219166E-02  -6.8172586535524299E-02
  -6.9030072557559247E-02  -6.9898343706942659E-02  -7.0777535582894194E-02
  -7.1667785531828773E-02  -7.2569232608718059E-02  -7.3482017608150402E-02
  -7.4406283162011005E-02  -7.5342173579290503E-02  -7.6289835090686722E-02
  -7.7249415720850034E-02  -7.8221065326491063E-02  -7.9204935702594903E-02
  -8.0201180525498697E-02  -8.1209955363775052E-02  -8.2231417839574092E-02
  -8.3265727462660685E-02  -8.4313045791133148E-02  -8.5373536402231470E-02
  -8.6447364928497542E-02  -8.7534699089330828E-02  -8.8635708703338936E-02
  -8.9750565741707686E-02  -9.0879444314808905E-02  -9.2022520724577381E-02
  -9.3179973503869834E-02  -9.4351983394834027E-02  -9.5538733467250905E-02
  -9.6740409026895860E-02  -9.7957197760489209E-02  -9.9189289675423883E-02
  -1.0043687718115603E-01  -1.0170015510539279E-01  -1.0297932073601002E-01
  -1.0427457379019689E-01  -1.0558611656084439E-01  -1.0691415384236710E-01
  -1.0825889299654171E-01  -1.0962054401372764E-01  -1.1099931949381579E-01
  -1.1239543474099946E-01  -1.1380910772008511E-01  -1.1524055918593522E-01
  -1.1669001261947876E-01  -1.1815769432280755E-01  -1.1964383344968139E-01
  -1.2114866200644281E-01  -1.2267241495564825E-01  -1.2421533016387891E-01
  -1.2577764851139137E-01  -1.2735961388031869E-01  -1.2896147324674534E-01
  -1.3058347664578143E-01  -1.3222587729076479E-01  -1.3388893153643261E-01
  -1.3557289899472305E-01  -1.3727804249569522E-01  -1.3900462819363441E-01
  -1.4075292557111613E-01  -1.4252320748699729E-01  -1.4431575024375407E-01
  -1.4613083359134255E-01  -1.4796874079887001E-01  -1.4982975867936341E-01
  -1.5171417764789574E-01  -1.5362229176547956E-01  -1.5555439877071126E-01
  -1.5751080016063540E-01  -1.5949180117523809E-01  -1.6149771090646983E-01
  -1.6352884232215290E-01  -1.6558551230079416E-01  -1.6766804169619229E-01
  -1.6977675539105469E-01  -1.7191198233218269E-01  -1.7407405559288999E-01
  -1.7626331242371768E-01  -1.7848009427835010E-01  -1.8072474691699644E-01
  -1.8299762040750484E-01  -1.8529906922555076E-01  -1.8762945226756403E-01
  -1.8998913292611125E-01  -1.9237847915434339E-01  -1.9479786349232453E-01
  -1.9724766316599529E-01  -1.9972826011242326E-01  -2.0224004103817778E-01
  -2.0478339751206612E-01  -2.0735872597802818E-01  -2.0996642785500957E-01
  -2.1260690957529607E-01  -2.1528058264880867E-01  -2.1798786375092202E-01
  -2.2072917474698736E-01  -2.2350494278160551E-01  -2.2631560034005241E-01
  -2.2916158530723146E-01  -2.3204334104570881E-01  -2.3496131644514132E-01
  -2.3791596602383164E-01  -2.4090774994747335E-01  -2.4393713414839618E-01
  -2.4700459036207739E-01  -2.5011059622277165E-01  -2.5325563530748824E-01
  -2.5644019725215650E-01  -2.5966477777096086E-01  -2.6292987878139368E-01
  -2.6623600844866929E-01  -2.6958368126702320E-01  -2.7297341815928350E-01
  -2.7640574651291255E-01  -2.7988120031151187E-01  -2.8340032017070371E-01
  -2.8696365343726438E-01  -2.9057175427786125E-01  -2.9422518374268047E-01
  -2.9792450987670788E-01  -3.0167030777252551E-01  -3.0546315968358911E-01
  -3.0930365509546137E-01  -3.1319239081549960E-01  -3.1712997106242985E-01
  -3.2111700757058115E-01  -3.2515411964083357E-01  -3.2924193429009257E-01
  -3.3338108628596463E-01  -3.3757221828192407E-01  -3.4181598089111853E-01
  -3.4611303278547628E-01  -3.5046404080064403E-01  -3.5486968002078884E-01
  -3.5933063389267472E-01  -3.6384759430945363E-01  -3.6842126172391798E-01
  -3.7305234524105702E-01  -3.7774156272667120E-01  -3.8248964091842713E-01
  -3.8729731551146451E-01  -3.9216533128813141E-01  -3.9709444219847306E-01
  -4.0208541150007426E-01  -4.0713901183680801E-01  -4.1225602537628053E-01
  -4.1743724389748083E-01  -4.2268346892547304E-01  -4.2799551182972240E-01
  -4.3337419394271998E-01  -4.3882034668300013E-01  -4.4433481165800193E-01
  -4.4991844080829624E-01  -4.5557209648983987E-01  -4.6129665163281136E-01
  -4.6709298983605568E-01  -4.7296200549834388E-01  -4.7890460395043222E-01
  -4.8492170156473174E-01  -4.9101422589777766E-01  -4.9718311580482510E-01
  -5.0342932157131692E-01  -5.0975380504710355E-01  -5.1615753976974066E-01
  -5.2264151110075840E-01  -5.2920671636207683E-01  -5.3585416495230065E-01
  -5.4258487850992709E-01  -5.4939989101959918E-01  -5.5630024896563657E-01
  -5.6328701147142113E-01  -5.7036125042247077E-01  -5.7752405062923051E-01
  -5.8477650994234687E-01  -5.9211973941844520E-01  -5.9955486344141207E-01
  -6.0708301987829960E-01  -6.1470536022502420E-01  -6.2242304974414753E-01
  -6.3023726760782595E-01  -6.3814920706477030E-01  -6.4616007555924437E-01
  -6.5427109490165380E-01  -6.6248350140877188E-01  -6.7079854604845246E-01
  -6.7921749460512282E-01  -6.8774162781305459E-01  -6.9637224151891264E-01
  -7.0511064683229774E-01  -7.1395817026992081E-01  -7.2291615392361641E-01
  -7.3198595559597834E-01  -7.4116894897094499E-01  -7.5046652375162792E-01
  -7.5988008582572353E-01  -7.6941105741320392E-01  -7.7906087722509243E-01
  -7.8883100061047107E-01  -7.9872289972053268E-01  -8.0873806365031520E-01
  -8.1887799860527388E-01  -8.2914422804108767E-01  -8.3953829282790460E-01
  -8.5006175139431983E-01  -8.6071617988232285E-01  -8.7150317230372054E-01
  -8.8242434067634479E-01  -8.9348131518673513E-01  -9.0467574433215192E-01
  -9.1600929506509465E-01  -9.2748365294611324E-01  -9.3910052227980101E-01
  -9.5086162626489867E-01  -9.6276870712669660E-01  -9.7482352626395707E-01
  -9.8702786438091084E-01  -9.9938352162131960E-01  -1.0118923177037917E+00
  -1.0245560920507928E+00  -1.0373767039118831E+00  -1.0503560324914420E+00
  -1.0634959770677430E+00  -1.0767984571084088E+00  -1.0902654123886584E+00
  -1.1038988030939445E+00  -1.1177006099339402E+00  -1.1316728342360090E+00
  -1.1458174980458931E+00  -1.1601366442187750E+00  -1.1746323365032167E+00
  -1.1893066596274293E+00  -1.2041617193679341E+00  -1.2191996426226575E+00
  -1.2344225774718998E+00  -1.2498326932329735E+00  -1.2654321805110731E+00
  -1.2812232512366428E+00  -1.2972081387005381E+00  -1.3133890975787852E+00
  -1.3297684039438205E+00  -1.3463483552768143E+00  -1.3631312704578014E+00
  -1.3801194897558395E+00  -1.3973153748048808E+00  -1.4147213085627188E+00
  -1.4323396952713963E+00  -1.4501729603886488E+00  -1.4682235505203589E+00
  -1.4864939333332821E+00  -1.5049865974513912E+00  -1.5237040523451584E+00
  -1.5426488281958179E+00  -1.5618234757499083E+00  -1.5812305661559998E+00
  -1.6008726907820015E+00  -1.6207524610129307E+00  -1.6408725080352125E+00
  -1.6612354825926348E+00  -1.6818440547301632E+00  -1.7027009135062718E+00
  -1.7238087666913364E+00  -1.7451703404368275E+00  -1.7667883789213505E+00
  -1.7886656439726418E+00  -1.8108049146569971E+00  -1.8332089868499959E+00
  -1.8558806727677355E+00  -1.8788228004757244E+00  -1.9020382133633098E+00
  -1.9255297695846356E+00  -1.9493003414652670E+00  -1.9733528148781101E+00
  -1.9976900885741127E+00  -2.0223150734834894E+00  -2.0472306919705101E+00
  -2.0724398770510017E+00  -2.0979455715665689E+00  -2.1237507273117462E+00
  -2.1498583041184403E+00  -2.1762712688905528E+00  -2.2029925945891624E+00
  -2.2300252591672640E+00  -2.2573722444494364E+00  -2.2850365349601218E+00
  -2.3130211166872829E+00  -2.3413289757963747E+00  -2.3699630972736596E+00
  -2.3989264635140488E+00  -2.4282220528357921E+00  -2.4578528379339266E+00
  -2.4878217842571635E+00  -2.5181318483171489E+00  -2.5487859759190759E+00
  -2.5797871003147788E+00  -2.6111381402781371E+00  -2.6428419980932767E+00
  -2.6749015574618142E+00  -2.7073196813157789E+00  -2.7400992095454617E+00
  -2.7732429566271093E+00  -2.8067537091580039E+00  -2.8406342232887183E+00
  -2.8748872220519703E+00  -2.9095153925871315E+00  -2.9445213832519053E+00
  -2.9799078006237245E+00  -3.0156772063834429E+00  -3.0518321140796356E+00
  -3.0883749857700225E+00  -3.1253082285365639E+00  -3.1626341908692130E+00
  -3.2003551589181560E+00  -3.2384733526065692E+00  -3.2769909216042934E+00
  -3.3159099411557378E+00  -3.3552324077602247E+00  -3.3949602347007337E+00
  -3.4350952474150147E+00  -3.4756391787097911E+00  -3.5165936638102493E+00
  -3.5579602352419464E+00  -3.5997403175448057E+00  -3.6419352218086964E+00
  -3.6845461400335155E+00  -3.7275741393084272E+00  -3.7710201558011711E+00
  -3.8148849885642937E+00  -3.8591692931446877E+00  -3.9038735749979376E+00
  -3.9489981827065384E+00  -3.9945433009918445E+00  -4.0405089435233856E+00
  -4.0868949455204078E+00  -4.1337009561395668E+00  -4.1809264306543961E+00
  -4.2285706224146100E+00  -4.2766325745906517E+00  -4.3251111116996155E+00
  -4.3740048309082011E+00  -4.4233120931171870E+00  -4.4730310138221565E+00
  -4.5231594537517061E+00  -4.5736950092853208E+00  -4.6246350026481728E+00
  -4.6759764718869103E+00  -4.7277161606276765E+00  -4.7798505076178150E+00
  -4.8323756360558239E+00  -4.8852873427139638E+00  -4.9385810868557467E+00
  -4.9922519789585493E+00  -5.0462947692430591E+00  -5.1007038360218226E+00
  -5.1554731738732151E+00  -5.2105963816513841E+00  -5.2660666503450209E+00
  -5.3218767507964939E+00  -5.3780190212958496E+00  -5.4344853550674026E+00
  -5.4912671876643318E+00  -5.5483554842927019E+00  -5.6057407270868760E+00
  -5.6634129023578206E+00  -5.7213614878437502E+00  -5.7795754399892951E+00
  -5.8380431812840392E+00  -5.8967525876976286E+00  -5.9556909762435986E+00
  -6.0148450927154364E+00  -6.0742010996375013E+00  -6.1337445644751618E+00
  -6.1934604481586124E+00  -6.2533330939712801E+00  -6.3133462168625565E+00
  -6.3734828932497241E+00  -6.4337255513722278E+00  -6.4940559622757181E+00
  -6.5544552315004685E+00  -6.6149037915562978E+00  -6.6753813952771477E+00
  -6.7358671101440120E+00  -6.7963393136813828E+00  -6.8567756900338326E+00
  -6.9171532278338015E+00  -6.9774482194868375E+00  -7.0376362619986716E+00
  -7.0976922594811587E+00  -7.1575904274840472E+00  -7.2173042993005936E+00
  -7.2768067344099379E+00  -7.3360699292272482E+00  -7.3950654303337586E+00
  -7.4537641503821410E+00  -7.5121363868651621E+00  -7.5701518439568316E+00
  -7.6277796576420247E+00  -7.6849884243512889E+00  -7.7417462333401126E+00
  -7.7980207030487119E+00  -7.8537790216904160E+00  -7.9089879923286208E+00
  -7.9636140827016604E+00  -8.0176234800634187E+00  -8.0709821513186117E+00
  -8.1236559087218012E+00  -8.1756104814223232E+00  -8.2268115931348138E+00
  -8.2772250462015791E+00  -8.3268168123255588E+00  -8.3755531302238282E+00
  -8.4234006104531591E+00  -8.4703263476342894E+00  -8.5162980402775013E+00
  -8.5612841183883894E+00  -8.6052538789937429E+00  -8.6481776296793029E+00
  -8.6900268401908889E+00  -8.7307743020725823E+00  -8.7703942962528547E+00
  -8.8088627684034488E+00  -8.8461575117833497E+00  -8.8822583571825362E+00
  -8.9171473694314081E+00  -8.9508090497934489E+00  -8.9832305433930806E+00
  -9.0144018506142753E+00  -9.0443160411997194E+00  -9.0729694695151917E+00
  -9.1003619891588770E+00  -9.1264971647814814E+00  -9.1513824786128612E+00
  -9.1750295287949371E+00  -9.1974542161694668E+00  -9.2186769156621207E+00
  -9.2387226278519083E+00  -9.2576211056865745E+00  -9.2754069506146486E+00
  -9.2921196716368843E+00  -9.3078036999239639E+00  -9.3225083507033233E+00
  -9.3362877230657961E+00  -9.3492005271822265E+00  -9.3613098271283981E+00
  -9.3726826860912489E+00  -9.3833896991494044E+00  -9.3935043970661756E+00
  -9.4031025026052770E+00  -9.4122610187285005E+00  -9.4210571256669944E+00
  -9.4295668612429306E+00  -9.4378635559068815E+00  -9.4460159907683519E+00
  -9.4540862433517443E+00  -9.4621271818965482E+00  -9.4701795646001763E+00
  -9.4782686997872609E+00  -9.4864010437151762E+00  -9.4945694025275120E+00
  -9.5027648624552672E+00  -9.5109788308537819E+00  -9.5192031038569507E+00
  -9.5274299344565243E+00  -9.5356521038660809E+00  -9.5438629953056342E+00
  -9.5520566699998213E+00  -9.5602279451350842E+00  -9.5683724734557067E+00
  -9.5764868240980228E+00  -9.5845685641681939E+00  -9.5926163404512472E+00
  -9.6006299604852092E+00  -9.6086104720449033E+00  -9.6165602398458763E+00
  -9.6244830177688545E+00  -9.6323840155704961E+00  -9.6402699551082947E+00
  -9.6481491173596332E+00  -9.6560313708126237E+00  -9.6639281811670710E+00
  -9.6718525925583787E+00  -9.6798191742730104E+00  -9.6878439228249036E+00
  -9.6959441081068203E+00  -9.7041380503175851E+00  -9.7124448126554928E+00
  -9.7208837935324244E+00  -9.7294742017769202E+00  -9.7382343995134999E+00
  -9.7471811008538669E+00  -9.7563284209707550E+00  -9.7656867802639375E+00
  -9.7752616826999343E+00  -9.7850524060437376E+00  -9.7950506639693913E+00
  -9.8052393242914686E+00  -9.8155912910635408E+00  -9.8260686771940247E+00
  -9.8366224039793568E+00  -9.8471923598984130E+00  -9.8577082294613287E+00
  -9.8680910622160614E+00  -9.8782555936524101E+00  -9.8881132588548812E+00
  -9.8975757651016281E+00  -9.9065590225244851E+00  -9.9149871847039677E+00
  -9.9227965344838900E+00  -9.9299389714047575E+00  -9.9363849172128482E+00
  -9.9421255487441957E+00  -9.9471743790191418E+00  -9.9515683152916026E+00
  -9.9553683969646176E+00  -9.9586604196437101E+00  -9.9615555420658293E+00
  -9.9641907083187817E+00  -9.9667282692808978E+00  -9.9693535626123353E+00
  -9.9722684990430697E+00  -9.9756786340748231E+00  -9.9797712043359343E+00
  -9.9846827882578548E+00  -9.9904582300612290E+00  -9.9970074172500230E+00
  -1.0004072455020150E+01  -1.0011222062342828E+01  -1.0017888632977751E+01
  -1.0023453159293206E+01  -1.0027365073314449E+01  -1.0029265278682352E+01
  -1.0029072168471915E+01  -1.0026999954075800E+01  -1.0023503350315810E+01
  -1.0019169449408084E+01  -1.0014594841730879E+01  -1.0010284351634400E+01
  -1.0006593352074978E+01  -1.0003719168070843E+01  -1.0001715705606927E+01
  -1.0000528454537811E+01  -1.0000039813762942E+01  -9.9999993616766769E+00
  -1.0000001334075002E+01  -1.0000001901949874E+01  -1.0000002348041761E+01
  -1.0000002801588288E+01  -1.0000003224439288E+01  -1.0000003590765759E+01
  -1.0000003887210655E+01  -1.0000004109617890E+01  -1.0000004260140257E+01
  -1.0000004344886818E+01  -1.0000004372127602E+01  -1.0000004351003259E+01
  -1.0000004290648628E+01  -1.0000004199641021E+01  -1.0000004085687076E+01
  -1.0000003955477625E+01  -1.0000003814656404E+01  -1.0000003667860433E+01
  -1.0000003518802210E+01  -1.0000003370374344E+01  -1.0000003224760631E+01
  -1.0000003083546693E+01  -1.0000002947823452E+01  -1.0000002818280823E+01
  -1.0000002695290847E+01  -1.0000002578978311E+01  -1.0000002469282515E+01
  -1.0000002366006102E+01  -1.0000002268857935E+01  -1.0000002177485152E+01
  -1.0000002091500214E+01  -1.0000002010501309E+01  -1.0000001934088212E+01
  -1.0000001861873935E+01  -1.0000001793492833E+01  -1.0000001728607655E+01
  -1.0000001666911787E+01  -1.0000001608133479E+01  -1.0000001552035704E+01
  -1.0000001498416937E+01  -1.0000001447111552E+01  -1.0000001397988468E+01
  -1.0000001350950226E+01  -1.0000001305932335E+01  -1.0000001262901351E+01
  -1.0000001221852957E+01  -1.0000001182810133E+01  -1.0000001145820640E+01
  -1.0000001110952857E+01  -1.0000001078292412E+01  -1.0000001047936671E+01
  -1.0000001019988199E+01  -1.0000000994547911E+01  -1.0000000971707109E+01
  -1.0000000951520601E+01  -1.0000000934176709E+01  -1.0000000919295619E+01
  -1.0000000907213115E+01  -1.0000000897670423E+01  -1.0000000890508275E+01
  -1.0000000885488058E+01  -1.0000000882303484E+01  -1.0000000880584311E+01
  -1.0000000879904363E+01  -1.0000000879793760E+01  -1.0000000879753529E+01
  -1.0000000879273333E+01  -1.0000000877850656E+01  -1.0000000875010487E+01
  -1.0000000870323946E+01  -1.0000000863425484E+01  -1.0000000854027059E+01
  -1.0000000841928973E+01  -1.0000000827026822E+01  -1.0000000809314352E+01
  -1.0000000788882334E+01  -1.0000000765913770E+01  -1.0000000740675656E+01
  -1.0000000713508399E+01  -1.0000000684812663E+01  -1.0000000655035286E+01
  -1.0000000624654199E+01  -1.0000000594163060E+01  -1.0000000564056705E+01
  -1.0000000534817026E+01  -1.0000000506900319E+01  -1.0000000480726092E+01
  -1.0000000456668005E+01  -1.0000000435046109E+01  -1.0000000416121742E+01
  -1.0000000400093944E+01  -1.0000000387098131E+01  -1.0000000377206415E+01
  -1.0000000370429580E+01  -1.0000000366720643E+01  -1.0000000365979338E+01
  -1.0000000368058011E+01  -1.0000000372767836E+01  -1.0000000379885570E+01
  -1.0000000389160821E+01  -1.0000000400322900E+01  -1.0000000413087848E+01
  -1.0000000427164769E+01  -1.0000000442262074E+01  -1.0000000458092732E+01
  -1.0000000474379137E+01  -1.0000000490857122E+01  -1.0000000507279331E+01
  -1.0000000523417766E+01  -1.0000000539065725E+01  -1.0000000554039095E+01
  -1.0000000568176917E+01  -1.0000000581339842E+01  -1.0000000593309277E+01
  -1.0000000603650095E+01  -1.0000000615293443E+01  -1.0000000621841336E+01
  -1.0000000629220622E+01  -1.0000000634868218E+01  -1.0000000639190249E+01
  -1.0000000642160053E+01  -1.0000000643802517E+01  -1.0000000644151880E+01
  -1.0000000643250104E+01  -1.0000000641145560E+01  -1.0000000637891771E+01
  -1.0000000633546302E+01  -1.0000000628169669E+01  -1.0000000621824471E+01
  -1.0000000614574477E+01  -1.0000000606484011E+01  -1.0000000597617282E+01
  -1.0000000588037892E+01  -1.0000000577808409E+01  -1.0000000566990025E+01
  -1.0000000555642268E+01  -1.0000000543822821E+01  -1.0000000531587315E+01
  -1.0000000518989250E+01  -1.0000000506079926E+01  -1.0000000492908336E+01
  -1.0000000479521239E+01  -1.0000000465963078E+01  -1.0000000452276050E+01
  -1.0000000438500093E+01  -1.0000000424672979E+01  -1.0000000410830301E+01
  -1.0000000397005570E+01  -1.0000000383230224E+01  -1.0000000369533735E+01
  -1.0000000355943619E+01  -1.0000000342485508E+01  -1.0000000329183200E+01
  -1.0000000316058717E+01  -1.0000000303132360E+01  -1.0000000290422756E+01
  -1.0000000277946897E+01  -1.0000000265720214E+01  -1.0000000253756598E+01
  -1.0000000242068467E+01  -1.0000000230666808E+01  -1.0000000219561214E+01
     </PP_GIPAW_VLOCAL_PS>
   </PP_GIPAW_VLOCAL>
 </PP_GIPAW>
</UPF>
