<UPF version="2.0.1">
  <PP_INFO>

 This pseudopotential file has been produced using the code
 ONCVPSP  (Optimized Norm-Conservinng Vanderbilt PSeudopotential)
 scalar-relativistic version 4.0.1 06/20/2107 by D. R. Hamann
 The code is available through a link at URL www.mat-simresearch.com.
 Documentation with the package provides a full discription of the
 input data below.


 While it is not required under the terms of the GNU GPL, it is
 suggested that you cite D. R. Hamann, Phys. Rev. B 88, 085117 (2013)
 in any publication using these pseudopotentials.

    <PP_INPUTFILE>
# ATOM AND REFERENCE CONFIGURATION
# atsym  z   nc   nv     iexc    psfile
  V 23.00    3    4 -116133      upf
#
#   n    l    f        energy (Ha)
    1    0    2.00
    2    0    2.00
    2    1    6.00
    3    0    2.00
    3    1    6.00
    3    2    3.00
    4    0    2.00
#
# PSEUDOPOTENTIAL AND OPTIMIZATION
# lmax
    2
#
#   l,   rc,      ep,       ncon, nbas, qcut
    0   1.65000  -2.58111    4    7   8.50000
    1   1.90000  -1.61849    4    8   7.14102
    2   1.90000  -0.18980    4    8   8.25439
#
# LOCAL POTENTIAL
# lloc, lpopt,  rc(5),   dvloc0
    4    5   1.47294      0.00000
#
# VANDERBILT-KLEINMAN-BYLANDER PROJECTORs
# l, nproj, debl
    0    2   2.40830
    1    2   1.56543
    2    2   1.50000
#
# MODEL CORE CHARGE
# icmod, fcfact, rcfact
    3   5.00000   1.30000
#
# LOG DERIVATIVE ANALYSIS
# epsh1, epsh2, depsh
  -12.00   12.00    0.02
#
# OUTPUT GRID
# rlmax, drl
    6.00    0.01
#
# TEST CONFIGURATIONS
# ncnf
    0
# nvcnf
#   n    l    f
    </PP_INPUTFILE>
  </PP_INFO>
  <!--                               -->
  <!-- END OF HUMAN READABLE SECTION -->
  <!--                               -->
    <PP_HEADER
       generated="Generated using ONCVPSP code by D. R. Hamann"
       author="anonymous"
       date="260127"
       comment=""
       element="V "
       pseudo_type="NC"
       relativistic="scalar"
       is_ultrasoft="F"
       is_paw="F"
       is_coulomb="F"
       has_so="F"
       has_wfc="F"
       has_gipaw="T"
       core_correction="T"
       functional="PBESOL"
       z_valence="   13.00"
       total_psenergy="  -1.41250477381E+02"
       rho_cutoff="   1.52732559920E+01"
       l_max="2"
       l_local="-1"
       mesh_size="  1078"
       number_of_wfc="4"
       number_of_proj="6"/>
 <PP_MESH dx="  1.25000000000000E-02" xmin=" -1.07363966754712E+01" mesh="1078">
   <PP_R type="real"  size="1078" columns="4">
    2.1739130435E-05    2.2012575033E-05    2.2289459142E-05    2.2569826024E-05
    2.2853719486E-05    2.3141183890E-05    2.3432264150E-05    2.3727005749E-05
    2.4025454741E-05    2.4327657759E-05    2.4633662023E-05    2.4943515347E-05
    2.5257266146E-05    2.5574963445E-05    2.5896656883E-05    2.6222396727E-05
    2.6552233873E-05    2.6886219860E-05    2.7224406874E-05    2.7566847756E-05
    2.7913596015E-05    2.8264705830E-05    2.8620232062E-05    2.8980230264E-05
    2.9344756686E-05    2.9713868286E-05    3.0087622739E-05    3.0466078443E-05
    3.0849294535E-05    3.1237330891E-05    3.1630248144E-05    3.2028107687E-05
    3.2430971688E-05    3.2838903094E-05    3.3251965645E-05    3.3670223883E-05
    3.4093743163E-05    3.4522589659E-05    3.4956830380E-05    3.5396533177E-05
    3.5841766754E-05    3.6292600681E-05    3.6749105400E-05    3.7211352241E-05
    3.7679413432E-05    3.8153362108E-05    3.8633272324E-05    3.9119219068E-05
    3.9611278269E-05    4.0109526814E-05    4.0614042553E-05    4.1124904319E-05
    4.1642191935E-05    4.2165986228E-05    4.2696369043E-05    4.3233423252E-05
    4.3777232771E-05    4.4327882572E-05    4.4885458695E-05    4.5450048262E-05
    4.6021739492E-05    4.6600621712E-05    4.7186785374E-05    4.7780322067E-05
    4.8381324532E-05    4.8989886679E-05    4.9606103594E-05    5.0230071564E-05
    5.0861888085E-05    5.1501651880E-05    5.2149462912E-05    5.2805422404E-05
    5.3469632851E-05    5.4142198037E-05    5.4823223051E-05    5.5512814306E-05
    5.6211079550E-05    5.6918127891E-05    5.7634069804E-05    5.8359017158E-05
    5.9093083227E-05    5.9836382711E-05    6.0589031751E-05    6.1351147951E-05
    6.2122850393E-05    6.2904259656E-05    6.3695497838E-05    6.4496688571E-05
    6.5307957042E-05    6.6129430015E-05    6.6961235846E-05    6.7803504506E-05
    6.8656367602E-05    6.9519958395E-05    7.0394411823E-05    7.1279864520E-05
    7.2176454842E-05    7.3084322882E-05    7.4003610495E-05    7.4934461324E-05
    7.5877020814E-05    7.6831436244E-05    7.7797856741E-05    7.8776433312E-05
    7.9767318861E-05    8.0770668216E-05    8.1786638152E-05    8.2815387417E-05
    8.3857076754E-05    8.4911868931E-05    8.5979928759E-05    8.7061423127E-05
    8.8156521018E-05    8.9265393546E-05    9.0388213973E-05    9.1525157742E-05
    9.2676402504E-05    9.3842128142E-05    9.5022516803E-05    9.6217752926E-05
    9.7428023268E-05    9.8653516938E-05    9.9894425420E-05    1.0115094261E-04
    1.0242326484E-04    1.0371159091E-04    1.0501612213E-04    1.0633706234E-04
    1.0767461792E-04    1.0902899789E-04    1.1040041385E-04    1.1178908011E-04
    1.1319521363E-04    1.1461903414E-04    1.1606076411E-04    1.1752062881E-04
    1.1899885634E-04    1.2049567769E-04    1.2201132673E-04    1.2354604029E-04
    1.2510005817E-04    1.2667362319E-04    1.2826698122E-04    1.2988038123E-04
    1.3151407531E-04    1.3316831874E-04    1.3484336998E-04    1.3653949078E-04
    1.3825694614E-04    1.3999600444E-04    1.4175693740E-04    1.4354002017E-04
    1.4534553135E-04    1.4717375308E-04    1.4902497100E-04    1.5089947437E-04
    1.5279755610E-04    1.5471951275E-04    1.5666564465E-04    1.5863625587E-04
    1.6063165432E-04    1.6265215180E-04    1.6469806401E-04    1.6676971063E-04
    1.6886741535E-04    1.7099150596E-04    1.7314231433E-04    1.7532017654E-04
    1.7752543288E-04    1.7975842794E-04    1.8201951061E-04    1.8430903421E-04
    1.8662735646E-04    1.8897483962E-04    1.9135185048E-04    1.9375876046E-04
    1.9619594564E-04    1.9866378683E-04    2.0116266965E-04    2.0369298454E-04
    2.0625512688E-04    2.0884949700E-04    2.1147650027E-04    2.1413654718E-04
    2.1683005337E-04    2.1955743968E-04    2.2231913230E-04    2.2511556273E-04
    2.2794716793E-04    2.3081439033E-04    2.3371767796E-04    2.3665748444E-04
    2.3963426914E-04    2.4264849719E-04    2.4570063955E-04    2.4879117314E-04
    2.5192058085E-04    2.5508935167E-04    2.5829798072E-04    2.6154696935E-04
    2.6483682523E-04    2.6816806241E-04    2.7154120138E-04    2.7495676923E-04
    2.7841529962E-04    2.8191733298E-04    2.8546341649E-04    2.8905410424E-04
    2.9268995728E-04    2.9637154373E-04    3.0009943883E-04    3.0387422508E-04
    3.0769649229E-04    3.1156683771E-04    3.1548586608E-04    3.1945418976E-04
    3.2347242880E-04    3.2754121107E-04    3.3166117232E-04    3.3583295631E-04
    3.4005721487E-04    3.4433460807E-04    3.4866580425E-04    3.5305148018E-04
    3.5749232111E-04    3.6198902095E-04    3.6654228231E-04    3.7115281664E-04
    3.7582134436E-04    3.8054859493E-04    3.8533530699E-04    3.9018222847E-04
    3.9509011673E-04    4.0005973861E-04    4.0509187065E-04    4.1018729911E-04
    4.1534682018E-04    4.2057124003E-04    4.2586137499E-04    4.3121805166E-04
    4.3664210703E-04    4.4213438861E-04    4.4769575459E-04    4.5332707395E-04
    4.5902922658E-04    4.6480310346E-04    4.7064960677E-04    4.7656965004E-04
    4.8256415829E-04    4.8863406817E-04    4.9478032812E-04    5.0100389850E-04
    5.0730575176E-04    5.1368687257E-04    5.2014825801E-04    5.2669091767E-04
    5.3331587385E-04    5.4002416173E-04    5.4681682947E-04    5.5369493847E-04
    5.6065956342E-04    5.6771179257E-04    5.7485272784E-04    5.8208348502E-04
    5.8940519393E-04    5.9681899860E-04    6.0432605745E-04    6.1192754348E-04
    6.1962464443E-04    6.2741856299E-04    6.3531051698E-04    6.4330173953E-04
    6.5139347929E-04    6.5958700060E-04    6.6788358373E-04    6.7628452502E-04
    6.8479113715E-04    6.9340474928E-04    7.0212670732E-04    7.1095837408E-04
    7.1990112954E-04    7.2895637101E-04    7.3812551340E-04    7.4740998940E-04
    7.5681124973E-04    7.6633076336E-04    7.7597001773E-04    7.8573051900E-04
    7.9561379225E-04    8.0562138178E-04    8.1575485130E-04    8.2601578416E-04
    8.3640578367E-04    8.4692647329E-04    8.5757949690E-04    8.6836651904E-04
    8.7928922522E-04    8.9034932213E-04    9.0154853793E-04    9.1288862253E-04
    9.2437134783E-04    9.3599850803E-04    9.4777191991E-04    9.5969342307E-04
    9.7176488029E-04    9.8398817774E-04    9.9636522536E-04    1.0088979571E-03
    1.0215883311E-03    1.0344383304E-03    1.0474499628E-03    1.0606252614E-03
    1.0739662849E-03    1.0874751178E-03    1.1011538708E-03    1.1150046814E-03
    1.1290297138E-03    1.1432311593E-03    1.1576112371E-03    1.1721721939E-03
    1.1869163051E-03    1.2018458743E-03    1.2169632344E-03    1.2322707475E-03
    1.2477708053E-03    1.2634658299E-03    1.2793582737E-03    1.2954506197E-03
    1.3117453826E-03    1.3282451083E-03    1.3449523750E-03    1.3618697933E-03
    1.3790000065E-03    1.3963456912E-03    1.4139095578E-03    1.4316943507E-03
    1.4497028487E-03    1.4679378657E-03    1.4864022511E-03    1.5050988897E-03
    1.5240307032E-03    1.5432006495E-03    1.5626117241E-03    1.5822669600E-03
    1.6021694283E-03    1.6223222388E-03    1.6427285404E-03    1.6633915218E-03
    1.6843144114E-03    1.7055004786E-03    1.7269530337E-03    1.7486754288E-03
    1.7706710579E-03    1.7929433580E-03    1.8154958092E-03    1.8383319352E-03
    1.8614553044E-03    1.8848695297E-03    1.9085782698E-03    1.9325852291E-03
    1.9568941587E-03    1.9815088571E-03    2.0064331702E-03    2.0316709926E-03
    2.0572262677E-03    2.0831029886E-03    2.1093051986E-03    2.1358369919E-03
    2.1627025140E-03    2.1899059627E-03    2.2174515888E-03    2.2453436961E-03
    2.2735866430E-03    2.3021848424E-03    2.3311427629E-03    2.3604649291E-03
    2.3901559229E-03    2.4202203833E-03    2.4506630081E-03    2.4814885540E-03
    2.5127018375E-03    2.5443077358E-03    2.5763111874E-03    2.6087171928E-03
    2.6415308156E-03    2.6747571830E-03    2.7084014866E-03    2.7424689834E-03
    2.7769649967E-03    2.8118949163E-03    2.8472642002E-03    2.8830783750E-03
    2.9193430366E-03    2.9560638515E-03    2.9932465575E-03    3.0308969642E-03
    3.0690209548E-03    3.1076244862E-03    3.1467135902E-03    3.1862943746E-03
    3.2263730240E-03    3.2669558007E-03    3.3080490459E-03    3.3496591805E-03
    3.3917927062E-03    3.4344562064E-03    3.4776563474E-03    3.5213998792E-03
    3.5656936370E-03    3.6105445416E-03    3.6559596011E-03    3.7019459118E-03
    3.7485106591E-03    3.7956611187E-03    3.8434046582E-03    3.8917487374E-03
    3.9407009103E-03    3.9902688258E-03    4.0404602288E-03    4.0912829620E-03
    4.1427449665E-03    4.1948542833E-03    4.2476190546E-03    4.3010475251E-03
    4.3551480429E-03    4.4099290615E-03    4.4653991405E-03    4.5215669472E-03
    4.5784412580E-03    4.6360309595E-03    4.6943450502E-03    4.7533926420E-03
    4.8131829610E-03    4.8737253496E-03    4.9350292677E-03    4.9971042942E-03
    5.0599601284E-03    5.1236065917E-03    5.1880536289E-03    5.2533113101E-03
    5.3193898318E-03    5.3862995191E-03    5.4540508265E-03    5.5226543406E-03
    5.5921207806E-03    5.6624610008E-03    5.7336859921E-03    5.8058068835E-03
    5.8788349440E-03    5.9527815845E-03    6.0276583592E-03    6.1034769678E-03
    6.1802492570E-03    6.2579872228E-03    6.3367030119E-03    6.4164089236E-03
    6.4971174123E-03    6.5788410889E-03    6.6615927227E-03    6.7453852439E-03
    6.8302317453E-03    6.9161454844E-03    7.0031398852E-03    7.0912285409E-03
    7.1804252154E-03    7.2707438460E-03    7.3621985452E-03    7.4548036028E-03
    7.5485734887E-03    7.6435228545E-03    7.7396665363E-03    7.8370195568E-03
    7.9355971275E-03    8.0354146514E-03    8.1364877252E-03    8.2388321418E-03
    8.3424638926E-03    8.4473991704E-03    8.5536543715E-03    8.6612460986E-03
    8.7701911629E-03    8.8805065874E-03    8.9922096092E-03    9.1053176820E-03
    9.2198484792E-03    9.3358198965E-03    9.4532500547E-03    9.5721573024E-03
    9.6925602192E-03    9.8144776182E-03    9.9379285493E-03    1.0062932302E-02
    1.0189508408E-02    1.0317676646E-02    1.0447457042E-02    1.0578869874E-02
    1.0711935676E-02    1.0846675240E-02    1.0983109619E-02    1.1121260131E-02
    1.1261148362E-02    1.1402796171E-02    1.1546225690E-02    1.1691459331E-02
    1.1838519785E-02    1.1987430033E-02    1.2138213341E-02    1.2290893269E-02
    1.2445493674E-02    1.2602038713E-02    1.2760552847E-02    1.2921060842E-02
    1.3083587780E-02    1.3248159055E-02    1.3414800381E-02    1.3583537798E-02
    1.3754397670E-02    1.3927406694E-02    1.4102591905E-02    1.4279980673E-02
    1.4459600718E-02    1.4641480105E-02    1.4825647253E-02    1.5012130939E-02
    1.5200960300E-02    1.5392164843E-02    1.5585774442E-02    1.5781819351E-02
    1.5980330201E-02    1.6181338010E-02    1.6384874186E-02    1.6590970532E-02
    1.6799659251E-02    1.7010972951E-02    1.7224944649E-02    1.7441607781E-02
    1.7660996199E-02    1.7883144184E-02    1.8108086447E-02    1.8335858135E-02
    1.8566494838E-02    1.8800032593E-02    1.9036507892E-02    1.9275957684E-02
    1.9518419384E-02    1.9763930876E-02    2.0012530523E-02    2.0264257168E-02
    2.0519150145E-02    2.0777249281E-02    2.1038594904E-02    2.1303227850E-02
    2.1571189470E-02    2.1842521631E-02    2.2117266731E-02    2.2395467699E-02
    2.2677168004E-02    2.2962411663E-02    2.3251243245E-02    2.3543707882E-02
    2.3839851270E-02    2.4139719684E-02    2.4443359978E-02    2.4750819597E-02
    2.5062146582E-02    2.5377389579E-02    2.5696597844E-02    2.6019821254E-02
    2.6347110315E-02    2.6678516165E-02    2.7014090588E-02    2.7353886018E-02
    2.7697955547E-02    2.8046352939E-02    2.8399132630E-02    2.8756349744E-02
    2.9118060096E-02    2.9484320203E-02    2.9855187296E-02    3.0230719323E-02
    3.0610974961E-02    3.0996013626E-02    3.1385895481E-02    3.1780681447E-02
    3.2180433208E-02    3.2585213228E-02    3.2995084754E-02    3.3410111828E-02
    3.3830359301E-02    3.4255892836E-02    3.4686778924E-02    3.5123084892E-02
    3.5564878913E-02    3.6012230019E-02    3.6465208109E-02    3.6923883962E-02
    3.7388329247E-02    3.7858616535E-02    3.8334819308E-02    3.8817011975E-02
    3.9305269879E-02    3.9799669312E-02    4.0300287524E-02    4.0807202737E-02
    4.1320494160E-02    4.1840241993E-02    4.2366527449E-02    4.2899432762E-02
    4.3439041198E-02    4.3985437073E-02    4.4538705761E-02    4.5098933713E-02
    4.5666208466E-02    4.6240618656E-02    4.6822254037E-02    4.7411205490E-02
    4.8007565041E-02    4.8611425871E-02    4.9222882336E-02    4.9842029976E-02
    5.0468965535E-02    5.1103786972E-02    5.1746593480E-02    5.2397485499E-02
    5.3056564731E-02    5.3723934159E-02    5.4399698062E-02    5.5083962028E-02
    5.5776832975E-02    5.6478419165E-02    5.7188830224E-02    5.7908177154E-02
    5.8636572354E-02    5.9374129638E-02    6.0120964250E-02    6.0877192885E-02
    6.1642933706E-02    6.2418306360E-02    6.3203432002E-02    6.3998433309E-02
    6.4803434501E-02    6.5618561361E-02    6.6443941256E-02    6.7279703151E-02
    6.8125977637E-02    6.8982896945E-02    6.9850594971E-02    7.0729207295E-02
    7.1618871202E-02    7.2519725703E-02    7.3431911558E-02    7.4355571299E-02
    7.5290849250E-02    7.6237891548E-02    7.7196846173E-02    7.8167862961E-02
    7.9151093638E-02    8.0146691833E-02    8.1154813113E-02    8.2175614997E-02
    8.3209256988E-02    8.4255900595E-02    8.5315709357E-02    8.6388848873E-02
    8.7475486822E-02    8.8575792994E-02    8.9689939314E-02    9.0818099869E-02
    9.1960450938E-02    9.3117171013E-02    9.4288440837E-02    9.5474443420E-02
    9.6675364080E-02    9.7891390463E-02    9.9122712574E-02    1.0036952281E-01
    1.0163201599E-01    1.0291038938E-01    1.0420484272E-01    1.0551557829E-01
    1.0684280088E-01    1.0818671787E-01    1.0954753926E-01    1.1092547767E-01
    1.1232074842E-01    1.1373356951E-01    1.1516416170E-01    1.1661274853E-01
    1.1807955633E-01    1.1956481431E-01    1.2106875453E-01    1.2259161200E-01
    1.2413362465E-01    1.2569503343E-01    1.2727608232E-01    1.2887701835E-01
    1.3049809168E-01    1.3213955560E-01    1.3380166660E-01    1.3548468438E-01
    1.3718887191E-01    1.3891449549E-01    1.4066182474E-01    1.4243113269E-01
    1.4422269579E-01    1.4603679398E-01    1.4787371071E-01    1.4973373302E-01
    1.5161715152E-01    1.5352426052E-01    1.5545535799E-01    1.5741074568E-01
    1.5939072911E-01    1.6139561767E-01    1.6342572463E-01    1.6548136719E-01
    1.6756286655E-01    1.6967054794E-01    1.7180474071E-01    1.7396577831E-01
    1.7615399843E-01    1.7836974296E-01    1.8061335813E-01    1.8288519450E-01
    1.8518560706E-01    1.8751495524E-01    1.8987360302E-01    1.9226191893E-01
    1.9468027616E-01    1.9712905258E-01    1.9960863082E-01    2.0211939831E-01
    2.0466174736E-01    2.0723607524E-01    2.0984278417E-01    2.1248228146E-01
    2.1515497954E-01    2.1786129602E-01    2.2060165378E-01    2.2337648099E-01
    2.2618621123E-01    2.2903128353E-01    2.3191214243E-01    2.3482923807E-01
    2.3778302626E-01    2.4077396854E-01    2.4380253223E-01    2.4686919057E-01
    2.4997442272E-01    2.5311871388E-01    2.5630255536E-01    2.5952644463E-01
    2.6279088544E-01    2.6609638786E-01    2.6944346838E-01    2.7283264999E-01
    2.7626446225E-01    2.7973944140E-01    2.8325813041E-01    2.8682107908E-01
    2.9042884412E-01    2.9408198926E-01    2.9778108532E-01    3.0152671027E-01
    3.0531944938E-01    3.0915989528E-01    3.1304864804E-01    3.1698631529E-01
    3.2097351230E-01    3.2501086207E-01    3.2909899544E-01    3.3323855121E-01
    3.3743017618E-01    3.4167452530E-01    3.4597226176E-01    3.5032405709E-01
    3.5473059126E-01    3.5919255281E-01    3.6371063893E-01    3.6828555558E-01
    3.7291801759E-01    3.7760874881E-01    3.8235848215E-01    3.8716795979E-01
    3.9203793321E-01    3.9696916336E-01    4.0196242074E-01    4.0701848557E-01
    4.1213814787E-01    4.1732220759E-01    4.2257147476E-01    4.2788676957E-01
    4.3326892257E-01    4.3871877472E-01    4.4423717756E-01    4.4982499338E-01
    4.5548309526E-01    4.6121236730E-01    4.6701370471E-01    4.7288801396E-01
    4.7883621293E-01    4.8485923103E-01    4.9095800937E-01    4.9713350090E-01
    5.0338667055E-01    5.0971849539E-01    5.1612996479E-01    5.2262208054E-01
    5.2919585705E-01    5.3585232150E-01    5.4259251395E-01    5.4941748760E-01
    5.5632830884E-01    5.6332605751E-01    5.7041182703E-01    5.7758672456E-01
    5.8485187118E-01    5.9220840210E-01    5.9965746679E-01    6.0720022918E-01
    6.1483786783E-01    6.2257157616E-01    6.3040256256E-01    6.3833205064E-01
    6.4636127941E-01    6.5449150344E-01    6.6272399310E-01    6.7106003473E-01
    6.7950093086E-01    6.8804800039E-01    6.9670257882E-01    7.0546601845E-01
    7.1433968857E-01    7.2332497573E-01    7.3242328389E-01    7.4163603467E-01
    7.5096466759E-01    7.6041064027E-01    7.6997542866E-01    7.7966052728E-01
    7.8946744944E-01    7.9939772750E-01    8.0945291307E-01    8.1963457731E-01
    8.2994431113E-01    8.4038372543E-01    8.5095445139E-01    8.6165814072E-01
    8.7249646589E-01    8.8347112040E-01    8.9458381908E-01    9.0583629830E-01
    9.1723031628E-01    9.2876765336E-01    9.4045011228E-01    9.5227951845E-01
    9.6425772022E-01    9.7638658923E-01    9.8866802063E-01    1.0011039334E+00
    1.0136962707E+00    1.0264470001E+00    1.0393581140E+00    1.0524316297E+00
    1.0656695899E+00    1.0790740632E+00    1.0926471440E+00    1.1063909532E+00
    1.1203076382E+00    1.1343993735E+00    1.1486683611E+00    1.1631168304E+00
    1.1777470391E+00    1.1925612731E+00    1.2075618473E+00    1.2227511055E+00
    1.2381314210E+00    1.2537051971E+00    1.2694748672E+00    1.2854428953E+00
    1.3016117764E+00    1.3179840371E+00    1.3345622354E+00    1.3513489618E+00
    1.3683468393E+00    1.3855585237E+00    1.4029867044E+00    1.4206341047E+00
    1.4385034819E+00    1.4565976283E+00    1.4749193709E+00    1.4934715728E+00
    1.5122571326E+00    1.5312789856E+00    1.5505401042E+00    1.5700434977E+00
    1.5897922138E+00    1.6097893381E+00    1.6300379953E+00    1.6505413492E+00
    1.6713026036E+00    1.6923250024E+00    1.7136118304E+00    1.7351664138E+00
    1.7569921204E+00    1.7790923607E+00    1.8014705877E+00    1.8241302982E+00
    1.8470750328E+00    1.8703083766E+00    1.8938339599E+00    1.9176554585E+00
    1.9417765948E+00    1.9662011376E+00    1.9909329033E+00    2.0159757564E+00
    2.0413336097E+00    2.0670104256E+00    2.0930102161E+00    2.1193370437E+00
    2.1459950220E+00    2.1729883164E+00    2.2003211446E+00    2.2279977775E+00
    2.2560225396E+00    2.2843998098E+00    2.3131340221E+00    2.3422296663E+00
    2.3716912886E+00    2.4015234926E+00    2.4317309394E+00    2.4623183492E+00
    2.4932905013E+00    2.5246522350E+00    2.5564084508E+00    2.5885641106E+00
    2.6211242388E+00    2.6540939231E+00    2.6874783149E+00    2.7212826306E+00
    2.7555121523E+00    2.7901722284E+00    2.8252682745E+00    2.8608057746E+00
    2.8967902814E+00    2.9332274176E+00    2.9701228765E+00    3.0074824232E+00
    3.0453118951E+00    3.0836172032E+00    3.1224043328E+00    3.1616793444E+00
    3.2014483748E+00    3.2417176380E+00    3.2824934263E+00    3.3237821107E+00
    3.3655901430E+00    3.4079240555E+00    3.4507904631E+00    3.4941960637E+00
    3.5381476395E+00    3.5826520582E+00    3.6277162735E+00    3.6733473268E+00
    3.7195523482E+00    3.7663385571E+00    3.8137132642E+00    3.8616838716E+00
    3.9102578751E+00    3.9594428643E+00    4.0092465245E+00    4.0596766376E+00
    4.1107410834E+00    4.1624478410E+00    4.2148049894E+00    4.2678207097E+00
    4.3215032857E+00    4.3758611054E+00    4.4309026622E+00    4.4866365567E+00
    4.5430714972E+00    4.6002163018E+00    4.6580798997E+00    4.7166713320E+00
    4.7759997537E+00    4.8360744352E+00    4.8969047631E+00    4.9585002424E+00
    5.0208704974E+00    5.0840252737E+00    5.1479744392E+00    5.2127279862E+00
    5.2782960326E+00    5.3446888234E+00    5.4119167328E+00    5.4799902652E+00
    5.5489200572E+00    5.6187168792E+00    5.6893916372E+00    5.7609553742E+00
    5.8334192722E+00    5.9067946538E+00    5.9810929841E+00    6.0563258724E+00
    6.1325050739E+00    6.2096424918E+00    6.2877501790E+00    6.3668403399E+00
    6.4469253326E+00    6.5280176705E+00    6.6101300244E+00    6.6932752246E+00
    6.7774662626E+00    6.8627162936E+00    6.9490386379E+00    7.0364467837E+00
    7.1249543886E+00    7.2145752821E+00    7.3053234676E+00    7.3972131249E+00
    7.4902586117E+00    7.5844744667E+00    7.6798754112E+00    7.7764763519E+00
    7.8742923829E+00    7.9733387880E+00    8.0736310436E+00    8.1751848204E+00
    8.2780159865E+00    8.3821406094E+00    8.4875749589E+00    8.5943355092E+00
    8.7024389420E+00    8.8119021485E+00    8.9227422326E+00    9.0349765134E+00
    9.1486225277E+00    9.2636980328E+00    9.3802210096E+00    9.4982096650E+00
    9.6176824350E+00    9.7386579874E+00    9.8611552250E+00    9.9851932881E+00
    1.0110791558E+01    1.0237969660E+01    1.0366747465E+01    1.0497145096E+01
    1.0629182926E+01    1.0762881589E+01    1.0898261973E+01    1.1035345233E+01
    1.1174152789E+01    1.1314706328E+01    1.1457027813E+01    1.1601139482E+01
    1.1747063853E+01    1.1894823727E+01    1.2044442190E+01    1.2195942623E+01
    1.2349348696E+01    1.2504684380E+01    1.2661973947E+01    1.2821241972E+01
    1.2982513343E+01    1.3145813258E+01    1.3311167233E+01    1.3478601105E+01
    1.3648141036E+01    1.3819813517E+01    1.3993645371E+01    1.4169663762E+01
    1.4347896191E+01    1.4528370508E+01    1.4711114912E+01    1.4896157958E+01
    1.5083528559E+01    1.5273255992E+01
   </PP_R>
   <PP_RAB type="real"  size="1078" columns="4">
    2.7173913043E-07    2.7515718792E-07    2.7861823927E-07    2.8212282529E-07
    2.8567149358E-07    2.8926479862E-07    2.9290330187E-07    2.9658757186E-07
    3.0031818426E-07    3.0409572199E-07    3.0792077529E-07    3.1179394184E-07
    3.1571582683E-07    3.1968704306E-07    3.2370821104E-07    3.2777995908E-07
    3.3190292341E-07    3.3607774825E-07    3.4030508592E-07    3.4458559695E-07
    3.4891995019E-07    3.5330882287E-07    3.5775290078E-07    3.6225287831E-07
    3.6680945858E-07    3.7142335358E-07    3.7609528423E-07    3.8082598054E-07
    3.8561618168E-07    3.9046663614E-07    3.9537810180E-07    4.0035134609E-07
    4.0538714610E-07    4.1048628867E-07    4.1564957056E-07    4.2087779854E-07
    4.2617178954E-07    4.3153237074E-07    4.3696037975E-07    4.4245666471E-07
    4.4802208443E-07    4.5365750851E-07    4.5936381749E-07    4.6514190301E-07
    4.7099266790E-07    4.7691702635E-07    4.8291590405E-07    4.8899023835E-07
    4.9514097837E-07    5.0136908517E-07    5.0767553191E-07    5.1406130399E-07
    5.2052739919E-07    5.2707482785E-07    5.3370461304E-07    5.4041779065E-07
    5.4721540964E-07    5.5409853215E-07    5.6106823369E-07    5.6812560327E-07
    5.7527174364E-07    5.8250777139E-07    5.8983481717E-07    5.9725402583E-07
    6.0476655666E-07    6.1237358348E-07    6.2007629493E-07    6.2787589455E-07
    6.3577360107E-07    6.4377064850E-07    6.5186828640E-07    6.6006778006E-07
    6.6837041064E-07    6.7677747546E-07    6.8529028814E-07    6.9391017882E-07
    7.0263849438E-07    7.1147659863E-07    7.2042587255E-07    7.2948771448E-07
    7.3866354034E-07    7.4795478389E-07    7.5736289689E-07    7.6688934939E-07
    7.7653562991E-07    7.8630324570E-07    7.9619372297E-07    8.0620860713E-07
    8.1634946303E-07    8.2661787519E-07    8.3701544808E-07    8.4754380633E-07
    8.5820459502E-07    8.6899947993E-07    8.7993014778E-07    8.9099830651E-07
    9.0220568553E-07    9.1355403602E-07    9.2504513119E-07    9.3668076655E-07
    9.4846276018E-07    9.6039295305E-07    9.7247320927E-07    9.8470541640E-07
    9.9709148577E-07    1.0096333527E-06    1.0223329769E-06    1.0351923427E-06
    1.0482134594E-06    1.0613983616E-06    1.0747491095E-06    1.0882677891E-06
    1.1019565127E-06    1.1158174193E-06    1.1298526747E-06    1.1440644718E-06
    1.1584550313E-06    1.1730266018E-06    1.1877814600E-06    1.2027219116E-06
    1.2178502909E-06    1.2331689617E-06    1.2486803177E-06    1.2643867826E-06
    1.2802908105E-06    1.2963948864E-06    1.3127015267E-06    1.3292132792E-06
    1.3459327240E-06    1.3628624736E-06    1.3800051731E-06    1.3973635013E-06
    1.4149401704E-06    1.4327379268E-06    1.4507595514E-06    1.4690078601E-06
    1.4874857043E-06    1.5061959711E-06    1.5251415842E-06    1.5443255037E-06
    1.5637507272E-06    1.5834202899E-06    1.6033372653E-06    1.6235047654E-06
    1.6439259414E-06    1.6646039842E-06    1.6855421248E-06    1.7067436347E-06
    1.7282118268E-06    1.7499500555E-06    1.7719617175E-06    1.7942502521E-06
    1.8168191419E-06    1.8396719135E-06    1.8628121375E-06    1.8862434297E-06
    1.9099694512E-06    1.9339939094E-06    1.9583205581E-06    1.9829531983E-06
    2.0078956791E-06    2.0331518976E-06    2.0587258002E-06    2.0846213829E-06
    2.1108426919E-06    2.1373938244E-06    2.1642789291E-06    2.1915022067E-06
    2.2190679110E-06    2.2469803492E-06    2.2752438826E-06    2.3038629276E-06
    2.3328419558E-06    2.3621854952E-06    2.3918981310E-06    2.4219845058E-06
    2.4524493205E-06    2.4832973354E-06    2.5145333706E-06    2.5461623068E-06
    2.5781890860E-06    2.6106187124E-06    2.6434562534E-06    2.6767068398E-06
    2.7103756671E-06    2.7444679961E-06    2.7789891537E-06    2.8139445341E-06
    2.8493395991E-06    2.8851798792E-06    2.9214709745E-06    2.9582185556E-06
    2.9954283643E-06    3.0331062148E-06    3.0712579944E-06    3.1098896642E-06
    3.1490072607E-06    3.1886168959E-06    3.2287247590E-06    3.2693371169E-06
    3.3104603154E-06    3.3521007801E-06    3.3942650173E-06    3.4369596153E-06
    3.4801912453E-06    3.5239666622E-06    3.5682927061E-06    3.6131763030E-06
    3.6586244660E-06    3.7046442966E-06    3.7512429853E-06    3.7984278135E-06
    3.8462061536E-06    3.8945854714E-06    3.9435733260E-06    3.9931773720E-06
    4.0434053600E-06    4.0942651384E-06    4.1457646540E-06    4.1979119538E-06
    4.2507151859E-06    4.3041826009E-06    4.3583225532E-06    4.4131435022E-06
    4.4686540139E-06    4.5248627619E-06    4.5817785288E-06    4.6394102080E-06
    4.6977668045E-06    4.7568574366E-06    4.8166913374E-06    4.8772778559E-06
    4.9386264591E-06    5.0007467327E-06    5.0636483831E-06    5.1273412389E-06
    5.1918352522E-06    5.2571405004E-06    5.3232671874E-06    5.3902256457E-06
    5.4580263378E-06    5.5266798576E-06    5.5961969324E-06    5.6665884243E-06
    5.7378653322E-06    5.8100387932E-06    5.8831200847E-06    5.9571206255E-06
    6.0320519787E-06    6.1079258522E-06    6.1847541015E-06    6.2625487313E-06
    6.3413218970E-06    6.4210859072E-06    6.5018532251E-06    6.5836364708E-06
    6.6664484231E-06    6.7503020216E-06    6.8352103684E-06    6.9211867308E-06
    7.0082445427E-06    7.0963974071E-06    7.1856590980E-06    7.2760435627E-06
    7.3675649241E-06    7.4602374825E-06    7.5540757181E-06    7.6490942935E-06
    7.7453080554E-06    7.8427320374E-06    7.9413814623E-06    8.0412717442E-06
    8.1424184911E-06    8.2448375076E-06    8.3485447966E-06    8.4535565628E-06
    8.5598892143E-06    8.6675593660E-06    8.7765838415E-06    8.8869796760E-06
    8.9987641192E-06    9.1119546376E-06    9.2265689175E-06    9.3426248675E-06
    9.4601406216E-06    9.5791345420E-06    9.6996252216E-06    9.8216314875E-06
    9.9451724032E-06    1.0070267272E-05    1.0196935641E-05    1.0325197302E-05
    1.0455072296E-05    1.0586580916E-05    1.0719743711E-05    1.0854581488E-05
    1.0991115315E-05    1.1129366527E-05    1.1269356724E-05    1.1411107782E-05
    1.1554641848E-05    1.1699981350E-05    1.1847148999E-05    1.1996167788E-05
    1.2147061004E-05    1.2299852222E-05    1.2454565317E-05    1.2611224463E-05
    1.2769854139E-05    1.2930479130E-05    1.3093124536E-05    1.3257815768E-05
    1.3424578561E-05    1.3593438972E-05    1.3764423386E-05    1.3937558518E-05
    1.4112871423E-05    1.4290389492E-05    1.4470140464E-05    1.4652152424E-05
    1.4836453813E-05    1.5023073429E-05    1.5212040430E-05    1.5403384343E-05
    1.5597135067E-05    1.5793322874E-05    1.5991978421E-05    1.6193132746E-05
    1.6396817282E-05    1.6603063853E-05    1.6811904688E-05    1.7023372416E-05
    1.7237500081E-05    1.7454321140E-05    1.7673869473E-05    1.7896179384E-05
    1.8121285609E-05    1.8349223322E-05    1.8580028138E-05    1.8813736122E-05
    1.9050383790E-05    1.9290008119E-05    1.9532646552E-05    1.9778337000E-05
    2.0027117853E-05    2.0279027985E-05    2.0534106755E-05    2.0792394022E-05
    2.1053930143E-05    2.1318755983E-05    2.1586912922E-05    2.1858442860E-05
    2.2133388224E-05    2.2411791975E-05    2.2693697615E-05    2.2979149190E-05
    2.3268191305E-05    2.3560869122E-05    2.3857228372E-05    2.4157315363E-05
    2.4461176984E-05    2.4768860713E-05    2.5080414627E-05    2.5395887407E-05
    2.5715328346E-05    2.6038787358E-05    2.6366314983E-05    2.6697962398E-05
    2.7033781424E-05    2.7373824534E-05    2.7718144859E-05    2.8066796201E-05
    2.8419833037E-05    2.8777310530E-05    2.9139284536E-05    2.9505811614E-05
    2.9876949036E-05    3.0252754792E-05    3.0633287602E-05    3.1018606925E-05
    3.1408772969E-05    3.1803846698E-05    3.2203889843E-05    3.2608964910E-05
    3.3019135195E-05    3.3434464787E-05    3.3855018582E-05    3.4280862293E-05
    3.4712062458E-05    3.5148686454E-05    3.5590802503E-05    3.6038479688E-05
    3.6491787958E-05    3.6950798144E-05    3.7415581968E-05    3.7886212053E-05
    3.8362761935E-05    3.8845306077E-05    3.9333919877E-05    3.9828679682E-05
    4.0329662800E-05    4.0836947509E-05    4.1350613074E-05    4.1870739757E-05
    4.2397408828E-05    4.2930702580E-05    4.3470704342E-05    4.4017498490E-05
    4.4571170462E-05    4.5131806770E-05    4.5699495014E-05    4.6274323898E-05
    4.6856383238E-05    4.7445763984E-05    4.8042558227E-05    4.8646859218E-05
    4.9258761379E-05    4.9878360322E-05    5.0505752860E-05    5.1141037025E-05
    5.1784312081E-05    5.2435678541E-05    5.3095238183E-05    5.3763094063E-05
    5.4439350537E-05    5.5124113269E-05    5.5817489257E-05    5.6519586840E-05
    5.7230515725E-05    5.7950386993E-05    5.8679313128E-05    5.9417408025E-05
    6.0164787012E-05    6.0921566870E-05    6.1687865847E-05    6.2463803678E-05
    6.3249501605E-05    6.4045082396E-05    6.4850670362E-05    6.5666391376E-05
    6.6492372898E-05    6.7328743988E-05    6.8175635332E-05    6.9033179257E-05
    6.9901509757E-05    7.0780762510E-05    7.1671074901E-05    7.2572586044E-05
    7.3485436801E-05    7.4409769806E-05    7.5345729490E-05    7.6293462097E-05
    7.7253115713E-05    7.8224840285E-05    7.9208787648E-05    8.0205111545E-05
    8.1213967654E-05    8.2235513611E-05    8.3269909034E-05    8.4317315549E-05
    8.5377896817E-05    8.6451818555E-05    8.7539248565E-05    8.8640356761E-05
    8.9755315193E-05    9.0884298076E-05    9.2027481815E-05    9.3185045035E-05
    9.4357168608E-05    9.5544035681E-05    9.6745831704E-05    9.7962744460E-05
    9.9194964094E-05    1.0044268314E-04    1.0170609657E-04    1.0298540177E-04
    1.0428079866E-04    1.0559248963E-04    1.0692067964E-04    1.0826557623E-04
    1.0962738954E-04    1.1100633234E-04    1.1240262011E-04    1.1381647103E-04
    1.1524810599E-04    1.1669774871E-04    1.1816562568E-04    1.1965196628E-04
    1.2115700274E-04    1.2268097023E-04    1.2422410687E-04    1.2578665377E-04
    1.2736885510E-04    1.2897095808E-04    1.3059321302E-04    1.3223587342E-04
    1.3389919595E-04    1.3558344050E-04    1.3728887023E-04    1.3901575163E-04
    1.4076435453E-04    1.4253495214E-04    1.4432782113E-04    1.4614324163E-04
    1.4798149732E-04    1.4984287541E-04    1.5172766676E-04    1.5363616586E-04
    1.5556867093E-04    1.5752548392E-04    1.5950691058E-04    1.6151326053E-04
    1.6354484725E-04    1.6560198818E-04    1.6768500477E-04    1.6979422247E-04
    1.7192997087E-04    1.7409258368E-04    1.7628239881E-04    1.7849975842E-04
    1.8074500898E-04    1.8301850132E-04    1.8532059067E-04    1.8765163674E-04
    1.9001200375E-04    1.9240206054E-04    1.9482218053E-04    1.9727274189E-04
    1.9975412751E-04    2.0226672512E-04    2.0481092732E-04    2.0738713165E-04
    2.0999574063E-04    2.1263716188E-04    2.1531180812E-04    2.1802009726E-04
    2.2076245249E-04    2.2353930230E-04    2.2635108058E-04    2.2919822668E-04
    2.3208118547E-04    2.3500040741E-04    2.3795634865E-04    2.4094947105E-04
    2.4398024230E-04    2.4704913595E-04    2.5015663154E-04    2.5330321460E-04
    2.5648937681E-04    2.5971561601E-04    2.6298243630E-04    2.6629034813E-04
    2.6963986837E-04    2.7303152039E-04    2.7646583414E-04    2.7994334623E-04
    2.8346460005E-04    2.8703014578E-04    2.9064054056E-04    2.9429634852E-04
    2.9799814088E-04    3.0174649605E-04    3.0554199973E-04    3.0938524497E-04
    3.1327683228E-04    3.1721736973E-04    3.2120747304E-04    3.2524776568E-04
    3.2933887894E-04    3.3348145207E-04    3.3767613235E-04    3.4192357522E-04
    3.4622444434E-04    3.5057941174E-04    3.5498915788E-04    3.5945437180E-04
    3.6397575119E-04    3.6855400254E-04    3.7318984120E-04    3.7788399154E-04
    3.8263718701E-04    3.8745017033E-04    3.9232369352E-04    3.9725851809E-04
    4.0225541510E-04    4.0731516535E-04    4.1243855942E-04    4.1762639785E-04
    4.2287949126E-04    4.2819866045E-04    4.3358473655E-04    4.3903856115E-04
    4.4456098641E-04    4.5015287524E-04    4.5581510136E-04    4.6154854953E-04
    4.6735411559E-04    4.7323270669E-04    4.7918524136E-04    4.8521264969E-04
    4.9131587349E-04    4.9749586640E-04    5.0375359405E-04    5.1009003422E-04
    5.1650617699E-04    5.2300302491E-04    5.2958159312E-04    5.3624290952E-04
    5.4298801497E-04    5.4981796341E-04    5.5673382202E-04    5.6373667142E-04
    5.7082760582E-04    5.7800773320E-04    5.8527817546E-04    5.9264006863E-04
    6.0009456301E-04    6.0764282339E-04    6.1528602920E-04    6.2302537470E-04
    6.3086206919E-04    6.3879733715E-04    6.4683241850E-04    6.5496856873E-04
    6.6320705914E-04    6.7154917699E-04    6.7999622577E-04    6.8854952535E-04
    6.9721041218E-04    7.0598023957E-04    7.1486037780E-04    7.2385221442E-04
    7.3295715442E-04    7.4217662047E-04    7.5151205312E-04    7.6096491107E-04
    7.7053667132E-04    7.8022882951E-04    7.9004290003E-04    7.9998041636E-04
    8.1004293126E-04    8.2023201702E-04    8.3054926570E-04    8.4099628939E-04
    8.5157472046E-04    8.6228621181E-04    8.7313243714E-04    8.8411509119E-04
    8.9523589002E-04    9.0649657128E-04    9.1789889448E-04    9.2944464124E-04
    9.4113561562E-04    9.5297364435E-04    9.6496057716E-04    9.7709828702E-04
    9.8938867047E-04    1.0018336479E-03    1.0144351639E-03    1.0271951875E-03
    1.0401157123E-03    1.0531987574E-03    1.0664463670E-03    1.0798606109E-03
    1.0934435853E-03    1.1071974124E-03    1.1211242414E-03    1.1352262484E-03
    1.1495056367E-03    1.1639646377E-03    1.1786055105E-03    1.1934305428E-03
    1.2084420510E-03    1.2236423808E-03    1.2390339072E-03    1.2546190351E-03
    1.2704001999E-03    1.2863798672E-03    1.3025605340E-03    1.3189447286E-03
    1.3355350110E-03    1.3523339734E-03    1.3693442407E-03    1.3865684709E-03
    1.4040093552E-03    1.4216696188E-03    1.4395520213E-03    1.4576593566E-03
    1.4759944542E-03    1.4945601789E-03    1.5133594317E-03    1.5323951500E-03
    1.5516703081E-03    1.5711879179E-03    1.5909510289E-03    1.6109627294E-03
    1.6312261460E-03    1.6517444450E-03    1.6725208325E-03    1.6935585547E-03
    1.7148608989E-03    1.7364311937E-03    1.7582728093E-03    1.7803891586E-03
    1.8027836974E-03    1.8254599247E-03    1.8484213839E-03    1.8716716627E-03
    1.8952143941E-03    1.9190532565E-03    1.9431919749E-03    1.9676343209E-03
    1.9923841139E-03    2.0174452209E-03    2.0428215579E-03    2.0685170898E-03
    2.0945358318E-03    2.1208818493E-03    2.1475592588E-03    2.1745722289E-03
    2.2019249803E-03    2.2296217870E-03    2.2576669766E-03    2.2860649312E-03
    2.3148200882E-03    2.3439369405E-03    2.3734200377E-03    2.4032739867E-03
    2.4335034520E-03    2.4641131573E-03    2.4951078852E-03    2.5264924788E-03
    2.5582718421E-03    2.5904509404E-03    2.6230348021E-03    2.6560285182E-03
    2.6894372442E-03    2.7232662003E-03    2.7575206722E-03    2.7922060124E-03
    2.8273276404E-03    2.8628910441E-03    2.8989017803E-03    2.9353654759E-03
    2.9722878283E-03    3.0096746067E-03    3.0475316529E-03    3.0858648821E-03
    3.1246802840E-03    3.1639839235E-03    3.2037819420E-03    3.2440805579E-03
    3.2848860680E-03    3.3262048482E-03    3.3680433547E-03    3.4104081248E-03
    3.4533057782E-03    3.4967430176E-03    3.5407266302E-03    3.5852634885E-03
    3.6303605515E-03    3.6760248658E-03    3.7222635664E-03    3.7690838783E-03
    3.8164931173E-03    3.8644986910E-03    3.9131081005E-03    3.9623289411E-03
    4.0121689037E-03    4.0626357758E-03    4.1137374431E-03    4.1654818901E-03
    4.2178772022E-03    4.2709315662E-03    4.3246532720E-03    4.3790507136E-03
    4.4341323908E-03    4.4899069102E-03    4.5463829867E-03    4.6035694447E-03
    4.6614752199E-03    4.7201093601E-03    4.7794810269E-03    4.8395994974E-03
    4.9004741652E-03    4.9621145420E-03    5.0245302593E-03    5.0877310697E-03
    5.1517268484E-03    5.2165275949E-03    5.2821434345E-03    5.3485846197E-03
    5.4158615321E-03    5.4839846840E-03    5.5529647196E-03    5.6228124172E-03
    5.6935386907E-03    5.7651545912E-03    5.8376713089E-03    5.9111001745E-03
    5.9854526616E-03    6.0607403879E-03    6.1369751172E-03    6.2141687613E-03
    6.2923333819E-03    6.3714811924E-03    6.4516245598E-03    6.5327760067E-03
    6.6149482132E-03    6.6981540187E-03    6.7824064244E-03    6.8677185950E-03
    6.9541038605E-03    7.0415757189E-03    7.1301478379E-03    7.2198340569E-03
    7.3106483898E-03    7.4026050263E-03    7.4957183349E-03    7.5900028647E-03
    7.6854733479E-03    7.7821447020E-03    7.8800320320E-03    7.9791506331E-03
    8.0795159926E-03    8.1811437930E-03    8.2840499138E-03    8.3882504342E-03
    8.4937616358E-03    8.6006000049E-03    8.7087822353E-03    8.8183252306E-03
    8.9292461072E-03    9.0415621966E-03    9.1552910486E-03    9.2704504334E-03
    9.3870583449E-03    9.5051330034E-03    9.6246928583E-03    9.7457565910E-03
    9.8683431180E-03    9.9924715937E-03    1.0118161413E-02    1.0245432216E-02
    1.0374303889E-02    1.0504796568E-02    1.0636930642E-02    1.0770726759E-02
    1.0906205824E-02    1.1043389005E-02    1.1182297738E-02    1.1322953729E-02
    1.1465378953E-02    1.1609595667E-02    1.1755626404E-02    1.1903493981E-02
    1.2053221503E-02    1.2204832365E-02    1.2358350258E-02    1.2513799168E-02
    1.2671203384E-02    1.2830587502E-02    1.2991976425E-02    1.3155395371E-02
    1.3320869874E-02    1.3488425790E-02    1.3658089300E-02    1.3829886915E-02
    1.4003845477E-02    1.4179992169E-02    1.4358354513E-02    1.4538960380E-02
    1.4721837988E-02    1.4907015914E-02    1.5094523091E-02    1.5284388818E-02
    1.5476642763E-02    1.5671314964E-02    1.5868435839E-02    1.6068036191E-02
    1.6270147205E-02    1.6474800463E-02    1.6682027943E-02    1.6891862023E-02
    1.7104335491E-02    1.7319481546E-02    1.7537333805E-02    1.7757926308E-02
    1.7981293524E-02    1.8207470353E-02    1.8436492137E-02    1.8668394660E-02
    1.8903214157E-02    1.9140987320E-02    1.9381751302E-02    1.9625543721E-02
    1.9872402672E-02    2.0122366726E-02    2.0375474941E-02    2.0631766865E-02
    2.0891282545E-02    2.1154062530E-02    2.1420147880E-02    2.1689580172E-02
    2.1962401506E-02    2.2238654509E-02    2.2518382347E-02    2.2801628728E-02
    2.3088437910E-02    2.3378854707E-02    2.3672924498E-02    2.3970693232E-02
    2.4272207435E-02    2.4577514220E-02    2.4886661292E-02    2.5199696955E-02
    2.5516670122E-02    2.5837630320E-02    2.6162627701E-02    2.6491713046E-02
    2.6824937775E-02    2.7162353955E-02    2.7504014307E-02    2.7849972219E-02
    2.8200281745E-02    2.8554997622E-02    2.8914175276E-02    2.9277870828E-02
    2.9646141108E-02    3.0019043657E-02    3.0396636743E-02    3.0778979365E-02
    3.1166131266E-02    3.1558152937E-02    3.1955105635E-02    3.2357051383E-02
    3.2764052985E-02    3.3176174038E-02    3.3593478936E-02    3.4016032883E-02
    3.4443901904E-02    3.4877152855E-02    3.5315853432E-02    3.5760072183E-02
    3.6209878518E-02    3.6665342720E-02    3.7126535957E-02    3.7593530290E-02
    3.8066398689E-02    3.8545215040E-02    3.9030054160E-02    3.9520991805E-02
    4.0018104685E-02    4.0521470475E-02    4.1031167828E-02    4.1547276384E-02
    4.2069876787E-02    4.2599050694E-02    4.3134880788E-02    4.3677450796E-02
    4.4226845494E-02    4.4783150727E-02    4.5346453418E-02    4.5916841585E-02
    4.6494404352E-02    4.7079231964E-02    4.7671415802E-02    4.8271048395E-02
    4.8878223439E-02    4.9493035803E-02    5.0115581556E-02    5.0745957970E-02
    5.1384263543E-02    5.2030598012E-02    5.2685062368E-02    5.3347758872E-02
    5.4018791071E-02    5.4698263817E-02    5.5386283278E-02    5.6082956958E-02
    5.6788393715E-02    5.7502703773E-02    5.8225998746E-02    5.8958391649E-02
    5.9699996922E-02    6.0450930440E-02    6.1211309539E-02    6.1981253030E-02
    6.2760881218E-02    6.3550315921E-02    6.4349680490E-02    6.5159099828E-02
    6.5978700407E-02    6.6808610293E-02    6.7648959160E-02    6.8499878315E-02
    6.9361500714E-02    7.0233960990E-02    7.1117395465E-02    7.2011942177E-02
    7.2917740902E-02    7.3834933173E-02    7.4763662302E-02    7.5704073405E-02
    7.6656313424E-02    7.7620531147E-02    7.8596877237E-02    7.9585504249E-02
    8.0586566657E-02    8.1600220881E-02    8.2626625305E-02    8.3665940307E-02
    8.4718328283E-02    8.5783953670E-02    8.6862982974E-02    8.7955584796E-02
    8.9061929857E-02    9.0182191026E-02    9.1316543345E-02    9.2465164061E-02
    9.3628232646E-02    9.4805930833E-02    9.5998442640E-02    9.7205954399E-02
    9.8428654786E-02    9.9666734850E-02    1.0092038804E-01    1.0218981026E-01
    1.0347519983E-01    1.0477675762E-01    1.0609468699E-01    1.0742919387E-01
    1.0878048677E-01    1.1014877686E-01    1.1153427791E-01    1.1293720642E-01
    1.1435778160E-01    1.1579622541E-01    1.1725276262E-01    1.1872762081E-01
    1.2022103044E-01    1.2173322484E-01    1.2326444031E-01    1.2481491610E-01
    1.2638489448E-01    1.2797462075E-01    1.2958434331E-01    1.3121431369E-01
    1.3286478658E-01    1.3453601986E-01    1.3622827467E-01    1.3794181542E-01
    1.3967690986E-01    1.4143382910E-01    1.4321284767E-01    1.4501424353E-01
    1.4683829816E-01    1.4868529658E-01    1.5055552738E-01    1.5244928279E-01
    1.5436685870E-01    1.5630855475E-01    1.5827467433E-01    1.6026552466E-01
    1.6228141679E-01    1.6432266573E-01    1.6638959042E-01    1.6848251382E-01
    1.7060176295E-01    1.7274766896E-01    1.7492056714E-01    1.7712079702E-01
    1.7934870238E-01    1.8160463134E-01    1.8388893640E-01    1.8620197447E-01
    1.8854410699E-01    1.9091569990E-01
   </PP_RAB>
 </PP_MESH>
  <PP_LOCAL type="real"  size="1078" columns="4">
   -3.6148472603E+01   -3.6155638800E+01   -3.6156770056E+01   -3.6156810035E+01
   -3.6156884277E+01   -3.6156886689E+01   -3.6156879668E+01   -3.6156883460E+01
   -3.6156891738E+01   -3.6156877244E+01   -3.6156881315E+01   -3.6156887988E+01
   -3.6156884938E+01   -3.6156897164E+01   -3.6156884286E+01   -3.6156873423E+01
   -3.6156900160E+01   -3.6156875379E+01   -3.6156889235E+01   -3.6156885099E+01
   -3.6156897150E+01   -3.6156870933E+01   -3.6156896527E+01   -3.6156886555E+01
   -3.6156886440E+01   -3.6156891402E+01   -3.6156888682E+01   -3.6156883968E+01
   -3.6156893071E+01   -3.6156885129E+01   -3.6156884801E+01   -3.6156896017E+01
   -3.6156886845E+01   -3.6156890459E+01   -3.6156890163E+01   -3.6156885788E+01
   -3.6156886340E+01   -3.6156893099E+01   -3.6156887335E+01   -3.6156894662E+01
   -3.6156889994E+01   -3.6156882256E+01   -3.6156898560E+01   -3.6156887980E+01
   -3.6156894346E+01   -3.6156886356E+01   -3.6156889209E+01   -3.6156892561E+01
   -3.6156889541E+01   -3.6156893949E+01   -3.6156888742E+01   -3.6156890675E+01
   -3.6156892661E+01   -3.6156891148E+01   -3.6156890549E+01   -3.6156890277E+01
   -3.6156894792E+01   -3.6156890053E+01   -3.6156891072E+01   -3.6156890841E+01
   -3.6156892750E+01   -3.6156891426E+01   -3.6156894269E+01   -3.6156889311E+01
   -3.6156894456E+01   -3.6156891780E+01   -3.6156890232E+01   -3.6156894793E+01
   -3.6156891089E+01   -3.6156892622E+01   -3.6156891979E+01   -3.6156894154E+01
   -3.6156890461E+01   -3.6156893417E+01   -3.6156894868E+01   -3.6156888713E+01
   -3.6156897559E+01   -3.6156889653E+01   -3.6156894126E+01   -3.6156891582E+01
   -3.6156893435E+01   -3.6156894162E+01   -3.6156891983E+01   -3.6156895010E+01
   -3.6156889719E+01   -3.6156895190E+01   -3.6156894756E+01   -3.6156892114E+01
   -3.6156891819E+01   -3.6156895029E+01   -3.6156891613E+01   -3.6156894449E+01
   -3.6156894350E+01   -3.6156892725E+01   -3.6156894115E+01   -3.6156893138E+01
   -3.6156894548E+01   -3.6156891965E+01   -3.6156894981E+01   -3.6156893137E+01
   -3.6156893951E+01   -3.6156893668E+01   -3.6156893876E+01   -3.6156893563E+01
   -3.6156893845E+01   -3.6156894228E+01   -3.6156894082E+01   -3.6156893834E+01
   -3.6156893009E+01   -3.6156894691E+01   -3.6156894095E+01   -3.6156894409E+01
   -3.6156892892E+01   -3.6156894904E+01   -3.6156893850E+01   -3.6156894166E+01
   -3.6156894447E+01   -3.6156893421E+01   -3.6156894733E+01   -3.6156893886E+01
   -3.6156893944E+01   -3.6156895204E+01   -3.6156893913E+01   -3.6156893965E+01
   -3.6156894398E+01   -3.6156893961E+01   -3.6156894369E+01   -3.6156894581E+01
   -3.6156894050E+01   -3.6156894875E+01   -3.6156893632E+01   -3.6156895372E+01
   -3.6156893903E+01   -3.6156894415E+01   -3.6156893938E+01   -3.6156894730E+01
   -3.6156894326E+01   -3.6156894691E+01   -3.6156894458E+01   -3.6156894559E+01
   -3.6156894306E+01   -3.6156894352E+01   -3.6156895043E+01   -3.6156894454E+01
   -3.6156894027E+01   -3.6156894810E+01   -3.6156894619E+01   -3.6156894869E+01
   -3.6156894046E+01   -3.6156894611E+01   -3.6156894845E+01   -3.6156894421E+01
   -3.6156894701E+01   -3.6156894595E+01   -3.6156894724E+01   -3.6156894411E+01
   -3.6156894325E+01   -3.6156894993E+01   -3.6156894722E+01   -3.6156894375E+01
   -3.6156894954E+01   -3.6156894225E+01   -3.6156894750E+01   -3.6156894677E+01
   -3.6156894848E+01   -3.6156894558E+01   -3.6156894294E+01   -3.6156895016E+01
   -3.6156894656E+01   -3.6156894549E+01   -3.6156894916E+01   -3.6156894452E+01
   -3.6156894829E+01   -3.6156894369E+01   -3.6156895024E+01   -3.6156894465E+01
   -3.6156894520E+01   -3.6156894960E+01   -3.6156894407E+01   -3.6156894836E+01
   -3.6156894702E+01   -3.6156894520E+01   -3.6156894744E+01   -3.6156894602E+01
   -3.6156894771E+01   -3.6156894492E+01   -3.6156894766E+01   -3.6156894613E+01
   -3.6156894707E+01   -3.6156894603E+01   -3.6156894612E+01   -3.6156894622E+01
   -3.6156894544E+01   -3.6156894767E+01   -3.6156894424E+01   -3.6156894785E+01
   -3.6156894540E+01   -3.6156894493E+01   -3.6156894714E+01   -3.6156894474E+01
   -3.6156894698E+01   -3.6156894465E+01   -3.6156894539E+01   -3.6156894555E+01
   -3.6156894560E+01   -3.6156894464E+01   -3.6156894516E+01   -3.6156894483E+01
   -3.6156894570E+01   -3.6156894433E+01   -3.6156894391E+01   -3.6156894539E+01
   -3.6156894370E+01   -3.6156894457E+01   -3.6156894383E+01   -3.6156894394E+01
   -3.6156894459E+01   -3.6156894270E+01   -3.6156894425E+01   -3.6156894247E+01
   -3.6156894301E+01   -3.6156894345E+01   -3.6156894239E+01   -3.6156894274E+01
   -3.6156894220E+01   -3.6156894203E+01   -3.6156894192E+01   -3.6156894159E+01
   -3.6156894155E+01   -3.6156894104E+01   -3.6156894102E+01   -3.6156894059E+01
   -3.6156894080E+01   -3.6156893993E+01   -3.6156893994E+01   -3.6156893944E+01
   -3.6156893974E+01   -3.6156893851E+01   -3.6156893908E+01   -3.6156893841E+01
   -3.6156893830E+01   -3.6156893787E+01   -3.6156893707E+01   -3.6156893729E+01
   -3.6156893663E+01   -3.6156893658E+01   -3.6156893585E+01   -3.6156893592E+01
   -3.6156893500E+01   -3.6156893460E+01   -3.6156893457E+01   -3.6156893375E+01
   -3.6156893371E+01   -3.6156893318E+01   -3.6156893222E+01   -3.6156893234E+01
   -3.6156893149E+01   -3.6156893115E+01   -3.6156893052E+01   -3.6156893026E+01
   -3.6156892924E+01   -3.6156892881E+01   -3.6156892834E+01   -3.6156892810E+01
   -3.6156892675E+01   -3.6156892643E+01   -3.6156892605E+01   -3.6156892526E+01
   -3.6156892451E+01   -3.6156892363E+01   -3.6156892327E+01   -3.6156892231E+01
   -3.6156892168E+01   -3.6156892075E+01   -3.6156892010E+01   -3.6156891938E+01
   -3.6156891836E+01   -3.6156891733E+01   -3.6156891704E+01   -3.6156891571E+01
   -3.6156891483E+01   -3.6156891378E+01   -3.6156891314E+01   -3.6156891195E+01
   -3.6156891083E+01   -3.6156891000E+01   -3.6156890879E+01   -3.6156890760E+01
   -3.6156890672E+01   -3.6156890534E+01   -3.6156890426E+01   -3.6156890305E+01
   -3.6156890183E+01   -3.6156890052E+01   -3.6156889909E+01   -3.6156889774E+01
   -3.6156889648E+01   -3.6156889508E+01   -3.6156889347E+01   -3.6156889221E+01
   -3.6156889054E+01   -3.6156888874E+01   -3.6156888759E+01   -3.6156888561E+01
   -3.6156888401E+01   -3.6156888229E+01   -3.6156888052E+01   -3.6156887869E+01
   -3.6156887673E+01   -3.6156887494E+01   -3.6156887292E+01   -3.6156887091E+01
   -3.6156886876E+01   -3.6156886685E+01   -3.6156886438E+01   -3.6156886232E+01
   -3.6156885994E+01   -3.6156885773E+01   -3.6156885523E+01   -3.6156885277E+01
   -3.6156885024E+01   -3.6156884768E+01   -3.6156884497E+01   -3.6156884228E+01
   -3.6156883946E+01   -3.6156883657E+01   -3.6156883365E+01   -3.6156883061E+01
   -3.6156882751E+01   -3.6156882438E+01   -3.6156882111E+01   -3.6156881776E+01
   -3.6156881438E+01   -3.6156881088E+01   -3.6156880719E+01   -3.6156880364E+01
   -3.6156879972E+01   -3.6156879590E+01   -3.6156879193E+01   -3.6156878789E+01
   -3.6156878365E+01   -3.6156877936E+01   -3.6156877501E+01   -3.6156877051E+01
   -3.6156876584E+01   -3.6156876112E+01   -3.6156875630E+01   -3.6156875127E+01
   -3.6156874621E+01   -3.6156874092E+01   -3.6156873560E+01   -3.6156873005E+01
   -3.6156872444E+01   -3.6156871864E+01   -3.6156871273E+01   -3.6156870662E+01
   -3.6156870035E+01   -3.6156869401E+01   -3.6156868742E+01   -3.6156868068E+01
   -3.6156867384E+01   -3.6156866672E+01   -3.6156865948E+01   -3.6156865207E+01
   -3.6156864443E+01   -3.6156863662E+01   -3.6156862860E+01   -3.6156862039E+01
   -3.6156861195E+01   -3.6156860335E+01   -3.6156859448E+01   -3.6156858539E+01
   -3.6156857608E+01   -3.6156856655E+01   -3.6156855675E+01   -3.6156854671E+01
   -3.6156853645E+01   -3.6156852587E+01   -3.6156851507E+01   -3.6156850396E+01
   -3.6156849261E+01   -3.6156848093E+01   -3.6156846900E+01   -3.6156845673E+01
   -3.6156844414E+01   -3.6156843128E+01   -3.6156841807E+01   -3.6156840450E+01
   -3.6156839062E+01   -3.6156837638E+01   -3.6156836178E+01   -3.6156834678E+01
   -3.6156833146E+01   -3.6156831570E+01   -3.6156829957E+01   -3.6156828303E+01
   -3.6156826604E+01   -3.6156824866E+01   -3.6156823082E+01   -3.6156821253E+01
   -3.6156819378E+01   -3.6156817455E+01   -3.6156815483E+01   -3.6156813464E+01
   -3.6156811389E+01   -3.6156809265E+01   -3.6156807087E+01   -3.6156804852E+01
   -3.6156802562E+01   -3.6156800214E+01   -3.6156797805E+01   -3.6156795337E+01
   -3.6156792806E+01   -3.6156790209E+01   -3.6156787550E+01   -3.6156784820E+01
   -3.6156782023E+01   -3.6156779155E+01   -3.6156776214E+01   -3.6156773198E+01
   -3.6156770106E+01   -3.6156766936E+01   -3.6156763687E+01   -3.6156760352E+01
   -3.6156756937E+01   -3.6156753432E+01   -3.6156749841E+01   -3.6156746157E+01
   -3.6156742381E+01   -3.6156738509E+01   -3.6156734539E+01   -3.6156730469E+01
   -3.6156726295E+01   -3.6156722016E+01   -3.6156717628E+01   -3.6156713130E+01
   -3.6156708517E+01   -3.6156703787E+01   -3.6156698940E+01   -3.6156693967E+01
   -3.6156688870E+01   -3.6156683643E+01   -3.6156678284E+01   -3.6156672790E+01
   -3.6156667156E+01   -3.6156661379E+01   -3.6156655457E+01   -3.6156649384E+01
   -3.6156643158E+01   -3.6156636774E+01   -3.6156630229E+01   -3.6156623518E+01
   -3.6156616637E+01   -3.6156609582E+01   -3.6156602348E+01   -3.6156594931E+01
   -3.6156587327E+01   -3.6156579530E+01   -3.6156571535E+01   -3.6156563338E+01
   -3.6156554934E+01   -3.6156546317E+01   -3.6156537481E+01   -3.6156528422E+01
   -3.6156519135E+01   -3.6156509611E+01   -3.6156499847E+01   -3.6156489835E+01
   -3.6156479570E+01   -3.6156469046E+01   -3.6156458255E+01   -3.6156447190E+01
   -3.6156435846E+01   -3.6156424214E+01   -3.6156412288E+01   -3.6156400061E+01
   -3.6156387523E+01   -3.6156374669E+01   -3.6156361488E+01   -3.6156347975E+01
   -3.6156334119E+01   -3.6156319913E+01   -3.6156305347E+01   -3.6156290412E+01
   -3.6156275099E+01   -3.6156259399E+01   -3.6156243301E+01   -3.6156226796E+01
   -3.6156209873E+01   -3.6156192522E+01   -3.6156174731E+01   -3.6156156491E+01
   -3.6156137788E+01   -3.6156118612E+01   -3.6156098951E+01   -3.6156078793E+01
   -3.6156058124E+01   -3.6156036931E+01   -3.6156015203E+01   -3.6155992925E+01
   -3.6155970082E+01   -3.6155946662E+01   -3.6155922649E+01   -3.6155898028E+01
   -3.6155872784E+01   -3.6155846901E+01   -3.6155820363E+01   -3.6155793154E+01
   -3.6155765256E+01   -3.6155736652E+01   -3.6155707323E+01   -3.6155677253E+01
   -3.6155646422E+01   -3.6155614810E+01   -3.6155582399E+01   -3.6155549167E+01
   -3.6155515094E+01   -3.6155480159E+01   -3.6155444340E+01   -3.6155407614E+01
   -3.6155369960E+01   -3.6155331352E+01   -3.6155291767E+01   -3.6155251181E+01
   -3.6155209567E+01   -3.6155166901E+01   -3.6155123155E+01   -3.6155078302E+01
   -3.6155032314E+01   -3.6154985162E+01   -3.6154936818E+01   -3.6154887250E+01
   -3.6154836428E+01   -3.6154784320E+01   -3.6154730893E+01   -3.6154676115E+01
   -3.6154619951E+01   -3.6154562366E+01   -3.6154503324E+01   -3.6154442789E+01
   -3.6154380721E+01   -3.6154317084E+01   -3.6154251837E+01   -3.6154184939E+01
   -3.6154116348E+01   -3.6154046023E+01   -3.6153973918E+01   -3.6153899989E+01
   -3.6153824191E+01   -3.6153746475E+01   -3.6153666793E+01   -3.6153585095E+01
   -3.6153501332E+01   -3.6153415449E+01   -3.6153327394E+01   -3.6153237112E+01
   -3.6153144547E+01   -3.6153049641E+01   -3.6152952334E+01   -3.6152852566E+01
   -3.6152750276E+01   -3.6152645398E+01   -3.6152537869E+01   -3.6152427620E+01
   -3.6152314583E+01   -3.6152198689E+01   -3.6152079863E+01   -3.6151958033E+01
   -3.6151833123E+01   -3.6151705055E+01   -3.6151573748E+01   -3.6151439123E+01
   -3.6151301093E+01   -3.6151159574E+01   -3.6151014478E+01   -3.6150865714E+01
   -3.6150713189E+01   -3.6150556809E+01   -3.6150396477E+01   -3.6150232092E+01
   -3.6150063553E+01   -3.6149890754E+01   -3.6149713588E+01   -3.6149531945E+01
   -3.6149345712E+01   -3.6149154773E+01   -3.6148959009E+01   -3.6148758299E+01
   -3.6148552518E+01   -3.6148341538E+01   -3.6148125229E+01   -3.6147903455E+01
   -3.6147676078E+01   -3.6147442959E+01   -3.6147203951E+01   -3.6146958907E+01
   -3.6146707674E+01   -3.6146450096E+01   -3.6146186014E+01   -3.6145915264E+01
   -3.6145637677E+01   -3.6145353082E+01   -3.6145061301E+01   -3.6144762155E+01
   -3.6144455457E+01   -3.6144141018E+01   -3.6143818641E+01   -3.6143488129E+01
   -3.6143149276E+01   -3.6142801871E+01   -3.6142445701E+01   -3.6142080544E+01
   -3.6141706174E+01   -3.6141322359E+01   -3.6140928862E+01   -3.6140525440E+01
   -3.6140111843E+01   -3.6139687815E+01   -3.6139253093E+01   -3.6138807410E+01
   -3.6138350489E+01   -3.6137882049E+01   -3.6137401799E+01   -3.6136909444E+01
   -3.6136404679E+01   -3.6135887192E+01   -3.6135356664E+01   -3.6134812768E+01
   -3.6134255168E+01   -3.6133683520E+01   -3.6133097471E+01   -3.6132496661E+01
   -3.6131880719E+01   -3.6131249264E+01   -3.6130601909E+01   -3.6129938255E+01
   -3.6129257892E+01   -3.6128560402E+01   -3.6127845355E+01   -3.6127112312E+01
   -3.6126360822E+01   -3.6125590421E+01   -3.6124800637E+01   -3.6123990983E+01
   -3.6123160963E+01   -3.6122310065E+01   -3.6121437768E+01   -3.6120543534E+01
   -3.6119626816E+01   -3.6118687050E+01   -3.6117723658E+01   -3.6116736051E+01
   -3.6115723620E+01   -3.6114685746E+01   -3.6113621792E+01   -3.6112531104E+01
   -3.6111413013E+01   -3.6110266835E+01   -3.6109091865E+01   -3.6107887384E+01
   -3.6106652653E+01   -3.6105386914E+01   -3.6104089393E+01   -3.6102759293E+01
   -3.6101395798E+01   -3.6099998074E+01   -3.6098565262E+01   -3.6097096484E+01
   -3.6095590840E+01   -3.6094047405E+01   -3.6092465234E+01   -3.6090843355E+01
   -3.6089180773E+01   -3.6087476467E+01   -3.6085729391E+01   -3.6083938472E+01
   -3.6082102608E+01   -3.6080220671E+01   -3.6078291504E+01   -3.6076313920E+01
   -3.6074286699E+01   -3.6072208594E+01   -3.6070078323E+01   -3.6067894570E+01
   -3.6065655988E+01   -3.6063361192E+01   -3.6061008763E+01   -3.6058597242E+01
   -3.6056125135E+01   -3.6053590906E+01   -3.6050992980E+01   -3.6048329740E+01
   -3.6045599523E+01   -3.6042800626E+01   -3.6039931298E+01   -3.6036989740E+01
   -3.6033974106E+01   -3.6030882497E+01   -3.6027712965E+01   -3.6024463507E+01
   -3.6021132065E+01   -3.6017716522E+01   -3.6014214705E+01   -3.6010624377E+01
   -3.6006943239E+01   -3.6003168928E+01   -3.5999299010E+01   -3.5995330983E+01
   -3.5991262273E+01   -3.5987090229E+01   -3.5982812125E+01   -3.5978425150E+01
   -3.5973926414E+01   -3.5969312937E+01   -3.5964581649E+01   -3.5959729390E+01
   -3.5954752897E+01   -3.5949648813E+01   -3.5944413670E+01   -3.5939043896E+01
   -3.5933535803E+01   -3.5927885587E+01   -3.5922089320E+01   -3.5916142948E+01
   -3.5910042283E+01   -3.5903783002E+01   -3.5897360634E+01   -3.5890770562E+01
   -3.5884008010E+01   -3.5877068042E+01   -3.5869945551E+01   -3.5862635252E+01
   -3.5855131677E+01   -3.5847429166E+01   -3.5839521858E+01   -3.5831403680E+01
   -3.5823068342E+01   -3.5814509326E+01   -3.5805719874E+01   -3.5796692979E+01
   -3.5787421373E+01   -3.5777897516E+01   -3.5768113584E+01   -3.5758061454E+01
   -3.5747732694E+01   -3.5737118544E+01   -3.5726209908E+01   -3.5714997330E+01
   -3.5703470985E+01   -3.5691620658E+01   -3.5679435726E+01   -3.5666905143E+01
   -3.5654017415E+01   -3.5640760582E+01   -3.5627122198E+01   -3.5613089304E+01
   -3.5598648410E+01   -3.5583785464E+01   -3.5568485830E+01   -3.5552734260E+01
   -3.5536514866E+01   -3.5519811086E+01   -3.5502605659E+01   -3.5484880588E+01
   -3.5466617106E+01   -3.5447795641E+01   -3.5428395780E+01   -3.5408396226E+01
   -3.5387774760E+01   -3.5366508197E+01   -3.5344572342E+01   -3.5321941942E+01
   -3.5298590637E+01   -3.5274490911E+01   -3.5249614039E+01   -3.5223930029E+01
   -3.5197407568E+01   -3.5170013961E+01   -3.5141715070E+01   -3.5112475250E+01
   -3.5082257284E+01   -3.5051022314E+01   -3.5018729775E+01   -3.4985337322E+01
   -3.4950800758E+01   -3.4915073966E+01   -3.4878108833E+01   -3.4839855181E+01
   -3.4800260698E+01   -3.4759270871E+01   -3.4716828927E+01   -3.4672875774E+01
   -3.4627349961E+01   -3.4580187638E+01   -3.4531322536E+01   -3.4480685970E+01
   -3.4428206855E+01   -3.4373811756E+01   -3.4317424969E+01   -3.4258968645E+01
   -3.4198362948E+01   -3.4135526281E+01   -3.4070375558E+01   -3.4002826544E+01
   -3.3932794266E+01   -3.3860193494E+01   -3.3784939292E+01   -3.3706947644E+01
   -3.3626136134E+01   -3.3542424679E+01   -3.3455736292E+01   -3.3365997848E+01
   -3.3273140826E+01   -3.3177101986E+01   -3.3077823953E+01   -3.2975255655E+01
   -3.2869352591E+01   -3.2760076888E+01   -3.2647397141E+01   -3.2531288022E+01
   -3.2411729675E+01   -3.2288706933E+01   -3.2162208397E+01   -3.2032225448E+01
   -3.1898751253E+01   -3.1761779854E+01   -3.1621305384E+01   -3.1477321488E+01
   -3.1329820969E+01   -3.1178795690E+01   -3.1024236718E+01   -3.0866134707E+01
   -3.0704480470E+01   -3.0539265718E+01   -3.0370483911E+01   -3.0198131181E+01
   -3.0022207292E+01   -2.9842716607E+01   -2.9659669009E+01   -2.9473080791E+01
   -2.9282975444E+01   -2.9089384362E+01   -2.8892347415E+01   -2.8691913388E+01
   -2.8488140253E+01   -2.8281095275E+01   -2.8070854940E+01   -2.7857504702E+01
   -2.7641138570E+01   -2.7421858537E+01   -2.7199773901E+01   -2.6975000493E+01
   -2.6747659858E+01   -2.6517878430E+01   -2.6285786738E+01   -2.6051518667E+01
   -2.5815210815E+01   -2.5577001955E+01   -2.5337032610E+01   -2.5095444752E+01
   -2.4852381607E+01   -2.4607987572E+01   -2.4362408202E+01   -2.4115790279E+01
   -2.3868281911E+01   -2.3620032663E+01   -2.3371193688E+01   -2.3121917835E+01
   -2.2872359729E+01   -2.2622675780E+01   -2.2373024140E+01   -2.2123564555E+01
   -2.1874458131E+01   -2.1625866979E+01   -2.1377953747E+01   -2.1130881020E+01
   -2.0884810583E+01   -2.0639902548E+01   -2.0396314351E+01   -2.0154199594E+01
   -1.9913706779E+01   -1.9674977895E+01   -1.9438146890E+01   -1.9203338026E+01
   -1.8970664097E+01   -1.8740224521E+01   -1.8512103270E+01   -1.8286366611E+01
   -1.8063060623E+01   -1.7842208419E+01   -1.7623807056E+01   -1.7407824904E+01
   -1.7194213108E+01   -1.6982924032E+01   -1.6773914107E+01   -1.6567144173E+01
   -1.6362579903E+01   -1.6160192315E+01   -1.5959958381E+01   -1.5761861617E+01
   -1.5565901915E+01   -1.5372097078E+01   -1.5180457742E+01   -1.4991002089E+01
   -1.4803756625E+01   -1.4618755494E+01   -1.4436039283E+01   -1.4255653215E+01
   -1.4077644713E+01   -1.3902060729E+01   -1.3728944897E+01   -1.3558306324E+01
   -1.3389890216E+01   -1.3223552340E+01   -1.3059260357E+01   -1.2897033895E+01
   -1.2736821622E+01   -1.2578599648E+01   -1.2422343219E+01   -1.2268027925E+01
   -1.2115629664E+01   -1.1965124630E+01   -1.1816489315E+01   -1.1669700500E+01
   -1.1524735252E+01   -1.1381570923E+01   -1.1240185140E+01   -1.1100555809E+01
   -1.0962661107E+01   -1.0826479478E+01   -1.0691989635E+01   -1.0559170555E+01
   -1.0428001472E+01   -1.0298461881E+01   -1.0170531531E+01   -1.0044190424E+01
   -9.9194188100E+00   -9.7961971852E+00   -9.6745062896E+00   -9.5543271029E+00
   -9.4356408418E+00   -9.3184289572E+00   -9.2026731308E+00   -9.0883552725E+00
   -8.9754575172E+00   -8.8639622223E+00   -8.7538519643E+00   -8.6451095367E+00
   -8.5377179467E+00   -8.4316604129E+00   -8.3269203621E+00   -8.2234814276E+00
   -8.1213274456E+00   -8.0204424534E+00   -7.9208106867E+00   -7.8224165769E+00
   -7.7252447488E+00   -7.6292800184E+00   -7.5345073903E+00   -7.4409120554E+00
   -7.3484793886E+00   -7.2571949465E+00   -7.1670444652E+00   -7.0780138581E+00
   -6.9900892133E+00   -6.9032567923E+00   -6.8175030269E+00   -6.7328145177E+00
   -6.6491780317E+00   -6.5665805004E+00   -6.4850090177E+00   -6.4044508378E+00
   -6.3248933734E+00   -6.2463241936E+00   -6.1687310221E+00   -6.0921017343E+00
   -6.0164243573E+00   -5.9416870665E+00   -5.8678781840E+00   -5.7949861772E+00
   -5.7229996566E+00   -5.6519073740E+00   -5.5816982212E+00   -5.5123612275E+00
   -5.4438855587E+00   -5.3762605150E+00   -5.3094755295E+00   -5.2435201664E+00
   -5.1783841195E+00   -5.1140572107E+00   -5.0505293880E+00   -4.9877907246E+00
   -4.9258314166E+00   -4.8646417822E+00   -4.8042122596E+00   -4.7445334060E+00
   -4.6855958958E+00   -4.6273905192E+00   -4.5699081810E+00   -4.5131398989E+00
   -4.4570768023E+00   -4.4017101306E+00   -4.3470312325E+00   -4.2930315638E+00
   -4.2397026868E+00   -4.1870362686E+00   -4.1350240798E+00   -4.0836579934E+00
   -4.0329299833E+00   -3.9828321233E+00   -3.9333565857E+00   -3.8844956400E+00
   -3.8362416519E+00   -3.7885870818E+00   -3.7415244841E+00   -3.6950465054E+00
   -3.6491458839E+00   -3.6038154478E+00   -3.5590481146E+00   -3.5148368896E+00
   -3.4711748652E+00   -3.4280552192E+00   -3.3854712146E+00   -3.3434161977E+00
   -3.3018835975E+00   -3.2608669246E+00   -3.2203597703E+00   -3.1803558053E+00
   -3.1408487790E+00   -3.1018325184E+00   -3.0633009271E+00   -3.0252479844E+00
   -2.9876677445E+00   -2.9505543352E+00   -2.9139019576E+00   -2.8777048844E+00
   -2.8419574597E+00   -2.8066540978E+00   -2.7717892824E+00   -2.7373575657E+00
   -2.7033535675E+00   -2.6697719745E+00   -2.6366075394E+00   -2.6038550802E+00
   -2.5715094792E+00   -2.5395656820E+00   -2.5080186975E+00   -2.4768635961E+00
   -2.4460955099E+00   -2.4157096312E+00   -2.3857012120E+00   -2.3560655635E+00
   -2.3267980549E+00   -2.2978941131E+00   -2.2693492218E+00   -2.2411589208E+00
   -2.2133188051E+00   -2.1858245248E+00   -2.1586717837E+00   -2.1318563391E+00
   -2.1053740011E+00   -2.0792206318E+00   -2.0533921445E+00   -2.0278845036E+00
   -2.0026937233E+00   -1.9778158676E+00   -1.9532470492E+00   -1.9289834291E+00
   -1.9050212162E+00   -1.8813566662E+00   -1.8579860814E+00   -1.8349058102E+00
   -1.8121122461E+00   -1.7896018273E+00   -1.7673710240E+00   -1.7454161298E+00
   -1.7237273335E+00   -1.7023046375E+00
  </PP_LOCAL>
 <PP_NONLOCAL>
   <PP_BETA.1
       type="real"
       size="1078"
       columns="4"
       index="1"
       angular_momentum="0"
       cutoff_radius_index=" 916"
       cutoff_radius="    2.0159757564E+00" >
    0.0000000000E+00    1.4921123064E-04    1.5108807687E-04    1.5298853092E-04
    1.5491288973E-04    1.5686145400E-04    1.5883452820E-04    1.6083242060E-04
    1.6285544340E-04    1.6490391270E-04    1.6697814857E-04    1.6907847511E-04
    1.7120522050E-04    1.7335871707E-04    1.7553930128E-04    1.7774731386E-04
    1.7998309983E-04    1.8224700851E-04    1.8453939367E-04    1.8686061348E-04
    1.8921103064E-04    1.9159101240E-04    1.9400093066E-04    1.9644116195E-04
    1.9891208757E-04    2.0141409361E-04    2.0394757101E-04    2.0651291564E-04
    2.0911052832E-04    2.1174081495E-04    2.1440418651E-04    2.1710105917E-04
    2.1983185430E-04    2.2259699861E-04    2.2539692415E-04    2.2823206841E-04
    2.3110287440E-04    2.3400979069E-04    2.3695327148E-04    2.3993377669E-04
    2.4295177205E-04    2.4600772912E-04    2.4910212539E-04    2.5223544437E-04
    2.5540817566E-04    2.5862081499E-04    2.6187386435E-04    2.6516783203E-04
    2.6850323272E-04    2.7188058758E-04    2.7530042434E-04    2.7876327735E-04
    2.8226968769E-04    2.8582020323E-04    2.8941537877E-04    2.9305577604E-04
    2.9674196387E-04    3.0047451823E-04    3.0425402235E-04    3.0808106678E-04
    3.1195624949E-04    3.1588017600E-04    3.1985345943E-04    3.2387672061E-04
    3.2795058818E-04    3.3207569870E-04    3.3625269672E-04    3.4048223490E-04
    3.4476497412E-04    3.4910158356E-04    3.5349274084E-04    3.5793913207E-04
    3.6244145201E-04    3.6700040416E-04    3.7161670087E-04    3.7629106344E-04
    3.8102422225E-04    3.8581691687E-04    3.9066989615E-04    3.9558391840E-04
    4.0055975144E-04    4.0559817274E-04    4.1069996958E-04    4.1586593912E-04
    4.2109688855E-04    4.2639363522E-04    4.3175700675E-04    4.3718784119E-04
    4.4268698712E-04    4.4825530377E-04    4.5389366122E-04    4.5960294047E-04
    4.6538403361E-04    4.7123784394E-04    4.7716528613E-04    4.8316728636E-04
    4.8924478245E-04    4.9539872403E-04    5.0163007265E-04    5.0793980198E-04
    5.1432889792E-04    5.2079835879E-04    5.2734919545E-04    5.3398243148E-04
    5.4069910334E-04    5.4750026052E-04    5.5438696572E-04    5.6136029499E-04
    5.6842133793E-04    5.7557119785E-04    5.8281099192E-04    5.9014185138E-04
    5.9756492168E-04    6.0508136270E-04    6.1269234889E-04    6.2039906949E-04
    6.2820272868E-04    6.3610454581E-04    6.4410575554E-04    6.5220760809E-04
    6.6041136937E-04    6.6871832125E-04    6.7712976170E-04    6.8564700503E-04
    6.9427138207E-04    7.0300424039E-04    7.1184694452E-04    7.2080087616E-04
    7.2986743436E-04    7.3904803581E-04    7.4834411497E-04    7.5775712439E-04
    7.6728853486E-04    7.7693983569E-04    7.8671253490E-04    7.9660815951E-04
    8.0662825571E-04    8.1677438918E-04    8.2704814525E-04    8.3745112924E-04
    8.4798496661E-04    8.5865130330E-04    8.6945180595E-04    8.8038816215E-04
    8.9146208074E-04    9.0267529203E-04    9.1402954810E-04    9.2552662308E-04
    9.3716831340E-04    9.4895643811E-04    9.6089283912E-04    9.7297938150E-04
    9.8521795382E-04    9.9761046836E-04    1.0101588615E-03    1.0228650939E-03
    1.0357311509E-03    1.0487590430E-03    1.0619508057E-03    1.0753085002E-03
    1.0888342138E-03    1.1025300598E-03    1.1163981783E-03    1.1304407362E-03
    1.1446599275E-03    1.1590579742E-03    1.1736371259E-03    1.1883996607E-03
    1.2033478851E-03    1.2184841350E-03    1.2338107754E-03    1.2493302010E-03
    1.2650448368E-03    1.2809571383E-03    1.2970695917E-03    1.3133847147E-03
    1.3299050565E-03    1.3466331985E-03    1.3635717545E-03    1.3807233711E-03
    1.3980907283E-03    1.4156765398E-03    1.4334835533E-03    1.4515145513E-03
    1.4697723512E-03    1.4882598057E-03    1.5069798035E-03    1.5259352696E-03
    1.5451291660E-03    1.5645644916E-03    1.5842442832E-03    1.6041716158E-03
    1.6243496032E-03    1.6447813981E-03    1.6654701931E-03    1.6864192208E-03
    1.7076317544E-03    1.7291111086E-03    1.7508606394E-03    1.7728837453E-03
    1.7951838674E-03    1.8177644901E-03    1.8406291416E-03    1.8637813946E-03
    1.8872248667E-03    1.9109632210E-03    1.9350001665E-03    1.9593394590E-03
    1.9839849017E-03    2.0089403453E-03    2.0342096893E-03    2.0597968819E-03
    2.0857059211E-03    2.1119408554E-03    2.1385057838E-03    2.1654048573E-03
    2.1926422788E-03    2.2202223041E-03    2.2481492427E-03    2.2764274582E-03
    2.3050613691E-03    2.3340554494E-03    2.3634142295E-03    2.3931422967E-03
    2.4232442960E-03    2.4537249309E-03    2.4845889640E-03    2.5158412178E-03
    2.5474865755E-03    2.5795299816E-03    2.6119764431E-03    2.6448310296E-03
    2.6780988746E-03    2.7117851764E-03    2.7458951983E-03    2.7804342701E-03
    2.8154077884E-03    2.8508212180E-03    2.8866800921E-03    2.9229900137E-03
    2.9597566562E-03    2.9969857644E-03    3.0346831554E-03    3.0728547192E-03
    3.1115064202E-03    3.1506442978E-03    3.1902744672E-03    3.2304031205E-03
    3.2710365279E-03    3.3121810383E-03    3.3538430804E-03    3.3960291640E-03
    3.4387458806E-03    3.4819999045E-03    3.5257979943E-03    3.5701469933E-03
    3.6150538309E-03    3.6605255238E-03    3.7065691769E-03    3.7531919845E-03
    3.8004012311E-03    3.8482042934E-03    3.8966086402E-03    3.9456218349E-03
    3.9952515355E-03    4.0455054965E-03    4.0963915701E-03    4.1479177071E-03
    4.2000919583E-03    4.2529224758E-03    4.3064175143E-03    4.3605854320E-03
    4.4154346928E-03    4.4709738665E-03    4.5272116309E-03    4.5841567732E-03
    4.6418181906E-03    4.7002048927E-03    4.7593260020E-03    4.8191907561E-03
    4.8798085086E-03    4.9411887306E-03    5.0033410128E-03    5.0662750659E-03
    5.1300007232E-03    5.1945279415E-03    5.2598668029E-03    5.3260275161E-03
    5.3930204185E-03    5.4608559773E-03    5.5295447914E-03    5.5990975930E-03
    5.6695252494E-03    5.7408387643E-03    5.8130492801E-03    5.8861680791E-03
    5.9602065856E-03    6.0351763677E-03    6.1110891386E-03    6.1879567594E-03
    6.2657912398E-03    6.3446047408E-03    6.4244095765E-03    6.5052182155E-03
    6.5870432835E-03    6.6698975650E-03    6.7537940050E-03    6.8387457115E-03
    6.9247659574E-03    7.0118681824E-03    7.1000659954E-03    7.1893731761E-03
    7.2798036778E-03    7.3713716292E-03    7.4640913366E-03    7.5579772864E-03
    7.6530441469E-03    7.7493067711E-03    7.8467801988E-03    7.9454796586E-03
    8.0454205710E-03    8.1466185503E-03    8.2490894070E-03    8.3528491505E-03
    8.4579139917E-03    8.5643003452E-03    8.6720248319E-03    8.7811042818E-03
    8.8915557368E-03    9.0033964526E-03    9.1166439023E-03    9.2313157784E-03
    9.3474299962E-03    9.4650046960E-03    9.5840582463E-03    9.7046092466E-03
    9.8266765303E-03    9.9502791674E-03    1.0075436468E-02    1.0202167984E-02
    1.0330493516E-02    1.0460433109E-02    1.0592007064E-02    1.0725235936E-02
    1.0860140538E-02    1.0996741944E-02    1.1135061495E-02    1.1275120798E-02
    1.1416941734E-02    1.1560546458E-02    1.1705957402E-02    1.1853197283E-02
    1.2002289101E-02    1.2153256147E-02    1.2306122004E-02    1.2460910551E-02
    1.2617645967E-02    1.2776352738E-02    1.2937055653E-02    1.3099779816E-02
    1.3264550645E-02    1.3431393879E-02    1.3600335580E-02    1.3771402135E-02
    1.3944620268E-02    1.4120017033E-02    1.4297619828E-02    1.4477456395E-02
    1.4659554822E-02    1.4843943554E-02    1.5030651390E-02    1.5219707492E-02
    1.5411141390E-02    1.5604982983E-02    1.5801262547E-02    1.6000010738E-02
    1.6201258598E-02    1.6405037558E-02    1.6611379443E-02    1.6820316482E-02
    1.7031881304E-02    1.7246106950E-02    1.7463026879E-02    1.7682674965E-02
    1.7905085511E-02    1.8130293250E-02    1.8358333353E-02    1.8589241430E-02
    1.8823053540E-02    1.9059806195E-02    1.9299536366E-02    1.9542281486E-02
    1.9788079460E-02    2.0036968671E-02    2.0288987980E-02    2.0544176739E-02
    2.0802574793E-02    2.1064222488E-02    2.1329160676E-02    2.1597430722E-02
    2.1869074511E-02    2.2144134453E-02    2.2422653492E-02    2.2704675109E-02
    2.2990243332E-02    2.3279402743E-02    2.3572198481E-02    2.3868676253E-02
    2.4168882340E-02    2.4472863603E-02    2.4780667492E-02    2.5092342052E-02
    2.5407935930E-02    2.5727498386E-02    2.6051079294E-02    2.6378729158E-02
    2.6710499112E-02    2.7046440934E-02    2.7386607051E-02    2.7731050547E-02
    2.8079825171E-02    2.8432985347E-02    2.8790586183E-02    2.9152683475E-02
    2.9519333720E-02    2.9890594124E-02    3.0266522609E-02    3.0647177823E-02
    3.1032619151E-02    3.1422906720E-02    3.1818101410E-02    3.2218264867E-02
    3.2623459506E-02    3.3033748527E-02    3.3449195918E-02    3.3869866472E-02
    3.4295825791E-02    3.4727140300E-02    3.5163877255E-02    3.5606104754E-02
    3.6053891747E-02    3.6507308049E-02    3.6966424346E-02    3.7431312210E-02
    3.7902044109E-02    3.8378693416E-02    3.8861334423E-02    3.9350042351E-02
    3.9844893361E-02    4.0345964567E-02    4.0853334045E-02    4.1367080850E-02
    4.1887285023E-02    4.2414027605E-02    4.2947390650E-02    4.3487457237E-02
    4.4034311481E-02    4.4588038549E-02    4.5148724671E-02    4.5716457153E-02
    4.6291324389E-02    4.6873415879E-02    4.7462822235E-02    4.8059635204E-02
    4.8663947673E-02    4.9275853687E-02    4.9895448467E-02    5.0522828416E-02
    5.1158091139E-02    5.1801335458E-02    5.2452661423E-02    5.3112170332E-02
    5.3779964742E-02    5.4456148485E-02    5.5140826685E-02    5.5834105774E-02
    5.6536093506E-02    5.7246898973E-02    5.7966632624E-02    5.8695406278E-02
    5.9433333143E-02    6.0180527831E-02    6.0937106377E-02    6.1703186252E-02
    6.2478886387E-02    6.3264327184E-02    6.4059630537E-02    6.4864919851E-02
    6.5680320054E-02    6.6505957625E-02    6.7341960604E-02    6.8188458612E-02
    6.9045582876E-02    6.9913466240E-02    7.0792243188E-02    7.1682049866E-02
    7.2583024096E-02    7.3495305400E-02    7.4419035018E-02    7.5354355930E-02
    7.6301412873E-02    7.7260352369E-02    7.8231322735E-02    7.9214474113E-02
    8.0209958489E-02    8.1217929711E-02    8.2238543516E-02    8.3271957548E-02
    8.4318331379E-02    8.5377826538E-02    8.6450606525E-02    8.7536836840E-02
    8.8636685002E-02    8.9750320574E-02    9.0877915187E-02    9.2019642560E-02
    9.3175678528E-02    9.4346201064E-02    9.5531390301E-02    9.6731428561E-02
    9.7946500373E-02    9.9176792506E-02    1.0042249398E-01    1.0168379612E-01
    1.0296089254E-01    1.0425397919E-01    1.0556325441E-01    1.0688891889E-01
    1.0823117575E-01    1.0959023056E-01    1.1096629134E-01    1.1235956861E-01
    1.1377027539E-01    1.1519862727E-01    1.1664484241E-01    1.1810914156E-01
    1.1959174808E-01    1.2109288802E-01    1.2261279009E-01    1.2415168570E-01
    1.2570980902E-01    1.2728739697E-01    1.2888468925E-01    1.3050192842E-01
    1.3213935983E-01    1.3379723176E-01    1.3547579536E-01    1.3717530472E-01
    1.3889601691E-01    1.4063819196E-01    1.4240209293E-01    1.4418798593E-01
    1.4599614014E-01    1.4782682783E-01    1.4968032442E-01    1.5155690848E-01
    1.5345686176E-01    1.5538046923E-01    1.5732801911E-01    1.5929980286E-01
    1.6129611529E-01    1.6331725448E-01    1.6536352189E-01    1.6743522236E-01
    1.6953266413E-01    1.7165615888E-01    1.7380602173E-01    1.7598257130E-01
    1.7818612973E-01    1.8041702268E-01    1.8267557936E-01    1.8496213259E-01
    1.8727701879E-01    1.8962057801E-01    1.9199315395E-01    1.9439509400E-01
    1.9682674923E-01    1.9928847446E-01    2.0178062822E-01    2.0430357282E-01
    2.0685767434E-01    2.0944330266E-01    2.1206083148E-01    2.1471063832E-01
    2.1739310456E-01    2.2010861542E-01    2.2285756001E-01    2.2564033131E-01
    2.2845732622E-01    2.3130894552E-01    2.3419559391E-01    2.3711768000E-01
    2.4007561636E-01    2.4306981943E-01    2.4610070964E-01    2.4916871129E-01
    2.5227425265E-01    2.5541776590E-01    2.5859968713E-01    2.6182045633E-01
    2.6508051742E-01    2.6838031818E-01    2.7172031026E-01    2.7510094917E-01
    2.7852269425E-01    2.8198600864E-01    2.8549135927E-01    2.8903921683E-01
    2.9263005570E-01    2.9626435398E-01    2.9994259339E-01    3.0366525925E-01
    3.0743284043E-01    3.1124582932E-01    3.1510472174E-01    3.1901001689E-01
    3.2296221731E-01    3.2696182878E-01    3.3100936025E-01    3.3510532377E-01
    3.3925023442E-01    3.4344461018E-01    3.4768897186E-01    3.5198384300E-01
    3.5632974974E-01    3.6072722073E-01    3.6517678699E-01    3.6967898178E-01
    3.7423434046E-01    3.7884340038E-01    3.8350670067E-01    3.8822478210E-01
    3.9299818695E-01    3.9782745877E-01    4.0271314220E-01    4.0765578283E-01
    4.1265592691E-01    4.1771412118E-01    4.2283091263E-01    4.2800684823E-01
    4.3324247473E-01    4.3853833832E-01    4.4389498443E-01    4.4931295736E-01
    4.5479280003E-01    4.6033505363E-01    4.6594025727E-01    4.7160894767E-01
    4.7734165876E-01    4.8313892130E-01    4.8900126246E-01    4.9492920544E-01
    5.0092326900E-01    5.0698396699E-01    5.1311180792E-01    5.1930729441E-01
    5.2557092268E-01    5.3190318202E-01    5.3830455423E-01    5.4477551299E-01
    5.5131652329E-01    5.5792804076E-01    5.6461051099E-01    5.7136436890E-01
    5.7819003793E-01    5.8508792934E-01    5.9205844143E-01    5.9910195868E-01
    6.0621885096E-01    6.1340947260E-01    6.2067416149E-01    6.2801323816E-01
    6.3542700473E-01    6.4291574393E-01    6.5047971804E-01    6.5811916772E-01
    6.6583431094E-01    6.7362534172E-01    6.8149242895E-01    6.8943571505E-01
    6.9745531469E-01    7.0555131336E-01    7.1372376599E-01    7.2197269542E-01
    7.3029809090E-01    7.3869990647E-01    7.4717805932E-01    7.5573242811E-01
    7.6436285115E-01    7.7306912461E-01    7.8185100063E-01    7.9070818533E-01
    7.9964033683E-01    8.0864706310E-01    8.1772791986E-01    8.2688240829E-01
    8.3610997277E-01    8.4540999845E-01    8.5478180882E-01    8.6422466315E-01
    8.7373775388E-01    8.8332020389E-01    8.9297106375E-01    9.0268930881E-01
    9.1247383626E-01    9.2232346205E-01    9.3223691777E-01    9.4221284739E-01
    9.5224980397E-01    9.6234624617E-01    9.7250053477E-01    9.8271092904E-01
    9.9297558301E-01    1.0032925417E+00    1.0136597370E+00    1.0240749840E+00
    1.0345359764E+00    1.0450402829E+00    1.0555853421E+00    1.0661684587E+00
    1.0767867986E+00    1.0874373844E+00    1.0981170907E+00    1.1088226390E+00
    1.1195505931E+00    1.1302973538E+00    1.1410591538E+00    1.1518320524E+00
    1.1626119305E+00    1.1733944849E+00    1.1841752225E+00    1.1949494556E+00
    1.2057122954E+00    1.2164586465E+00    1.2271832014E+00    1.2378804344E+00
    1.2485445958E+00    1.2591697059E+00    1.2697495490E+00    1.2802776676E+00
    1.2907473565E+00    1.3011516562E+00    1.3114833477E+00    1.3217349462E+00
    1.3318986951E+00    1.3419665605E+00    1.3519302252E+00    1.3617810832E+00
    1.3715102342E+00    1.3811084782E+00    1.3905663103E+00    1.3998739159E+00
    1.4090211655E+00    1.4179976108E+00    1.4267924803E+00    1.4353946751E+00
    1.4437927658E+00    1.4519749895E+00    1.4599292466E+00    1.4676430993E+00
    1.4751037695E+00    1.4822981382E+00    1.4892127448E+00    1.4958337875E+00
    1.5021471245E+00    1.5081382761E+00    1.5137924269E+00    1.5190944302E+00
    1.5240288124E+00    1.5285797790E+00    1.5327312218E+00    1.5364667269E+00
    1.5397695848E+00    1.5426228012E+00    1.5450091099E+00    1.5469109868E+00
    1.5483106662E+00    1.5491901584E+00    1.5495312695E+00    1.5493156232E+00
    1.5485246849E+00    1.5471397876E+00    1.5451421606E+00    1.5425129606E+00
    1.5392333053E+00    1.5352843095E+00    1.5306471247E+00    1.5253029808E+00
    1.5192332318E+00    1.5124194033E+00    1.5048432451E+00    1.4964867852E+00
    1.4873323889E+00    1.4773628207E+00    1.4665613094E+00    1.4549116182E+00
    1.4423981170E+00    1.4290058599E+00    1.4147206653E+00    1.3995292013E+00
    1.3834190730E+00    1.3663789156E+00    1.3483984898E+00    1.3294687815E+00
    1.3095821051E+00    1.2887322098E+00    1.2669143892E+00    1.2441255946E+00
    1.2203645496E+00    1.1956318687E+00    1.1699301765E+00    1.1432642297E+00
    1.1156410395E+00    1.0870699946E+00    1.0575629847E+00    1.0271345230E+00
    9.9580186724E-01    9.6358513840E-01    9.3050743678E-01    8.9659495349E-01
    8.6187707701E-01    8.2638649340E-01    7.9015927913E-01    7.5323498502E-01
    7.1565671014E-01    6.7747116403E-01    6.3872871585E-01    5.9948342888E-01
    5.5979307859E-01    5.1971915281E-01    4.7932683201E-01    4.3868494814E-01
    3.9786592019E-01    3.5694566464E-01    3.1600347917E-01    2.7512189788E-01
    2.3438651638E-01    1.9388578535E-01    1.5371077099E-01    1.1395488143E-01
    7.4713557744E-02    3.6083929159E-02   -1.8355683465E-03   -3.8945609996E-02
   -7.5146436626E-02   -1.1033834490E-01   -1.4442221224E-01   -1.7730005494E-01
   -2.0887561727E-01   -2.3905498891E-01   -2.6774724733E-01   -2.9486512127E-01
   -3.2032567039E-01   -3.4405097607E-01   -3.6596883708E-01   -3.8601346344E-01
   -4.0412616121E-01   -4.2025600001E-01   -4.3436045477E-01   -4.4640601273E-01
   -4.5636873607E-01   -4.6423477056E-01   -4.7000079036E-01   -4.7367436923E-01
   -4.7527426855E-01   -4.7483063328E-01   -4.7238508734E-01   -4.6799072145E-01
   -4.6171196708E-01   -4.5362435258E-01   -4.4381413864E-01   -4.3237783327E-01
   -4.1942158835E-01   -4.0506048334E-01   -3.8941770407E-01   -3.7262362877E-01
   -3.5481483612E-01   -3.3613305450E-01   -3.1672407457E-01   -2.9673665137E-01
   -2.7632142498E-01   -2.5562989216E-01   -2.3481346334E-01   -2.1402264152E-01
   -1.9340636023E-01   -1.7311151773E-01   -1.5328274308E-01   -1.3406242719E-01
   -1.1559104724E-01   -9.8007807356E-02   -8.1451607933E-02   -6.6062052726E-02
   -5.1975965323E-02   -3.9322306317E-02   -2.8223020688E-02   -1.8794943375E-02
   -1.1151893251E-02   -5.4054441375E-03   -1.6690055553E-03   -6.9482593546E-05
   -3.3799514233E-06   -1.1802680306E-11   -0.0000000000E+00   -0.0000000000E+00
   -0.0000000000E+00   -0.0000000000E+00   -0.0000000000E+00   -0.0000000000E+00
   -0.0000000000E+00   -0.0000000000E+00   -0.0000000000E+00   -0.0000000000E+00
   -0.0000000000E+00   -0.0000000000E+00   -0.0000000000E+00   -0.0000000000E+00
 0. 0. 0. 0.
 0. 0. 0. 0.
 0. 0. 0. 0.
 0. 0. 0. 0.
 0. 0. 0. 0.
 0. 0. 0. 0.
 0. 0. 0. 0.
 0. 0. 0. 0.
 0. 0. 0. 0.
 0. 0. 0. 0.
 0. 0. 0. 0.
 0. 0. 0. 0.
 0. 0. 0. 0.
 0. 0. 0. 0.
 0. 0. 0. 0.
 0. 0. 0. 0.
 0. 0. 0. 0.
 0. 0. 0. 0.
 0. 0. 0. 0.
 0. 0. 0. 0.
 0. 0. 0. 0.
 0. 0. 0. 0.
 0. 0. 0. 0.
 0. 0. 0. 0.
 0. 0. 0. 0.
 0. 0. 0. 0.
 0. 0. 0. 0.
 0. 0. 0. 0.
 0. 0. 0. 0.
 0. 0. 0. 0.
 0. 0. 0. 0.
 0. 0. 0. 0.
 0. 0. 0. 0.
 0. 0. 0. 0.
 0. 0. 0. 0.
 0. 0. 0. 0.
 0. 0. 0. 0.
 0. 0. 0. 0.
 0. 0. 0. 0.
 0. 0. 0. 0.
 0. 0.
   </PP_BETA.1>
   <PP_BETA.2
       type="real"
       size="1078"
       columns="4"
       index="2"
       angular_momentum="0"
       cutoff_radius_index=" 916"
       cutoff_radius="    2.0159757564E+00" >
    0.0000000000E+00   -1.3626745719E-04   -1.3798149079E-04   -1.3971708427E-04
   -1.4147450883E-04   -1.4325403906E-04   -1.4505595304E-04   -1.4688053230E-04
   -1.4872806194E-04   -1.5059883064E-04   -1.5249313071E-04   -1.5441125815E-04
   -1.5635351265E-04   -1.5832019771E-04   -1.6031162063E-04   -1.6232809256E-04
   -1.6436992858E-04   -1.6643744773E-04   -1.6853097308E-04   -1.7065083173E-04
   -1.7279735492E-04   -1.7497087805E-04   -1.7717174073E-04   -1.7940028685E-04
   -1.8165686463E-04   -1.8394182667E-04   -1.8625552999E-04   -1.8859833611E-04
   -1.9097061110E-04   -1.9337272564E-04   -1.9580505506E-04   -1.9826797942E-04
   -2.0076188354E-04   -2.0328715712E-04   -2.0584419473E-04   -2.0843339591E-04
   -2.1105516523E-04   -2.1370991235E-04   -2.1639805207E-04   -2.1912000442E-04
   -2.2187619472E-04   -2.2466705362E-04   -2.2749301721E-04   -2.3035452703E-04
   -2.3325203022E-04   -2.3618597951E-04   -2.3915683333E-04   -2.4216505590E-04
   -2.4521111724E-04   -2.4829549331E-04   -2.5141866606E-04   -2.5458112347E-04
   -2.5778335971E-04   -2.6102587511E-04   -2.6430917633E-04   -2.6763377640E-04
   -2.7100019478E-04   -2.7440895748E-04   -2.7786059714E-04   -2.8135565308E-04
   -2.8489467140E-04   -2.8847820509E-04   -2.9210681408E-04   -2.9578106535E-04
   -2.9950153300E-04   -3.0326879837E-04   -3.0708345010E-04   -3.1094608423E-04
   -3.1485730432E-04   -3.1881772149E-04   -3.2282795457E-04   -3.2688863016E-04
   -3.3100038276E-04   -3.3516385483E-04   -3.3937969693E-04   -3.4364856778E-04
   -3.4797113442E-04   -3.5234807223E-04   -3.5678006514E-04   -3.6126780565E-04
   -3.6581199497E-04   -3.7041334315E-04   -3.7507256915E-04   -3.7979040100E-04
   -3.8456757584E-04   -3.8940484014E-04   -3.9430294973E-04   -3.9926266993E-04
   -4.0428477572E-04   -4.0937005181E-04   -4.1451929279E-04   -4.1973330323E-04
   -4.2501289783E-04   -4.3035890154E-04   -4.3577214969E-04   -4.4125348810E-04
   -4.4680377323E-04   -4.5242387235E-04   -4.5811466358E-04   -4.6387703615E-04
   -4.6971189041E-04   -4.7562013808E-04   -4.8160270234E-04   -4.8766051797E-04
   -4.9379453152E-04   -5.0000570144E-04   -5.0629499822E-04   -5.1266340460E-04
   -5.1911191564E-04   -5.2564153894E-04   -5.3225329475E-04   -5.3894821619E-04
   -5.4572734934E-04   -5.5259175345E-04   -5.5954250110E-04   -5.6658067836E-04
   -5.7370738495E-04   -5.8092373444E-04   -5.8823085439E-04   -5.9562988655E-04
   -6.0312198704E-04   -6.1070832651E-04   -6.1839009033E-04   -6.2616847879E-04
   -6.3404470729E-04   -6.4202000650E-04   -6.5009562256E-04   -6.5827281732E-04
   -6.6655286846E-04   -6.7493706977E-04   -6.8342673128E-04   -6.9202317952E-04
   -7.0072775770E-04   -7.0954182593E-04   -7.1846676141E-04   -7.2750395869E-04
   -7.3665482983E-04   -7.4592080468E-04   -7.5530333106E-04   -7.6480387501E-04
   -7.7442392100E-04   -7.8416497217E-04   -7.9402855059E-04   -8.0401619745E-04
   -8.1412947333E-04   -8.2436995845E-04   -8.3473925290E-04   -8.4523897690E-04
   -8.5587077105E-04   -8.6663629657E-04   -8.7753723561E-04   -8.8857529143E-04
   -8.9975218877E-04   -9.1106967401E-04   -9.2252951554E-04   -9.3413350398E-04
   -9.4588345245E-04   -9.5778119690E-04   -9.6982859638E-04   -9.8202753330E-04
   -9.9437991376E-04   -1.0068876678E-03   -1.0195527499E-03   -1.0323771388E-03
   -1.0453628385E-03   -1.0585118780E-03   -1.0718263117E-03   -1.0853082202E-03
   -1.0989597099E-03   -1.1127829140E-03   -1.1267799922E-03   -1.1409531318E-03
   -1.1553045472E-03   -1.1698364809E-03   -1.1845512034E-03   -1.1994510141E-03
   -1.2145382409E-03   -1.2298152414E-03   -1.2452844024E-03   -1.2609481412E-03
   -1.2768089051E-03   -1.2928691724E-03   -1.3091314526E-03   -1.3255982866E-03
   -1.3422722475E-03   -1.3591559404E-03   -1.3762520036E-03   -1.3935631082E-03
   -1.4110919591E-03   -1.4288412953E-03   -1.4468138900E-03   -1.4650125516E-03
   -1.4834401234E-03   -1.5020994849E-03   -1.5209935516E-03   -1.5401252757E-03
   -1.5594976465E-03   -1.5791136909E-03   -1.5989764740E-03   -1.6190890994E-03
   -1.6394547095E-03   -1.6600764865E-03   -1.6809576527E-03   -1.7021014706E-03
   -1.7235112440E-03   -1.7451903181E-03   -1.7671420803E-03   -1.7893699606E-03
   -1.8118774320E-03   -1.8346680114E-03   -1.8577452596E-03   -1.8811127826E-03
   -1.9047742315E-03   -1.9287333034E-03   -1.9529937418E-03   -1.9775593374E-03
   -2.0024339286E-03   -2.0276214020E-03   -2.0531256931E-03   -2.0789507869E-03
   -2.1051007186E-03   -2.1315795740E-03   -2.1583914904E-03   -2.1855406571E-03
   -2.2130313162E-03   -2.2408677630E-03   -2.2690543469E-03   -2.2975954719E-03
   -2.3264955976E-03   -2.3557592396E-03   -2.3853909702E-03   -2.4153954193E-03
   -2.4457772750E-03   -2.4765412844E-03   -2.5076922543E-03   -2.5392350519E-03
   -2.5711746058E-03   -2.6035159062E-03   -2.6362640065E-03   -2.6694240235E-03
   -2.7030011382E-03   -2.7370005970E-03   -2.7714277122E-03   -2.8062878627E-03
   -2.8415864955E-03   -2.8773291257E-03   -2.9135213379E-03   -2.9501687870E-03
   -2.9872771991E-03   -3.0248523720E-03   -3.0629001768E-03   -3.1014265581E-03
   -3.1404375356E-03   -3.1799392044E-03   -3.2199377364E-03   -3.2604393811E-03
   -3.3014504668E-03   -3.3429774010E-03   -3.3850266720E-03   -3.4276048499E-03
   -3.4707185870E-03   -3.5143746196E-03   -3.5585797686E-03   -3.6033409406E-03
   -3.6486651293E-03   -3.6945594162E-03   -3.7410309718E-03   -3.7880870568E-03
   -3.8357350234E-03   -3.8839823161E-03   -3.9328364729E-03   -3.9823051270E-03
   -4.0323960071E-03   -4.0831169395E-03   -4.1344758488E-03   -4.1864807591E-03
   -4.2391397956E-03   -4.2924611856E-03   -4.3464532599E-03   -4.4011244541E-03
   -4.4564833097E-03   -4.5125384759E-03   -4.5692987104E-03   -4.6267728813E-03
   -4.6849699678E-03   -4.7438990626E-03   -4.8035693722E-03   -4.8639902191E-03
   -4.9251710432E-03   -4.9871214028E-03   -5.0498509765E-03   -5.1133695647E-03
   -5.1776870910E-03   -5.2428136037E-03   -5.3087592776E-03   -5.3755344152E-03
   -5.4431494488E-03   -5.5116149418E-03   -5.5809415903E-03   -5.6511402250E-03
   -5.7222218129E-03   -5.7941974586E-03   -5.8670784066E-03   -5.9408760427E-03
   -6.0156018957E-03   -6.0912676396E-03   -6.1678850951E-03   -6.2454662314E-03
   -6.3240231683E-03   -6.4035681780E-03   -6.4841136868E-03   -6.5656722775E-03
   -6.6482566910E-03   -6.7318798282E-03   -6.8165547525E-03   -6.9022946912E-03
   -6.9891130381E-03   -7.0770233554E-03   -7.1660393757E-03   -7.2561750042E-03
   -7.3474443209E-03   -7.4398615830E-03   -7.5334412267E-03   -7.6281978697E-03
   -7.7241463136E-03   -7.8213015458E-03   -7.9196787422E-03   -8.0192932695E-03
   -8.1201606876E-03   -8.2222967518E-03   -8.3257174156E-03   -8.4304388327E-03
   -8.5364773603E-03   -8.6438495608E-03   -8.7525722048E-03   -8.8626622738E-03
   -8.9741369627E-03   -9.0870136823E-03   -9.2013100624E-03   -9.3170439541E-03
   -9.4342334332E-03   -9.5528968022E-03   -9.6730525938E-03   -9.7947195737E-03
   -9.9179167430E-03   -1.0042663342E-02   -1.0168978852E-02   -1.0296883000E-02
   -1.0426395760E-02   -1.0557537358E-02   -1.0690328273E-02   -1.0824789241E-02
   -1.0960941260E-02   -1.1098805590E-02   -1.1238403760E-02   -1.1379757567E-02
   -1.1522889084E-02   -1.1667820661E-02   -1.1814574926E-02   -1.1963174794E-02
   -1.2113643468E-02   -1.2266004440E-02   -1.2420281498E-02   -1.2576498730E-02
   -1.2734680525E-02   -1.2894851578E-02   -1.3057036896E-02   -1.3221261797E-02
   -1.3387551919E-02   -1.3555933221E-02   -1.3726431988E-02   -1.3899074836E-02
   -1.4073888712E-02   -1.4250900904E-02   -1.4430139042E-02   -1.4611631102E-02
   -1.4795405412E-02   -1.4981490653E-02   -1.5169915869E-02   -1.5360710466E-02
   -1.5553904220E-02   -1.5749527281E-02   -1.5947610176E-02   -1.6148183815E-02
   -1.6351279496E-02   -1.6556928910E-02   -1.6765164144E-02   -1.6976017688E-02
   -1.7189522440E-02   -1.7405711709E-02   -1.7624619223E-02   -1.7846279131E-02
   -1.8070726012E-02   -1.8297994877E-02   -1.8528121176E-02   -1.8761140802E-02
   -1.8997090101E-02   -1.9236005869E-02   -1.9477925369E-02   -1.9722886325E-02
   -1.9970926937E-02   -2.0222085882E-02   -2.0476402321E-02   -2.0733915906E-02
   -2.0994666786E-02   -2.1258695609E-02   -2.1526043535E-02   -2.1796752238E-02
   -2.2070863914E-02   -2.2348421284E-02   -2.2629467607E-02   -2.2914046680E-02
   -2.3202202849E-02   -2.3493981015E-02   -2.3789426638E-02   -2.4088585747E-02
   -2.4391504948E-02   -2.4698231426E-02   -2.5008812958E-02   -2.5323297916E-02
   -2.5641735276E-02   -2.5964174627E-02   -2.6290666175E-02   -2.6621260753E-02
   -2.6956009828E-02   -2.7294965510E-02   -2.7638180559E-02   -2.7985708390E-02
   -2.8337603086E-02   -2.8693919404E-02   -2.9054712783E-02   -2.9420039352E-02
   -2.9789955940E-02   -3.0164520081E-02   -3.0543790029E-02   -3.0927824758E-02
   -3.1316683981E-02   -3.1710428149E-02   -3.2109118467E-02   -3.2512816899E-02
   -3.2921586181E-02   -3.3335489826E-02   -3.3754592138E-02   -3.4178958217E-02
   -3.4608653971E-02   -3.5043746126E-02   -3.5484302237E-02   -3.5930390693E-02
   -3.6382080734E-02   -3.6839442453E-02   -3.7302546816E-02   -3.7771465663E-02
   -3.8246271724E-02   -3.8727038630E-02   -3.9213840920E-02   -3.9706754054E-02
   -4.0205854425E-02   -4.0711219367E-02   -4.1222927170E-02   -4.1741057088E-02
   -4.2265689352E-02   -4.2796905182E-02   -4.3334786795E-02   -4.3879417424E-02
   -4.4430881322E-02   -4.4989263779E-02   -4.5554651131E-02   -4.6127130775E-02
   -4.6706791181E-02   -4.7293721902E-02   -4.7888013587E-02   -4.8489757997E-02
   -4.9099048015E-02   -4.9715977658E-02   -5.0340642093E-02   -5.0973137648E-02
   -5.1613561826E-02   -5.2262013319E-02   -5.2918592018E-02   -5.3583399033E-02
   -5.4256536700E-02   -5.4938108600E-02   -5.5628219570E-02   -5.6326975717E-02
   -5.7034484434E-02   -5.7750854414E-02   -5.8476195661E-02   -5.9210619511E-02
   -5.9954238639E-02   -6.0707167080E-02   -6.1469520239E-02   -6.2241414911E-02
   -6.3022969291E-02   -6.3814302990E-02   -6.4615537055E-02   -6.5426793978E-02
   -6.6248197714E-02   -6.7079873696E-02   -6.7921948854E-02   -6.8774551623E-02
   -6.9637811967E-02   -7.0511861389E-02   -7.1396832948E-02   -7.2292861277E-02
   -7.3200082597E-02   -7.4118634734E-02   -7.5048657134E-02   -7.5990290878E-02
   -7.6943678703E-02   -7.7908965012E-02   -7.8886295894E-02   -7.9875819139E-02
   -8.0877684255E-02   -8.1892042483E-02   -8.2919046813E-02   -8.3958852003E-02
   -8.5011614591E-02   -8.6077492914E-02   -8.7156647125E-02   -8.8249239204E-02
   -8.9355432981E-02   -9.0475394146E-02   -9.1609290270E-02   -9.2757290814E-02
   -9.3919567153E-02   -9.5096292586E-02   -9.6287642350E-02   -9.7493793643E-02
   -9.8714925631E-02   -9.9951219467E-02   -1.0120285831E-01   -1.0247002732E-01
   -1.0375291370E-01   -1.0505170670E-01   -1.0636659762E-01   -1.0769777984E-01
   -1.0904544881E-01   -1.1040980209E-01   -1.1179103935E-01   -1.1318936238E-01
   -1.1460497511E-01   -1.1603808362E-01   -1.1748889613E-01   -1.1895762304E-01
   -1.2044447694E-01   -1.2194967259E-01   -1.2347342695E-01   -1.2501595919E-01
   -1.2657749071E-01   -1.2815824509E-01   -1.2975844819E-01   -1.3137832805E-01
   -1.3301811498E-01   -1.3467804154E-01   -1.3635834251E-01   -1.3805925493E-01
   -1.3978101809E-01   -1.4152387354E-01   -1.4328806506E-01   -1.4507383871E-01
   -1.4688144275E-01   -1.4871112773E-01   -1.5056314640E-01   -1.5243775376E-01
   -1.5433520704E-01   -1.5625576565E-01   -1.5819969123E-01   -1.6016724762E-01
   -1.6215870080E-01   -1.6417431893E-01   -1.6621437233E-01   -1.6827913340E-01
   -1.7036887669E-01   -1.7248387880E-01   -1.7462441837E-01   -1.7679077609E-01
   -1.7898323465E-01   -1.8120207866E-01   -1.8344759470E-01   -1.8572007120E-01
   -1.8801979847E-01   -1.9034706861E-01   -1.9270217546E-01   -1.9508541458E-01
   -1.9749708319E-01   -1.9993748009E-01   -2.0240690562E-01   -2.0490566159E-01
   -2.0743405123E-01   -2.0999237906E-01   -2.1258095090E-01   -2.1520007372E-01
   -2.1785005557E-01   -2.2053120552E-01   -2.2324383353E-01   -2.2598825036E-01
   -2.2876476747E-01   -2.3157369691E-01   -2.3441535120E-01   -2.3729004320E-01
   -2.4019808598E-01   -2.4313979271E-01   -2.4611547648E-01   -2.4912545017E-01
   -2.5217002630E-01   -2.5524951686E-01   -2.5836423311E-01   -2.6151448545E-01
   -2.6470058319E-01   -2.6792283437E-01   -2.7118154556E-01   -2.7447702160E-01
   -2.7780956545E-01   -2.8117947787E-01   -2.8458705724E-01   -2.8803259925E-01
   -2.9151639666E-01   -2.9503873903E-01   -2.9859991238E-01   -3.0220019892E-01
   -3.0583987674E-01   -3.0951921942E-01   -3.1323849574E-01   -3.1699796930E-01
   -3.2079789814E-01   -3.2463853431E-01   -3.2852012355E-01   -3.3244290477E-01
   -3.3640710964E-01   -3.4041296217E-01   -3.4446067814E-01   -3.4855046468E-01
   -3.5268251973E-01   -3.5685703145E-01   -3.6107417772E-01   -3.6533412553E-01
   -3.6963703036E-01   -3.7398303558E-01   -3.7837227175E-01   -3.8280485597E-01
   -3.8728089117E-01   -3.9180046538E-01   -3.9636365094E-01   -4.0097050373E-01
   -4.0562106236E-01   -4.1031534728E-01   -4.1505335995E-01   -4.1983508187E-01
   -4.2466047368E-01   -4.2952947413E-01   -4.3444199911E-01   -4.3939794053E-01
   -4.4439716531E-01   -4.4943951415E-01   -4.5452480044E-01   -4.5965280902E-01
   -4.6482329487E-01   -4.7003598191E-01   -4.7529056156E-01   -4.8058669142E-01
   -4.8592399377E-01   -4.9130205414E-01   -4.9672041972E-01   -5.0217859783E-01
   -5.0767605423E-01   -5.1321221144E-01   -5.1878644700E-01   -5.2439809168E-01
   -5.3004642756E-01   -5.3573068617E-01   -5.4145004649E-01   -5.4720363288E-01
   -5.5299051301E-01   -5.5880969566E-01   -5.6466012852E-01   -5.7054069585E-01
   -5.7645021614E-01   -5.8238743964E-01   -5.8835104591E-01   -5.9433964116E-01
   -6.0035175568E-01   -6.0638584106E-01   -6.1244026742E-01   -6.1851332054E-01
   -6.2460319889E-01   -6.3070801063E-01   -6.3682577052E-01   -6.4295439673E-01
   -6.4909170756E-01   -6.5523541819E-01   -6.6138313720E-01   -6.6753236312E-01
   -6.7368048088E-01   -6.7982475817E-01   -6.8596234174E-01   -6.9209025358E-01
   -6.9820538715E-01   -7.0430450339E-01   -7.1038422673E-01   -7.1644104109E-01
   -7.2247128570E-01   -7.2847115097E-01   -7.3443667420E-01   -7.4036373535E-01
   -7.4624805264E-01   -7.5208517823E-01   -7.5787049375E-01   -7.6359920585E-01
   -7.6926634175E-01   -7.7486674473E-01   -7.8039506957E-01   -7.8584577810E-01
   -7.9121313466E-01   -7.9649120161E-01   -8.0167383484E-01   -8.0675467938E-01
   -8.1172716498E-01   -8.1658450184E-01   -8.2131967632E-01   -8.2592544686E-01
   -8.3039433987E-01   -8.3471864592E-01   -8.3889041591E-01   -8.4290145751E-01
   -8.4674333180E-01   -8.5040735003E-01   -8.5388457072E-01   -8.5716579698E-01
   -8.6024157411E-01   -8.6310218753E-01   -8.6573766111E-01   -8.6813775583E-01
   -8.7029196885E-01   -8.7218953312E-01   -8.7381941740E-01   -8.7517032688E-01
   -8.7623070432E-01   -8.7698873187E-01   -8.7743233357E-01   -8.7754917847E-01
   -8.7732668468E-01   -8.7675202410E-01   -8.7581212813E-01   -8.7449369428E-01
   -8.7278319377E-01   -8.7066688024E-01   -8.6813079953E-01   -8.6516080070E-01
   -8.6174254832E-01   -8.5786153602E-01   -8.5350310154E-01   -8.4865244323E-01
   -8.4329463810E-01   -8.3741466150E-01   -8.3099740855E-01   -8.2402771736E-01
   -8.1649039410E-01   -8.0837024007E-01   -7.9965208082E-01   -7.9032079737E-01
   -7.8036135965E-01   -7.6975886226E-01   -7.5849856260E-01   -7.4656592140E-01
   -7.3394664591E-01   -7.2062673553E-01   -7.0659253030E-01   -6.9183076200E-01
   -6.7632860813E-01   -6.6007374874E-01   -6.4305442621E-01   -6.2525950796E-01
   -6.0667855219E-01   -5.8730187666E-01   -5.6712063046E-01   -5.4612686896E-01
   -5.2431363168E-01   -5.0167502327E-01   -4.7820629752E-01   -4.5390394421E-01
   -4.2876577900E-01   -4.0279103602E-01   -3.7598046317E-01   -3.4833642007E-01
   -3.1986297839E-01   -2.9056602444E-01   -2.6045336386E-01   -2.2953482816E-01
   -1.9782238282E-01   -1.6533023677E-01   -1.3207495284E-01   -9.8075558938E-02
   -6.3353659501E-02   -2.7933546865E-02    8.1576878899E-03    4.4890045101E-02
    8.2230508195E-02    1.2014293741E-01    1.5858796614E-01    1.9752290055E-01
    2.3690162308E-01    2.7667450051E-01    3.1678829742E-01    3.5718609561E-01
    3.9780722051E-01    4.3858717525E-01    4.7945758328E-01    5.2034614055E-01
    5.6117657802E-01    6.0186863564E-01    6.4233804868E-01    6.8249654753E-01
    7.2225187201E-01    7.6150780129E-01    8.0016420060E-01    8.3811708593E-01
    8.7525870790E-01    9.1147765611E-01    9.4665898534E-01    9.8068436487E-01
    1.0134322525E+00    1.0447780948E+00    1.0745945551E+00    1.1027517705E+00
    1.1291176414E+00    1.1535581526E+00    1.1759377307E+00    1.1961196390E+00
    1.2139664111E+00    1.2293403278E+00    1.2421039388E+00    1.2521206313E+00
    1.2592552504E+00    1.2633747732E+00    1.2643490400E+00    1.2620515470E+00
    1.2563603031E+00    1.2471587554E+00    1.2343367869E+00    1.2177917892E+00
    1.1974298159E+00    1.1731668170E+00    1.1449299597E+00    1.1126590360E+00
    1.0763079588E+00    1.0358463471E+00    9.9126119802E-01    9.4255864253E-01
    8.8976578024E-01    8.3293258411E-01    7.7213386432E-01    7.0747127633E-01
    6.3907535385E-01    5.6710754293E-01    4.9176220776E-01    4.1326857327E-01
    3.3189256273E-01    2.4793848213E-01    1.6175049563E-01    7.3713829035E-02
   -1.5744369193E-02   -1.0615458742E-01   -1.9700501545E-01   -2.8774220534E-01
   -3.7777242428E-01   -4.6646379921E-01   -5.5314935399E-01   -6.3713103927E-01
   -7.1768485094E-01   -7.9406712569E-01   -8.6552209021E-01   -9.3129072468E-01
   -9.9062097952E-01   -1.0427793583E+00   -1.0870638475E+00   -1.1228181360E+00
   -1.1494470266E+00   -1.1664328932E+00   -1.1733529877E+00   -1.1698973517E+00
   -1.1558870317E+00   -1.1312922524E+00   -1.0962501560E+00   -1.0510816832E+00
   -9.9630715011E-01   -9.3266007018E-01   -8.6109879183E-01   -7.8281556452E-01
   -6.9924272410E-01   -6.1205580062E-01   -5.2317346903E-01   -4.3474948493E-01
   -3.4907716395E-01   -2.6844129961E-01   -1.9504944834E-01   -1.3097233597E-01
   -7.8017450400E-02   -3.7762111675E-02   -1.1578754522E-02   -4.7584679347E-04
   -2.3135049694E-05    1.4131645236E-12   -0.0000000000E+00   -0.0000000000E+00
   -0.0000000000E+00   -0.0000000000E+00   -0.0000000000E+00   -0.0000000000E+00
   -0.0000000000E+00   -0.0000000000E+00   -0.0000000000E+00   -0.0000000000E+00
   -0.0000000000E+00   -0.0000000000E+00   -0.0000000000E+00   -0.0000000000E+00
 0. 0. 0. 0.
 0. 0. 0. 0.
 0. 0. 0. 0.
 0. 0. 0. 0.
 0. 0. 0. 0.
 0. 0. 0. 0.
 0. 0. 0. 0.
 0. 0. 0. 0.
 0. 0. 0. 0.
 0. 0. 0. 0.
 0. 0. 0. 0.
 0. 0. 0. 0.
 0. 0. 0. 0.
 0. 0. 0. 0.
 0. 0. 0. 0.
 0. 0. 0. 0.
 0. 0. 0. 0.
 0. 0. 0. 0.
 0. 0. 0. 0.
 0. 0. 0. 0.
 0. 0. 0. 0.
 0. 0. 0. 0.
 0. 0. 0. 0.
 0. 0. 0. 0.
 0. 0. 0. 0.
 0. 0. 0. 0.
 0. 0. 0. 0.
 0. 0. 0. 0.
 0. 0. 0. 0.
 0. 0. 0. 0.
 0. 0. 0. 0.
 0. 0. 0. 0.
 0. 0. 0. 0.
 0. 0. 0. 0.
 0. 0. 0. 0.
 0. 0. 0. 0.
 0. 0. 0. 0.
 0. 0. 0. 0.
 0. 0. 0. 0.
 0. 0. 0. 0.
 0. 0.
   </PP_BETA.2>
   <PP_BETA.3
       type="real"
       size="1078"
       columns="4"
       index="3"
       angular_momentum="1"
       cutoff_radius_index=" 916"
       cutoff_radius="    2.0159757564E+00" >
    0.0000000000E+00    1.4553835130E-09    1.4922294602E-09    1.5300062302E-09
    1.5687352382E-09    1.6084480653E-09    1.6491652499E-09    1.6909145292E-09
    1.7337219574E-09    1.7776106749E-09    1.8226110216E-09    1.8687506609E-09
    1.9160584242E-09    1.9645663886E-09    2.0142958789E-09    2.0652888491E-09
    2.1175711116E-09    2.1711785184E-09    2.2261443610E-09    2.2824989152E-09
    2.3402796245E-09    2.3995230351E-09    2.4602691920E-09    2.5225512784E-09
    2.5864100268E-09    2.6518835280E-09    2.7190172776E-09    2.7878474061E-09
    2.8584259513E-09    2.9307858692E-09    3.0049776724E-09    3.0810499779E-09
    3.1590465321E-09    3.2390186255E-09    3.3210145319E-09    3.4050838771E-09
    3.4912872920E-09    3.5796693568E-09    3.6702892124E-09    3.7632022284E-09
    3.8584686221E-09    3.9561456610E-09    4.0562947296E-09    4.1589820954E-09
    4.2642676900E-09    4.3722161852E-09    4.4829009348E-09    4.5963849166E-09
    4.7127428101E-09    4.8320463041E-09    4.9543728182E-09    5.0797930092E-09
    5.2083867250E-09    5.3402402768E-09    5.4754269799E-09    5.6140392050E-09
    5.7561562924E-09    5.9018748925E-09    6.0512830142E-09    6.2044736536E-09
    6.3615391162E-09    6.5225802578E-09    6.6877015192E-09    6.8570007909E-09
    7.0305889307E-09    7.2085681960E-09    7.3910530332E-09    7.5781569535E-09
    7.7700031336E-09    7.9666994918E-09    8.1683783982E-09    8.3751607428E-09
    8.5871789848E-09    8.8045661854E-09    9.0274523503E-09    9.2559837542E-09
    9.4903008750E-09    9.7305483680E-09    9.9768788934E-09    1.0229445701E-08
    1.0488406315E-08    1.0753918405E-08    1.1026154815E-08    1.1305285277E-08
    1.1591481010E-08    1.1884919700E-08    1.2185787851E-08    1.2494271481E-08
    1.2810567537E-08    1.3134867388E-08    1.3467379674E-08    1.3808308206E-08
    1.4157866270E-08    1.4516273869E-08    1.4883754756E-08    1.5260538137E-08
    1.5646860489E-08    1.6042965528E-08    1.6449091762E-08    1.6865504687E-08
    1.7292455931E-08    1.7730218111E-08    1.8179059975E-08    1.8639263877E-08
    1.9111117530E-08    1.9594920210E-08    2.0090967202E-08    2.0599572756E-08
    2.1121053325E-08    2.1655735892E-08    2.2203952439E-08    2.2766050140E-08
    2.3342373627E-08    2.3933288396E-08    2.4539163145E-08    2.5160375478E-08
    2.5797314500E-08    2.6450373964E-08    2.7119968491E-08    2.7806514136E-08
    2.8510440525E-08    2.9232186398E-08    2.9972201510E-08    3.0730949589E-08
    3.1508911801E-08    3.2306562270E-08    3.3124406346E-08    3.3962954937E-08
    3.4822729665E-08    3.5704272607E-08    3.6608128534E-08    3.7534869560E-08
    3.8485068618E-08    3.9459322944E-08    4.0458239101E-08    4.1482446320E-08
    4.2532578994E-08    4.3609298043E-08    4.4713273991E-08    4.5845193302E-08
    4.7005768449E-08    4.8195727507E-08    4.9415806006E-08    5.0666777102E-08
    5.1949410484E-08    5.3264515059E-08    5.4612915322E-08    5.5995447089E-08
    5.7412978837E-08    5.8866396189E-08    6.0356604496E-08    6.1884540570E-08
    6.3451155311E-08    6.5057429469E-08    6.6704365904E-08    6.8392994303E-08
    7.0124371830E-08    7.1899579736E-08    7.3719725042E-08    7.5585949806E-08
    7.7499417457E-08    7.9461322131E-08    8.1472897254E-08    8.3535393610E-08
    8.5650103685E-08    8.7818344539E-08    9.0041476161E-08    9.2320887597E-08
    9.4658001958E-08    9.7054282327E-08    9.9511221892E-08    1.0203036287E-07
    1.0461327184E-07    1.0726157213E-07    1.0997691095E-07    1.1276099217E-07
    1.1561554861E-07    1.1854237290E-07    1.2154328603E-07    1.2462016813E-07
    1.2777494390E-07    1.3100958429E-07    1.3432610816E-07    1.3772658960E-07
    1.4121315580E-07    1.4478798541E-07    1.4845330911E-07    1.5221142468E-07
    1.5606467666E-07    1.6001547318E-07    1.6406628445E-07    1.6821964373E-07
    1.7247814537E-07    1.7684445188E-07    1.8132129154E-07    1.8591146159E-07
    1.9061783498E-07    1.9544334953E-07    2.0039102248E-07    2.0546394700E-07
    2.1066529251E-07    2.1599831104E-07    2.2146633744E-07    2.2707278485E-07
    2.3282116126E-07    2.3871505818E-07    2.4475816233E-07    2.5095424593E-07
    2.5730718502E-07    2.6382094851E-07    2.7049961066E-07    2.7734734246E-07
    2.8436842991E-07    2.9156725111E-07    2.9894831475E-07    3.0651622938E-07
    3.1427572907E-07    3.2223165976E-07    3.3038899884E-07    3.3875283741E-07
    3.4732841112E-07    3.5612107620E-07    3.6513632579E-07    3.7437980367E-07
    3.8385727741E-07    3.9357467435E-07    4.0353806959E-07    4.1375369085E-07
    4.2422791908E-07    4.3496730905E-07    4.4597856487E-07    4.5726857168E-07
    4.6884438780E-07    4.8071324757E-07    4.9288256908E-07    5.0535995920E-07
    5.1815321722E-07    5.3127033648E-07    5.4471951824E-07    5.5850916970E-07
    5.7264790760E-07    5.8714456684E-07    6.0200821656E-07    6.1724814067E-07
    6.3287386340E-07    6.4889515535E-07    6.6532202705E-07    6.8216474989E-07
    6.9943384795E-07    7.1714011724E-07    7.3529462421E-07    7.5390871480E-07
    7.7299402359E-07    7.9256247986E-07    8.1262631689E-07    8.3319807065E-07
    8.5429060546E-07    8.7591709877E-07    8.9809107281E-07    9.2082638239E-07
    9.4413724276E-07    9.6803822213E-07    9.9254425870E-07    1.0176706669E-06
    1.0434331590E-06    1.0698478315E-06    1.0969311977E-06    1.1247001847E-06
    1.1531721463E-06    1.1823648843E-06    1.2122966416E-06    1.2429861254E-06
    1.2744525233E-06    1.3067154967E-06    1.3397952145E-06    1.3737123541E-06
    1.4084881109E-06    1.4441442257E-06    1.4807029804E-06    1.5181872280E-06
    1.5566204003E-06    1.5960265144E-06    1.6364302050E-06    1.6778567222E-06
    1.7203319646E-06    1.7638824760E-06    1.8085354761E-06    1.8543188826E-06
    1.9012613049E-06    1.9493920873E-06    1.9987413124E-06    2.0493398249E-06
    2.1012192517E-06    2.1544120218E-06    2.2089513765E-06    2.2648714128E-06
    2.3222070796E-06    2.3809942147E-06    2.4412695615E-06    2.5030707967E-06
    2.5664365497E-06    2.6314064212E-06    2.6980210257E-06    2.7663220014E-06
    2.8363520359E-06    2.9081549043E-06    2.9817754816E-06    3.0572597875E-06
    3.1346550073E-06    3.2140095069E-06    3.2953728972E-06    3.3787960265E-06
    3.4643310417E-06    3.5520314063E-06    3.6419519386E-06    3.7341488400E-06
    3.8286797392E-06    3.9256037270E-06    4.0249813781E-06    4.1268748165E-06
    4.2313477274E-06    4.3384654133E-06    4.4482948252E-06    4.5609046161E-06
    4.6763651715E-06    4.7947486601E-06    4.9161290804E-06    5.0405822987E-06
    5.1681861098E-06    5.2990202689E-06    5.4331665562E-06    5.5707088240E-06
    5.7117330414E-06    5.8563273578E-06    6.0045821504E-06    6.1565900959E-06
    6.3124461996E-06    6.4722478878E-06    6.6360950426E-06    6.8040900824E-06
    6.9763380111E-06    7.1529465001E-06    7.3340259365E-06    7.5196895092E-06
    7.7100532727E-06    7.9052362172E-06    8.1053603408E-06    8.3105507427E-06
    8.5209356793E-06    8.7366466529E-06    8.9578185028E-06    9.1845894784E-06
    9.4171013263E-06    9.6554993873E-06    9.8999326784E-06    1.0150553991E-05
    1.0407519978E-05    1.0670991274E-05    1.0941132563E-05    1.1218112709E-05
    1.1502104852E-05    1.1793286507E-05    1.2091839691E-05    1.2397951027E-05
    1.2711811859E-05    1.3033618389E-05    1.3363571768E-05    1.3701878251E-05
    1.4048749314E-05    1.4404401785E-05    1.4769057982E-05    1.5142945859E-05
    1.5526299133E-05    1.5919357439E-05    1.6322366479E-05    1.6735578186E-05
    1.7159250859E-05    1.7593649340E-05    1.8039045186E-05    1.8495716821E-05
    1.8963949714E-05    1.9444036576E-05    1.9936277522E-05    2.0440980261E-05
    2.0958460302E-05    2.1489041138E-05    2.2033054458E-05    2.2590840342E-05
    2.3162747484E-05    2.3749133414E-05    2.4350364704E-05    2.4966817220E-05
    2.5598876333E-05    2.6246937184E-05    2.6911404913E-05    2.7592694918E-05
    2.8291233119E-05    2.9007456223E-05    2.9741811993E-05    3.0494759527E-05
    3.1266769559E-05    3.2058324733E-05    3.2869919917E-05    3.3702062521E-05
    3.4555272792E-05    3.5430084156E-05    3.6327043551E-05    3.7246711762E-05
    3.8189663777E-05    3.9156489147E-05    4.0147792353E-05    4.1164193182E-05
    4.2206327120E-05    4.3274845749E-05    4.4370417152E-05    4.5493726328E-05
    4.6645475637E-05    4.7826385211E-05    4.9037193434E-05    5.0278657385E-05
    5.1551553328E-05    5.2856677172E-05    5.4194845004E-05    5.5566893569E-05
    5.6973680812E-05    5.8416086407E-05    5.9895012314E-05    6.1411383334E-05
    6.2966147704E-05    6.4560277672E-05    6.6194770121E-05    6.7870647184E-05
    6.9588956888E-05    7.1350773808E-05    7.3157199752E-05    7.5009364430E-05
    7.6908426174E-05    7.8855572671E-05    8.0852021691E-05    8.2899021855E-05
    8.4997853436E-05    8.7149829123E-05    8.9356294885E-05    9.1618630785E-05
    9.3938251859E-05    9.6316609001E-05    9.8755189865E-05    1.0125551981E-04
    1.0381916284E-04    1.0644772262E-04    1.0914284342E-04    1.1190621121E-04
    1.1473955467E-04    1.1764464631E-04    1.2062330355E-04    1.2367738990E-04
    1.2680881608E-04    1.3001954125E-04    1.3331157423E-04    1.3668697478E-04
    1.4014785487E-04    1.4369637998E-04    1.4733477054E-04    1.5106530324E-04
    1.5489031251E-04    1.5881219197E-04    1.6283339594E-04    1.6695644095E-04
    1.7118390737E-04    1.7551844099E-04    1.7996275472E-04    1.8451963027E-04
    1.8919191988E-04    1.9398254816E-04    1.9889451390E-04    2.0393089194E-04
    2.0909483516E-04    2.1438957639E-04    2.1981843050E-04    2.2538479646E-04
    2.3109215950E-04    2.3694409326E-04    2.4294426208E-04    2.4909642331E-04
    2.5540442964E-04    2.6187223155E-04    2.6850387980E-04    2.7530352798E-04
    2.8227543513E-04    2.8942396840E-04    2.9675360585E-04    3.0426893923E-04
    3.1197467690E-04    3.1987564679E-04    3.2797679945E-04    3.3628321118E-04
    3.4480008722E-04    3.5353276506E-04    3.6248671779E-04    3.7166755757E-04
    3.8108103917E-04    3.9073306362E-04    4.0062968191E-04    4.1077709887E-04
    4.2118167703E-04    4.3184994073E-04    4.4278858015E-04    4.5400445564E-04
    4.6550460201E-04    4.7729623301E-04    4.8938674588E-04    5.0178372607E-04
    5.1449495206E-04    5.2752840025E-04    5.4089225006E-04    5.5459488910E-04
    5.6864491855E-04    5.8305115856E-04    5.9782265390E-04    6.1296867970E-04
    6.2849874738E-04    6.4442261064E-04    6.6075027176E-04    6.7749198790E-04
    6.9465827768E-04    7.1225992790E-04    7.3030800038E-04    7.4881383905E-04
    7.6778907720E-04    7.8724564493E-04    8.0719577676E-04    8.2765201943E-04
    8.4862724000E-04    8.7013463408E-04    8.9218773421E-04    9.1480041866E-04
    9.3798692027E-04    9.6176183557E-04    9.8614013424E-04    1.0111371687E-03
    1.0367686839E-03    1.0630508276E-03    1.0900001608E-03    1.1176336683E-03
    1.1459687696E-03    1.1750233304E-03    1.2048156741E-03    1.2353645933E-03
    1.2666893624E-03    1.2988097501E-03    1.3317460317E-03    1.3655190031E-03
    1.4001499933E-03    1.4356608794E-03    1.4720740998E-03    1.5094126695E-03
    1.5477001949E-03    1.5869608893E-03    1.6272195885E-03    1.6685017674E-03
    1.7108335563E-03    1.7542417584E-03    1.7987538673E-03    1.8443980849E-03
    1.8912033401E-03    1.9391993079E-03    1.9884164291E-03    2.0388859301E-03
    2.0906398436E-03    2.1437110302E-03    2.1981331998E-03    2.2539409342E-03
    2.3111697100E-03    2.3698559222E-03    2.4300369087E-03    2.4917509752E-03
    2.5550374204E-03    2.6199365630E-03    2.6864897684E-03    2.7547394764E-03
    2.8247292303E-03    2.8965037057E-03    2.9701087409E-03    3.0455913681E-03
    3.1229998452E-03    3.2023836886E-03    3.2837937067E-03    3.3672820351E-03
    3.4529021716E-03    3.5407090132E-03    3.6307588937E-03    3.7231096226E-03
    3.8178205247E-03    3.9149524810E-03    4.0145679713E-03    4.1167311169E-03
    4.2215077258E-03    4.3289653381E-03    4.4391732734E-03    4.5522026794E-03
    4.6681265816E-03    4.7870199346E-03    4.9089596757E-03    5.0340247782E-03
    5.1622963083E-03    5.2938574824E-03    5.4287937261E-03    5.5671927360E-03
    5.7091445419E-03    5.8547415715E-03    6.0040787176E-03    6.1572534061E-03
    6.3143656670E-03    6.4755182068E-03    6.6408164839E-03    6.8103687852E-03
    6.9842863059E-03    7.1626832312E-03    7.3456768208E-03    7.5333874958E-03
    7.7259389277E-03    7.9234581314E-03    8.1260755596E-03    8.3339252013E-03
    8.5471446822E-03    8.7658753692E-03    8.9902624772E-03    9.2204551803E-03
    9.4566067251E-03    9.6988745485E-03    9.9474203993E-03    1.0202410462E-02
    1.0464015488E-02    1.0732410924E-02    1.1007777055E-02    1.1290299140E-02
    1.1580167564E-02    1.1877577980E-02    1.2182731473E-02    1.2495834715E-02
    1.2817100130E-02    1.3146746068E-02    1.3484996978E-02    1.3832083591E-02
    1.4188243104E-02    1.4553719379E-02    1.4928763140E-02    1.5313632177E-02
    1.5708591561E-02    1.6113913862E-02    1.6529879380E-02    1.6956776373E-02
    1.7394901301E-02    1.7844559078E-02    1.8306063326E-02    1.8779736641E-02
    1.9265910872E-02    1.9764927400E-02    2.0277137430E-02    2.0802902301E-02
    2.1342593787E-02    2.1896594430E-02    2.2465297866E-02    2.3049109172E-02
    2.3648445218E-02    2.4263735040E-02    2.4895420210E-02    2.5543955233E-02
    2.6209807950E-02    2.6893459951E-02    2.7595407010E-02    2.8316159525E-02
    2.9056242980E-02    2.9816198414E-02    3.0596582915E-02    3.1397970119E-02
    3.2220950734E-02    3.3066133074E-02    3.3934143615E-02    3.4825627564E-02
    3.5741249452E-02    3.6681693737E-02    3.7647665436E-02    3.8639890767E-02
    3.9659117815E-02    4.0706117224E-02    4.1781682895E-02    4.2886632723E-02
    4.4021809344E-02    4.5188080905E-02    4.6386341864E-02    4.7617513804E-02
    4.8882546278E-02    5.0182417671E-02    5.1518136095E-02    5.2890740298E-02
    5.4301300605E-02    5.5750919885E-02    5.7240734538E-02    5.8771915508E-02
    6.0345669331E-02    6.1963239193E-02    6.3625906028E-02    6.5334989635E-02
    6.7091849819E-02    6.8897887562E-02    7.0754546214E-02    7.2663312714E-02
    7.4625718828E-02    7.6643342418E-02    7.8717808726E-02    8.0850791683E-02
    8.3044015239E-02    8.5299254710E-02    8.7618338143E-02    9.0003147698E-02
    9.2455621039E-02    9.4977752744E-02    9.7571595715E-02    1.0023926260E-01
    1.0298292723E-01    1.0580482602E-01    1.0870725940E-01    1.1169259322E-01
    1.1476326019E-01    1.1792176118E-01    1.2117066666E-01    1.2451261799E-01
    1.2795032871E-01    1.3148658580E-01    1.3512425090E-01    1.3886626143E-01
    1.4271563167E-01    1.4667545377E-01    1.5074889865E-01    1.5493921684E-01
    1.5924973917E-01    1.6368387734E-01    1.6824512440E-01    1.7293705501E-01
    1.7776332563E-01    1.8272767439E-01    1.8783392091E-01    1.9308596577E-01
    1.9848778986E-01    2.0404345337E-01    2.0975709454E-01    2.1563292813E-01
    2.2167524351E-01    2.2788840243E-01    2.3427683637E-01    2.4084504354E-01
    2.4759758536E-01    2.5453908253E-01    2.6167421054E-01    2.6900769469E-01
    2.7654430449E-01    2.8428884747E-01    2.9224616233E-01    3.0042111140E-01
    3.0881857236E-01    3.1744342921E-01    3.2630056238E-01    3.3539483801E-01
    3.4473109634E-01    3.5431413911E-01    3.6414871597E-01    3.7423950990E-01
    3.8459112146E-01    3.9520805198E-01    4.0609468554E-01    4.1725526971E-01
    4.2869389507E-01    4.4041447338E-01    4.5242071443E-01    4.6471610149E-01
    4.7730386537E-01    4.9018695696E-01    5.0336801839E-01    5.1684935261E-01
    5.3063289146E-01    5.4472016227E-01    5.5911225284E-01    5.7380977489E-01
    5.8881282605E-01    6.0412095026E-01    6.1973309666E-01    6.3564757712E-01
    6.5186202222E-01    6.6837333600E-01    6.8517764929E-01    7.0227027191E-01
    7.1964564371E-01    7.3729728459E-01    7.5521774360E-01    7.7339854724E-01
    7.9183014723E-01    8.1050186767E-01    8.2940185201E-01    8.4851700984E-01
    8.6783296384E-01    8.8733399694E-01    9.0700300016E-01    9.2682142105E-01
    9.4676921335E-01    9.6682478780E-01    9.8696496462E-01    1.0071649278E+00
    1.0273981815E+00    1.0476365091E+00    1.0678499345E+00    1.0880066873E+00
    1.1080731703E+00    1.1280139318E+00    1.1477916405E+00    1.1673670662E+00
    1.1866990641E+00    1.2057445641E+00    1.2244585656E+00    1.2427941377E+00
    1.2607024251E+00    1.2781326609E+00    1.2950321848E+00    1.3113464695E+00
    1.3270191534E+00    1.3419920823E+00    1.3562053590E+00    1.3695974016E+00
    1.3821050125E+00    1.3936634578E+00    1.4042065584E+00    1.4136667940E+00
    1.4219754217E+00    1.4290626106E+00    1.4348575941E+00    1.4392888426E+00
    1.4422842582E+00    1.4437713956E+00    1.4436777105E+00    1.4419308411E+00
    1.4384589246E+00    1.4331909543E+00    1.4260571813E+00    1.4169895647E+00
    1.4059222776E+00    1.3927922705E+00    1.3775399007E+00    1.3601096294E+00
    1.3404507930E+00    1.3185184507E+00    1.2942743126E+00    1.2676877492E+00
    1.2387368813E+00    1.2074097509E+00    1.1737055646E+00    1.1376360067E+00
    1.0992266069E+00    1.0585181508E+00    1.0155681130E+00    9.7045208894E-01
    9.2326519735E-01    8.7412341754E-01    8.2316482290E-01    7.7055066443E-01
    7.1646625346E-01    6.6112158805E-01    6.0475166297E-01    5.4761640070E-01
    4.9000013879E-01    4.3221060965E-01    3.7457735120E-01    3.1744949199E-01
    2.6119286287E-01    2.0618639859E-01    1.5281780834E-01    1.0147851283E-01
    5.2557868467E-02    6.4367252879E-03   -3.6519605565E-02   -7.5968867343E-02
   -1.1159971608E-01   -1.4313974903E-01   -1.7036349949E-01   -1.9310016730E-01
   -2.1124083366E-01   -2.2474489638E-01   -2.3364546144E-01   -2.3805343952E-01
   -2.3816012624E-01   -2.3423809288E-01   -2.2664028050E-01   -2.1579691850E-01
   -2.0220411166E-01   -1.8640475259E-01   -1.6897199940E-01   -1.5049192632E-01
   -1.3154501225E-01   -1.1268716514E-01   -9.4431094074E-02   -7.7228924070E-02
   -6.1456988568E-02   -4.7403720434E-02   -3.5261482240E-02   -2.5123023684E-02
   -1.6983023560E-02   -1.0744868069E-02   -6.2324346848E-03   -3.2035968222E-03
   -1.3574499016E-03   -4.0283041567E-04   -4.6384080807E-05    5.0584148699E-07
    3.8677321417E-08    0.0000000000E+00    0.0000000000E+00    0.0000000000E+00
 0. 0. 0. 0.
 0. 0. 0. 0.
 0. 0. 0. 0.
 0. 0. 0. 0.
 0. 0. 0. 0.
 0. 0. 0. 0.
 0. 0. 0. 0.
 0. 0. 0. 0.
 0. 0. 0. 0.
 0. 0. 0. 0.
 0. 0. 0. 0.
 0. 0. 0. 0.
 0. 0. 0. 0.
 0. 0. 0. 0.
 0. 0. 0. 0.
 0. 0. 0. 0.
 0. 0. 0. 0.
 0. 0. 0. 0.
 0. 0. 0. 0.
 0. 0. 0. 0.
 0. 0. 0. 0.
 0. 0. 0. 0.
 0. 0. 0. 0.
 0. 0. 0. 0.
 0. 0. 0. 0.
 0. 0. 0. 0.
 0. 0. 0. 0.
 0. 0. 0. 0.
 0. 0. 0. 0.
 0. 0. 0. 0.
 0. 0. 0. 0.
 0. 0. 0. 0.
 0. 0. 0. 0.
 0. 0. 0. 0.
 0. 0. 0. 0.
 0. 0. 0. 0.
 0. 0. 0. 0.
 0. 0. 0. 0.
 0. 0. 0. 0.
 0. 0. 0. 0.
 0. 0.
   </PP_BETA.3>
   <PP_BETA.4
       type="real"
       size="1078"
       columns="4"
       index="4"
       angular_momentum="1"
       cutoff_radius_index=" 916"
       cutoff_radius="    2.0159757564E+00" >
    0.0000000000E+00    3.8536385092E-09    3.9511892185E-09    4.0511910584E-09
    4.1537768798E-09    4.2589216749E-09    4.3667484556E-09    4.4772844758E-09
    4.5906274519E-09    4.7068420830E-09    4.8259999397E-09    4.9481759746E-09
    5.0734311163E-09    5.2018401440E-09    5.3335639834E-09    5.4685640844E-09
    5.6070047753E-09    5.7489529222E-09    5.8944748761E-09    6.0436991320E-09
    6.1967080742E-09    6.3535819913E-09    6.5144069075E-09    6.6793076236E-09
    6.8484066014E-09    7.0217876359E-09    7.1995373002E-09    7.3818103550E-09
    7.5686513076E-09    7.7602663857E-09    7.9567346485E-09    8.1581343235E-09
    8.3646688484E-09    8.5764179426E-09    8.7935415400E-09    9.0161619454E-09
    9.2443899211E-09    9.4784022352E-09    9.7183502452E-09    9.9643867013E-09
    1.0216637221E-08    1.0475277341E-08    1.0740460243E-08    1.1012336857E-08
    1.1291124232E-08    1.1576972834E-08    1.1870023196E-08    1.2170528291E-08
    1.2478624178E-08    1.2794528276E-08    1.3118401722E-08    1.3450508712E-08
    1.3791012381E-08    1.4140122728E-08    1.4498085763E-08    1.4865106406E-08
    1.5241425693E-08    1.5627267773E-08    1.6022871780E-08    1.6428480594E-08
    1.6844375089E-08    1.7270801802E-08    1.7708001933E-08    1.8156284497E-08
    1.8615899594E-08    1.9087177780E-08    1.9570366711E-08    2.0065808279E-08
    2.0573746397E-08    2.1094591742E-08    2.1628602243E-08    2.2176126198E-08
    2.2737525015E-08    2.3313118221E-08    2.3903322951E-08    2.4508417298E-08
    2.5128849245E-08    2.5764994155E-08    2.6417242676E-08    2.7085991400E-08
    2.7771665937E-08    2.8474729031E-08    2.9195574871E-08    2.9934643472E-08
    3.0692442909E-08    3.1469426038E-08    3.2266096370E-08    3.3082903287E-08
    3.3920400986E-08    3.4779095481E-08    3.5659537411E-08    3.6562263777E-08
    3.7487825529E-08    3.8436853974E-08    3.9409884246E-08    4.0407556017E-08
    4.1430474351E-08    4.2479286985E-08    4.3554672933E-08    4.4657240893E-08
    4.5787751722E-08    4.6946876374E-08    4.8135330480E-08    4.9353899469E-08
    5.0603306318E-08    5.1884316766E-08    5.3197783321E-08    5.4544489171E-08
    5.5925289044E-08    5.7341051438E-08    5.8792652369E-08    6.0280977358E-08
    6.1807005827E-08    6.3371659766E-08    6.4975904103E-08    6.6620797839E-08
    6.8307294980E-08    7.0036514466E-08    7.1809492878E-08    7.3627368655E-08
    7.5491248703E-08    7.7402304800E-08    7.9361767384E-08    8.1370826502E-08
    8.3430711942E-08    8.5542782298E-08    8.7708305928E-08    8.9928655925E-08
    9.2205220128E-08    9.4539404091E-08    9.6932687864E-08    9.9386539321E-08
    1.0190251653E-07    1.0448219604E-07    1.0712719087E-07    1.0983911956E-07
    1.1261969193E-07    1.1547066554E-07    1.1839382263E-07    1.2139098799E-07
    1.2446401979E-07    1.2761483044E-07    1.3084542365E-07    1.3415777526E-07
    1.3755401261E-07    1.4103620655E-07    1.4460654475E-07    1.4826727569E-07
    1.5202068123E-07    1.5586909245E-07    1.5981494761E-07    1.6386067973E-07
    1.6800883264E-07    1.7226198553E-07    1.7662282309E-07    1.8109405348E-07
    1.8567848032E-07    1.9037894078E-07    1.9519841442E-07    2.0013986654E-07
    2.0520644538E-07    2.1040128337E-07    2.1572760050E-07    2.2118877584E-07
    2.2678817803E-07    2.3252936171E-07    2.3841586849E-07    2.4445138972E-07
    2.5063971898E-07    2.5698467228E-07    2.6349027864E-07    2.7016055466E-07
    2.7699972332E-07    2.8401197728E-07    2.9120177968E-07    2.9857357133E-07
    3.0613201223E-07    3.1388176732E-07    3.2182771847E-07    3.2997484293E-07
    3.3832818148E-07    3.4689298631E-07    3.5567461694E-07    3.6467857394E-07
    3.7391043983E-07    3.8337602643E-07    3.9308124988E-07    4.0303213065E-07
    4.1323491619E-07    4.2369601517E-07    4.3442192602E-07    4.4541934965E-07
    4.5669520579E-07    4.6825648324E-07    4.8011044877E-07    4.9226450374E-07
    5.0472621604E-07    5.1750342146E-07    5.3060406332E-07    5.4403637193E-07
    5.5780869842E-07    5.7192968174E-07    5.8640813348E-07    6.0125313027E-07
    6.1647392428E-07    6.3208002519E-07    6.4808118115E-07    6.6448742584E-07
    6.8130898072E-07    6.9855639954E-07    7.1624042162E-07    7.3437212123E-07
    7.5296280474E-07    7.7202414799E-07    7.9156800084E-07    8.1160662343E-07
    8.3215250946E-07    8.5321853647E-07    8.7481784220E-07    8.9696395210E-07
    9.1967067012E-07    9.4295220376E-07    9.6682314317E-07    9.9129833744E-07
    1.0163931441E-06    1.0421232492E-06    1.0685046725E-06    1.0955539562E-06
    1.1232880268E-06    1.1517241300E-06    1.1808801296E-06    1.2107742135E-06
    1.2414250709E-06    1.2728518302E-06    1.3050741947E-06    1.3381122284E-06
    1.3719866379E-06    1.4067185918E-06    1.4423297762E-06    1.4788424459E-06
    1.5162794535E-06    1.5546641972E-06    1.5940206070E-06    1.6343733458E-06
    1.6757476239E-06    1.7181692917E-06    1.7616648585E-06    1.8062615134E-06
    1.8519871455E-06    1.8988703133E-06    1.9469403135E-06    1.9962272203E-06
    2.0467618333E-06    2.0985757157E-06    2.1517012664E-06    2.2061717074E-06
    2.2620210292E-06    2.3192842185E-06    2.3779969919E-06    2.4381960991E-06
    2.4999191448E-06    2.5632046768E-06    2.6280923051E-06    2.6946225611E-06
    2.7628370094E-06    2.8327783258E-06    2.9044901792E-06    2.9780174314E-06
    3.0534060138E-06    3.1307030540E-06    3.2099568557E-06    3.2912169817E-06
    3.3745341740E-06    3.4599605446E-06    3.5475494850E-06    3.6373557133E-06
    3.7294353935E-06    3.8238460465E-06    3.9206466936E-06    4.0198978526E-06
    4.1216615064E-06    4.2260013215E-06    4.3329824796E-06    4.4426718489E-06
    4.5551379796E-06    4.6704511723E-06    4.7886835187E-06    4.9099088444E-06
    5.0342030056E-06    5.1616436456E-06    5.2923104065E-06    5.4262849787E-06
    5.5636510889E-06    5.7044945716E-06    5.8489034867E-06    5.9969680884E-06
    6.1487808911E-06    6.3044367826E-06    6.4640330952E-06    6.6276695116E-06
    6.7954483237E-06    6.9674744445E-06    7.1438553336E-06    7.3247012285E-06
    7.5101251853E-06    7.7002430703E-06    7.8951737432E-06    8.0950390101E-06
    8.2999637498E-06    8.5100761271E-06    8.7255073621E-06    8.9463921826E-06
    9.1728685814E-06    9.4050781292E-06    9.6431659520E-06    9.8872808455E-06
    1.0137575394E-05    1.0394206004E-05    1.0657333099E-05    1.0927121090E-05
    1.1203738623E-05    1.1487358527E-05    1.1778158132E-05    1.2076319127E-05
    1.2382027881E-05    1.2695475447E-05    1.3016857714E-05    1.3346375550E-05
    1.3684234891E-05    1.4030646881E-05    1.4385828033E-05    1.4750000298E-05
    1.5123391279E-05    1.5506234356E-05    1.5898768768E-05    1.6301239809E-05
    1.6713899084E-05    1.7137004397E-05    1.7570820219E-05    1.8015617654E-05
    1.8471674680E-05    1.8939276285E-05    1.9418714733E-05    1.9910289644E-05
    2.0414308195E-05    2.0931085355E-05    2.1460944138E-05    2.2004215598E-05
    2.2561239275E-05    2.3132363296E-05    2.3717944545E-05    2.4318348946E-05
    2.4933951738E-05    2.5565137604E-05    2.6212300979E-05    2.6875846282E-05
    2.7556188198E-05    2.8253751818E-05    2.8968973112E-05    2.9702298995E-05
    3.0454187692E-05    3.1225109095E-05    3.2015544921E-05    3.2825989107E-05
    3.3656948103E-05    3.4508941098E-05    3.5382500536E-05    3.6278172256E-05
    3.7196515949E-05    3.8138105442E-05    3.9103529115E-05    4.0093390124E-05
    4.1108307078E-05    4.2148914103E-05    4.3215861438E-05    4.4309815685E-05
    4.5431460419E-05    4.6581496503E-05    4.7760642437E-05    4.8969634986E-05
    5.0209229561E-05    5.1480200629E-05    5.2783342273E-05    5.4119468726E-05
    5.5489414768E-05    5.6894036297E-05    5.8334210849E-05    5.9810838238E-05
    6.1324840995E-05    6.2877164935E-05    6.4468779931E-05    6.6100680281E-05
    6.7773885492E-05    6.9489440823E-05    7.1248418026E-05    7.3051915922E-05
    7.4901061173E-05    7.6797008893E-05    7.8740943441E-05    8.0734079145E-05
    8.2777661018E-05    8.4872965589E-05    8.7021301689E-05    8.9224011207E-05
    9.1482470003E-05    9.3798088737E-05    9.6172313747E-05    9.8606627940E-05
    1.0110255174E-04    1.0366164401E-04    1.0628550301E-04    1.0897576751E-04
    1.1173411763E-04    1.1456227597E-04    1.1746200876E-04    1.2043512687E-04
    1.2348348688E-04    1.2660899242E-04    1.2981359521E-04    1.3309929629E-04
    1.3646814729E-04    1.3992225175E-04    1.4346376637E-04    1.4709490236E-04
    1.5081792679E-04    1.5463516413E-04    1.5854899753E-04    1.6256187040E-04
    1.6667628787E-04    1.7089481845E-04    1.7522009550E-04    1.7965481898E-04
    1.8420175705E-04    1.8886374782E-04    1.9364370109E-04    1.9854460022E-04
    2.0356950397E-04    2.0872154829E-04    2.1400394842E-04    2.1942000084E-04
    2.2497308519E-04    2.3066666662E-04    2.3650429771E-04    2.4248962079E-04
    2.4862637016E-04    2.5491837444E-04    2.6136955892E-04    2.6798394803E-04
    2.7476566774E-04    2.8171894826E-04    2.8884812653E-04    2.9615764901E-04
    3.0365207439E-04    3.1133607644E-04    3.1921444680E-04    3.2729209806E-04
    3.3557406684E-04    3.4406551678E-04    3.5277174178E-04    3.6169816934E-04
    3.7085036379E-04    3.8023402992E-04    3.8985501627E-04    3.9971931895E-04
    4.0983308523E-04    4.2020261739E-04    4.3083437653E-04    4.4173498671E-04
    4.5291123885E-04    4.6437009511E-04    4.7611869300E-04    4.8816434990E-04
    5.0051456759E-04    5.1317703668E-04    5.2615964163E-04    5.3947046538E-04
    5.5311779441E-04    5.6711012382E-04    5.8145616259E-04    5.9616483884E-04
    6.1124530537E-04    6.2670694540E-04    6.4255937807E-04    6.5881246455E-04
    6.7547631402E-04    6.9256128983E-04    7.1007801590E-04    7.2803738320E-04
    7.4645055642E-04    7.6532898078E-04    7.8468438905E-04    8.0452880868E-04
    8.2487456924E-04    8.4573430978E-04    8.6712098667E-04    8.8904788146E-04
    9.1152860892E-04    9.3457712537E-04    9.5820773719E-04    9.8243510948E-04
    1.0072742749E-03    1.0327406429E-03    1.0588500090E-03    1.0856185645E-03
    1.1130629060E-03    1.1412000456E-03    1.1700474213E-03    1.1996229074E-03
    1.2299448250E-03    1.2610319537E-03    1.2929035424E-03    1.3255793210E-03
    1.3590795123E-03    1.3934248439E-03    1.4286365613E-03    1.4647364397E-03
    1.5017467978E-03    1.5396905106E-03    1.5785910235E-03    1.6184723660E-03
    1.6593591661E-03    1.7012766648E-03    1.7442507314E-03    1.7883078785E-03
    1.8334752781E-03    1.8797807773E-03    1.9272529148E-03    1.9759209380E-03
    2.0258148200E-03    2.0769652774E-03    2.1294037879E-03    2.1831626093E-03
    2.2382747982E-03    2.2947742291E-03    2.3526956142E-03    2.4120745240E-03
    2.4729474072E-03    2.5353516129E-03    2.5993254108E-03    2.6649080148E-03
    2.7321396046E-03    2.8010613489E-03    2.8717154294E-03    2.9441450646E-03
    3.0183945348E-03    3.0945092068E-03    3.1725355601E-03    3.2525212134E-03
    3.3345149507E-03    3.4185667497E-03    3.5047278094E-03    3.5930505789E-03
    3.6835887866E-03    3.7763974703E-03    3.8715330076E-03    3.9690531472E-03
    4.0690170407E-03    4.1714852752E-03    4.2765199062E-03    4.3841844919E-03
    4.4945441274E-03    4.6076654799E-03    4.7236168250E-03    4.8424680833E-03
    4.9642908573E-03    5.0891584701E-03    5.2171460042E-03    5.3483303407E-03
    5.4827902000E-03    5.6206061829E-03    5.7618608124E-03    5.9066385765E-03
    6.0550259713E-03    6.2071115456E-03    6.3629859457E-03    6.5227419612E-03
    6.6864745719E-03    6.8542809944E-03    7.0262607311E-03    7.2025156187E-03
    7.3831498781E-03    7.5682701648E-03    7.7579856206E-03    7.9524079250E-03
    8.1516513487E-03    8.3558328073E-03    8.5650719149E-03    8.7794910403E-03
    8.9992153620E-03    9.2243729255E-03    9.4550947002E-03    9.6915146373E-03
    9.9337697289E-03    1.0182000067E-02    1.0436348903E-02    1.0696962711E-02
    1.0963991242E-02    1.1237587595E-02    1.1517908272E-02    1.1805113241E-02
    1.2099366005E-02    1.2400833656E-02    1.2709686948E-02    1.3026100353E-02
    1.3350252132E-02    1.3682324392E-02    1.4022503156E-02    1.4370978426E-02
    1.4727944244E-02    1.5093598760E-02    1.5468144293E-02    1.5851787397E-02
    1.6244738919E-02    1.6647214067E-02    1.7059432467E-02    1.7481618227E-02
    1.7913999995E-02    1.8356811016E-02    1.8810289194E-02    1.9274677143E-02
    1.9750222244E-02    2.0237176696E-02    2.0735797570E-02    2.1246346852E-02
    2.1769091492E-02    2.2304303448E-02    2.2852259725E-02    2.3413242412E-02
    2.3987538717E-02    2.4575440996E-02    2.5177246781E-02    2.5793258799E-02
    2.6423784990E-02    2.7069138523E-02    2.7729637797E-02    2.8405606443E-02
    2.9097373324E-02    2.9805272516E-02    3.0529643293E-02    3.1270830100E-02
    3.2029182516E-02    3.2805055214E-02    3.3598807905E-02    3.4410805279E-02
    3.5241416929E-02    3.6091017268E-02    3.6959985436E-02    3.7848705187E-02
    3.8757564774E-02    3.9686956806E-02    4.0637278105E-02    4.1608929538E-02
    4.2602315833E-02    4.3617845381E-02    4.4655930018E-02    4.5716984788E-02
    4.6801427682E-02    4.7909679363E-02    4.9042162859E-02    5.0199303241E-02
    5.1381527267E-02    5.2589263010E-02    5.3822939445E-02    5.5082986020E-02
    5.6369832189E-02    5.7683906910E-02    5.9025638120E-02    6.0395452164E-02
    6.1793773194E-02    6.3221022523E-02    6.4677617943E-02    6.6163973004E-02
    6.7680496239E-02    6.9227590349E-02    7.0805651342E-02    7.2415067618E-02
    7.4056218999E-02    7.5729475712E-02    7.7435197307E-02    7.9173731524E-02
    8.0945413091E-02    8.2750562464E-02    8.4589484494E-02    8.6462467035E-02
    8.8369779471E-02    9.0311671174E-02    9.2288369886E-02    9.4300080019E-02
    9.6346980878E-02    9.8429224792E-02    1.0054693517E-01    1.0270020444E-01
    1.0488909197E-01    1.0711362175E-01    1.0937378016E-01    1.1166951348E-01
    1.1400072541E-01    1.1636727439E-01    1.1876897090E-01    1.2120557460E-01
    1.2367679138E-01    1.2618227025E-01    1.2872160023E-01    1.3129430695E-01
    1.3389984933E-01    1.3653761598E-01    1.3920692156E-01    1.4190700303E-01
    1.4463701573E-01    1.4739602936E-01    1.5018302391E-01    1.5299688536E-01
    1.5583640134E-01    1.5870025667E-01    1.6158702879E-01    1.6449518306E-01
    1.6742306802E-01    1.7036891048E-01    1.7333081057E-01    1.7630673673E-01
    1.7929452059E-01    1.8229185177E-01    1.8529627273E-01    1.8830517345E-01
    1.9131578619E-01    1.9432518019E-01    1.9733025637E-01    2.0032774211E-01
    2.0331418601E-01    2.0628595278E-01    2.0923921816E-01    2.1216996399E-01
    2.1507397343E-01    2.1794682637E-01    2.2078389498E-01    2.2358033957E-01
    2.2633110473E-01    2.2903091574E-01    2.3167427541E-01    2.3425546125E-01
    2.3676852318E-01    2.3920728169E-01    2.4156532663E-01    2.4383601651E-01
    2.4601247863E-01    2.4808760981E-01    2.5005407806E-01    2.5190432503E-01
    2.5363056946E-01    2.5522481171E-01    2.5667883925E-01    2.5798423353E-01
    2.5913237794E-01    2.6011446724E-01    2.6092151842E-01    2.6154438298E-01
    2.6197376098E-01    2.6220021668E-01    2.6221419601E-01    2.6200604594E-01
    2.6156603573E-01    2.6088438038E-01    2.5995126600E-01    2.5875687760E-01
    2.5729142898E-01    2.5554519508E-01    2.5350854662E-01    2.5117198730E-01
    2.4852619336E-01    2.4556205573E-01    2.4227072467E-01    2.3864365694E-01
    2.3467266540E-01    2.3034997118E-01    2.2566825812E-01    2.2062072962E-01
    2.1520116764E-01    2.0940399381E-01    2.0322433240E-01    1.9665807503E-01
    1.8970194690E-01    1.8235357420E-01    1.7461155246E-01    1.6647551554E-01
    1.5794620483E-01    1.4902553821E-01    1.3971667853E-01    1.3002410081E-01
    1.1995365793E-01    1.0951264405E-01    9.8709855285E-02    8.7555646919E-02
    7.6061986587E-02    6.4242502689E-02    5.2112527379E-02    3.9689133412E-02
    2.6991164170E-02    1.4039256162E-02    8.5585334209E-04   -1.2534787380E-02
   -2.6106600017E-02   -3.9831723280E-02   -5.3680524669E-02   -6.7621635205E-02
   -8.1621994977E-02   -9.5646909562E-02   -1.0966011717E-01   -1.2362386616E-01
   -1.3749900246E-01   -1.5124506593E-01   -1.6482039474E-01   -1.7818223631E-01
   -1.9128686313E-01   -2.0408969147E-01   -2.1654540056E-01   -2.2860804955E-01
   -2.4023118912E-01   -2.5136796442E-01   -2.6197120544E-01   -2.7199350079E-01
   -2.8138725068E-01   -2.9010469437E-01   -2.9809790768E-01   -3.0531876574E-01
   -3.1171886644E-01   -3.1724941036E-01   -3.2186103310E-01   -3.2550358684E-01
   -3.2812586858E-01   -3.2967529364E-01   -3.3009751438E-01   -3.2933598573E-01
   -3.2733148108E-01   -3.2402156439E-01   -3.1934002708E-01   -3.1321630122E-01
   -3.0557486394E-01   -2.9633465154E-01   -2.8540850601E-01   -2.7270268058E-01
   -2.5811643537E-01   -2.4154175887E-01   -2.2286325496E-01   -2.0195823971E-01
   -1.7869709569E-01   -1.5294393498E-01   -1.2455762409E-01   -9.3393225557E-02
   -5.9303910435E-02   -2.2143394268E-02    1.8231055172E-02    6.1954996432E-02
    1.0915254665E-01    1.5993144741E-01    2.1437745992E-01    2.7254810487E-01
    3.3446578580E-01    4.0011036213E-01    4.6941126941E-01    5.4223931895E-01
    6.1839834728E-01    6.9761692615E-01    7.7954038578E-01    8.6372344638E-01
    9.4962379348E-01    1.0365969705E+00    1.1238929935E+00    1.2106551174E+00
    1.2959211957E+00    1.3786280742E+00    1.4576194427E+00    1.5316575283E+00
    1.5994389550E+00    1.6596150070E+00    1.7108164193E+00    1.7516826794E+00
    1.7808956537E+00    1.7972171606E+00    1.7995298976E+00    1.7868808980E+00
    1.7585264619E+00    1.7139772722E+00    1.6530421979E+00    1.5758691109E+00
    1.4829809221E+00    1.3753049981E+00    1.2541941658E+00    1.1214376826E+00
    9.7926084878E-01    8.3031238952E-01    6.7763931403E-01    5.2464438222E-01
    3.7494028721E-01    2.3213326289E-01    9.9681758617E-02   -1.9237958857E-02
   -1.2186870450E-01   -2.0600543486E-01   -2.7011723604E-01   -3.1345041033E-01
   -3.3610460986E-01   -3.3907422590E-01   -3.2424807221E-01   -2.9436186990E-01
   -2.5290018243E-01   -2.0394724738E-01   -1.5198961043E-01   -1.0169572628E-01
   -5.7734141029E-02   -2.4154008910E-02   -4.2972821807E-03    7.9354283608E-05
    4.0819309856E-06   -0.0000000000E+00   -0.0000000000E+00   -0.0000000000E+00
 0. 0. 0. 0.
 0. 0. 0. 0.
 0. 0. 0. 0.
 0. 0. 0. 0.
 0. 0. 0. 0.
 0. 0. 0. 0.
 0. 0. 0. 0.
 0. 0. 0. 0.
 0. 0. 0. 0.
 0. 0. 0. 0.
 0. 0. 0. 0.
 0. 0. 0. 0.
 0. 0. 0. 0.
 0. 0. 0. 0.
 0. 0. 0. 0.
 0. 0. 0. 0.
 0. 0. 0. 0.
 0. 0. 0. 0.
 0. 0. 0. 0.
 0. 0. 0. 0.
 0. 0. 0. 0.
 0. 0. 0. 0.
 0. 0. 0. 0.
 0. 0. 0. 0.
 0. 0. 0. 0.
 0. 0. 0. 0.
 0. 0. 0. 0.
 0. 0. 0. 0.
 0. 0. 0. 0.
 0. 0. 0. 0.
 0. 0. 0. 0.
 0. 0. 0. 0.
 0. 0. 0. 0.
 0. 0. 0. 0.
 0. 0. 0. 0.
 0. 0. 0. 0.
 0. 0. 0. 0.
 0. 0. 0. 0.
 0. 0. 0. 0.
 0. 0. 0. 0.
 0. 0.
   </PP_BETA.4>
   <PP_BETA.5
       type="real"
       size="1078"
       columns="4"
       index="5"
       angular_momentum="2"
       cutoff_radius_index=" 916"
       cutoff_radius="    2.0159757564E+00" >
    0.0000000000E+00    1.6619156860E-13    1.7254202678E-13    1.7913523343E-13
    1.8598036917E-13    1.9308692813E-13    2.0046516918E-13    2.0812537834E-13
    2.1607827466E-13    2.2433505760E-13    2.3290728573E-13    2.4180715722E-13
    2.5104714786E-13    2.6064008921E-13    2.7059965112E-13    2.8093983149E-13
    2.9167518334E-13    3.0282063964E-13    3.1439201816E-13    3.2640566287E-13
    3.3887825006E-13    3.5182735900E-13    3.6527138842E-13    3.7922909106E-13
    3.9372020093E-13    4.0876515578E-13    4.2438467690E-13    4.4060153342E-13
    4.5743764491E-13    4.7491740763E-13    4.9306480286E-13    5.1190577894E-13
    5.3146667293E-13    5.5177516416E-13    5.7285945416E-13    5.9474965762E-13
    6.1747633154E-13    6.4107118539E-13    6.6556779348E-13    6.9100065007E-13
    7.1740497196E-13    7.4481847201E-13    7.7327952605E-13    8.0282794338E-13
    8.3350571306E-13    8.6535554188E-13    8.9842265252E-13    9.3275306766E-13
    9.6839560108E-13    1.0053999452E-12    1.0438182690E-12    1.0837045493E-12
    1.1251150703E-12    1.1681078659E-12    1.2127437004E-12    1.2590849089E-12
    1.3071973253E-12    1.3571479381E-12    1.4090072816E-12    1.4628483085E-12
    1.5187465257E-12    1.5767808303E-12    1.6370327404E-12    1.6995872484E-12
    1.7645317128E-12    1.8319580489E-12    1.9019607206E-12    1.9746382903E-12
    2.0500934743E-12    2.1284317802E-12    2.2097633886E-12    2.2942026291E-12
    2.3818688165E-12    2.4728848646E-12    2.5673784262E-12    2.6654834211E-12
    2.7673366616E-12    2.8730821470E-12    2.9828682863E-12    3.0968494202E-12
    3.2151867425E-12    3.3380451806E-12    3.4655985782E-12    3.5980260240E-12
    3.7355137349E-12    3.8782554022E-12    4.0264506317E-12    4.1803097021E-12
    4.3400476087E-12    4.5058894587E-12    4.6780687415E-12    4.8568269493E-12
    5.0424162152E-12    5.2350966736E-12    5.4351402830E-12    5.6428278563E-12
    5.8584513782E-12    6.0823144111E-12    6.3147319502E-12    6.5560307780E-12
    6.8065496051E-12    7.0666418800E-12    7.3366721161E-12    7.6170208491E-12
    7.9080826467E-12    8.2102659883E-12    8.5239970350E-12    8.8497155540E-12
    9.1878812478E-12    9.5389682896E-12    9.9034713913E-12    1.0281902740E-11
    1.0674794690E-11    1.1082700381E-11    1.1506192311E-11    1.1945866842E-11
    1.2402342410E-11    1.2876260355E-11    1.3368287829E-11    1.3879117058E-11
    1.4409465658E-11    1.4960080069E-11    1.5531734618E-11    1.6125233444E-11
    1.6741410812E-11    1.7381132953E-11    1.8045300952E-11    1.8734848039E-11
    1.9450744655E-11    2.0193995368E-11    2.0965648599E-11    2.1766788653E-11
    2.2598540811E-11    2.3462075879E-11    2.4358608168E-11    2.5289400265E-11
    2.6255758164E-11    2.7259043744E-11    2.8300665657E-11    2.9382090194E-11
    3.0504838647E-11    3.1670490012E-11    3.2880681982E-11    3.4137119009E-11
    3.5441565867E-11    3.6795860217E-11    3.8201902076E-11    3.9661673453E-11
    4.1177225891E-11    4.2750689272E-11    4.4384278756E-11    4.6080291109E-11
    4.7841110353E-11    4.9669214427E-11    5.1567174906E-11    5.3537658563E-11
    5.5583439756E-11    5.7707395190E-11    5.9912509708E-11    6.2201885993E-11
    6.4578743832E-11    6.7046426857E-11    6.9608404474E-11    7.2268280769E-11
    7.5029795773E-11    7.7896833478E-11    8.0873428111E-11    8.3963762570E-11
    8.7172185500E-11    9.0503208841E-11    9.3961516836E-11    9.7551975287E-11
    1.0127962990E-10    1.0514972686E-10    1.0916770766E-10    1.1333922374E-10
    1.1767014160E-10    1.2216655248E-10    1.2683477974E-10    1.3168139028E-10
    1.3671319992E-10    1.4193728427E-10    1.4736099047E-10    1.5299194761E-10
    1.5883807628E-10    1.6490759487E-10    1.7120904300E-10    1.7775128318E-10
    1.8454351435E-10    1.9159528955E-10    1.9891652773E-10    2.0651752447E-10
    2.1440897189E-10    2.2260196711E-10    2.3110803376E-10    2.3993913089E-10
    2.4910768331E-10    2.5862658630E-10    2.6850922374E-10    2.7876949767E-10
    2.8942183284E-10    3.0048122188E-10    3.1196320783E-10    3.2388394399E-10
    3.3626019589E-10    3.4910936744E-10    3.6244953393E-10    3.7629945372E-10
    3.9067860558E-10    4.0560721607E-10    4.2110627645E-10    4.3719758548E-10
    4.5390377622E-10    4.7124834541E-10    4.8925568562E-10    5.0795111927E-10
    5.2736094602E-10    5.4751245733E-10    5.6843400112E-10    5.9015499641E-10
    6.1270599606E-10    6.3611871265E-10    6.6042607656E-10    6.8566227352E-10
    7.1186279605E-10    7.3906449298E-10    7.6730561904E-10    7.9662589589E-10
    8.2706655662E-10    8.5867042081E-10    8.9148192798E-10    9.2554722798E-10
    9.6091422977E-10    9.9763267770E-10    1.0357542070E-09    1.0753324418E-09
    1.1164230349E-09    1.1590837843E-09    1.2033746834E-09    1.2493580251E-09
    1.2970984816E-09    1.3466631975E-09    1.3981218776E-09    1.4515469000E-09
    1.5070133944E-09    1.5645993764E-09    1.6243858337E-09    1.6864568492E-09
    1.7508997186E-09    1.8178050807E-09    1.8872670306E-09    1.9593832575E-09
    2.0342551872E-09    2.1119881237E-09    2.1926913918E-09    2.2764784886E-09
    2.3634672573E-09    2.4537800374E-09    2.5475438519E-09    2.6448905648E-09
    2.7459570880E-09    2.8508855679E-09    2.9598235677E-09    3.0729243059E-09
    3.1903468418E-09    3.3122563337E-09    3.4388242241E-09    3.5702285221E-09
    3.7066540422E-09    3.8482926479E-09    3.9953435486E-09    4.1480135518E-09
    4.3065173783E-09    4.4710779474E-09    4.6419267046E-09    4.8193039235E-09
    5.0034590821E-09    5.1946511688E-09    5.3931490823E-09    5.5992319932E-09
    5.8131897353E-09    6.0353232287E-09    6.2659448756E-09    6.5053790319E-09
    6.7539624395E-09    7.0120447042E-09    7.2799888034E-09    7.5581715719E-09
    7.8469842574E-09    8.1468330328E-09    8.4581396229E-09    8.7813418455E-09
    9.1168942581E-09    9.4652687870E-09    9.8269553849E-09    1.0202462747E-08
    1.0592318974E-08    1.0997072370E-08    1.1417292186E-08    1.1853569415E-08
    1.2306517653E-08    1.2776773930E-08    1.3264999615E-08    1.3771881350E-08
    1.4298132038E-08    1.4844491773E-08    1.5411728980E-08    1.6000641428E-08
    1.6612057362E-08    1.7246836687E-08    1.7905872164E-08    1.8590090658E-08
    1.9300454472E-08    2.0037962653E-08    2.0803652453E-08    2.1598600740E-08
    2.2423925542E-08    2.3280787577E-08    2.4170391985E-08    2.5093989882E-08
    2.6052880229E-08    2.7048411615E-08    2.8081984174E-08    2.9155051519E-08
    3.0269122830E-08    3.1425764932E-08    3.2626604533E-08    3.3873330521E-08
    3.5167696277E-08    3.6511522220E-08    3.7906698307E-08    3.9355186726E-08
    4.0859024629E-08    4.2420327035E-08    4.4041289766E-08    4.5724192541E-08
    4.7471402212E-08    4.9285376047E-08    5.1168665245E-08    5.3123918460E-08
    5.5153885563E-08    5.7261421515E-08    5.9449490355E-08    6.1721169393E-08
    6.4079653523E-08    6.6528259709E-08    6.9070431680E-08    7.1709744750E-08
    7.4449910883E-08    7.7294783785E-08    8.0248364539E-08    8.3314807036E-08
    8.6498423917E-08    8.9803692625E-08    9.3235261693E-08    9.6797957247E-08
    1.0049678988E-07    1.0433696160E-07    1.0832387324E-07    1.1246313194E-07
    1.1676055917E-07    1.2122219879E-07    1.2585432562E-07    1.3066345429E-07
    1.3565634831E-07    1.4084002963E-07    1.4622178858E-07    1.5180919401E-07
    1.5761010397E-07    1.6363267686E-07    1.6988538273E-07    1.7637701535E-07
    1.8311670445E-07    1.9011392866E-07    1.9737852881E-07    2.0492072174E-07
    2.1275111464E-07    2.2088072013E-07    2.2932097153E-07    2.3808373908E-07
    2.4718134660E-07    2.5662658879E-07    2.6643274925E-07    2.7661361924E-07
    2.8718351689E-07    2.9815730748E-07    3.0955042433E-07    3.2137889047E-07
    3.3365934117E-07    3.4640904731E-07    3.5964593981E-07    3.7338863469E-07
    3.8765645927E-07    4.0246947941E-07    4.1784852771E-07    4.3381523280E-07
    4.5039204973E-07    4.6760229158E-07    4.8547016224E-07    5.0402079048E-07
    5.2328026519E-07    5.4327567214E-07    5.6403513215E-07    5.8558784041E-07
    6.0796410779E-07    6.3119540322E-07    6.5531439819E-07    6.8035501256E-07
    7.0635246218E-07    7.3334330860E-07    7.6136551034E-07    7.9045847633E-07
    8.2066312131E-07    8.5202192341E-07    8.8457898380E-07    9.1838008875E-07
    9.5347277405E-07    9.8990639181E-07    1.0277321798E-06    1.0670033337E-06
    1.1077750816E-06    1.1501047620E-06    1.1940519042E-06    1.2396783120E-06
    1.2870481509E-06    1.3362280378E-06    1.3872871352E-06    1.4402972483E-06
    1.4953329257E-06    1.5524715645E-06    1.6117935192E-06    1.6733822142E-06
    1.7373242618E-06    1.8037095835E-06    1.8726315366E-06    1.9441870454E-06
    2.0184767375E-06    2.0956050852E-06    2.1756805529E-06    2.2588157488E-06
    2.3451275839E-06    2.4347374358E-06    2.5277713201E-06    2.6243600668E-06
    2.7246395049E-06    2.8287506527E-06    2.9368399168E-06    3.0490592974E-06
    3.1655666024E-06    3.2865256687E-06    3.4121065931E-06    3.5424859713E-06
    3.6778471461E-06    3.8183804650E-06    3.9642835483E-06    4.1157615662E-06
    4.2730275281E-06    4.4363025812E-06    4.6058163220E-06    4.7818071189E-06
    4.9645224471E-06    5.1542192368E-06    5.3511642341E-06    5.5556343761E-06
    5.7679171806E-06    5.9883111491E-06    6.2171261879E-06    6.4546840425E-06
    6.7013187506E-06    6.9573771114E-06    7.2232191729E-06    7.4992187383E-06
    7.7857638910E-06    8.0832575405E-06    8.3921179884E-06    8.7127795163E-06
    9.0456929968E-06    9.3913265260E-06    9.7501660825E-06    1.0122716210E-05
    1.0509500725E-05    1.0911063457E-05    1.1327969008E-05    1.1760803548E-05
    1.2210175639E-05    1.2676717090E-05    1.3161083845E-05    1.3663956903E-05
    1.4186043279E-05    1.4728076991E-05    1.5290820099E-05    1.5875063770E-05
    1.6481629390E-05    1.7111369721E-05    1.7765170099E-05    1.8443949673E-05
    1.9148662703E-05    1.9880299895E-05    2.0639889795E-05    2.1428500235E-05
    2.2247239831E-05    2.3097259542E-05    2.3979754284E-05    2.4895964610E-05
    2.5847178455E-05    2.6834732939E-05    2.7860016251E-05    2.8924469593E-05
    3.0029589208E-05    3.1176928481E-05    3.2368100116E-05    3.3604778406E-05
    3.4888701580E-05    3.6221674245E-05    3.7605569922E-05    3.9042333670E-05
    4.0533984822E-05    4.2082619820E-05    4.3690415153E-05    4.5359630418E-05
    4.7092611485E-05    4.8891793796E-05    5.0759705780E-05    5.2698972398E-05
    5.4712318835E-05    5.6802574314E-05    5.8972676074E-05    6.1225673487E-05
    6.3564732336E-05    6.5993139257E-05    6.8514306351E-05    7.1131775968E-05
    7.3849225674E-05    7.6670473415E-05    7.9599482862E-05    8.2640368978E-05
    8.5797403784E-05    8.9075022347E-05    9.2477829002E-05    9.6010603801E-05
    9.9678309221E-05    1.0348609711E-04    1.0743931592E-04    1.1154351819E-04
    1.1580446833E-04    1.2022815069E-04    1.2482077798E-04    1.2958879992E-04
    1.3453891231E-04    1.3967806639E-04    1.4501347858E-04    1.5055264061E-04
    1.5630332996E-04    1.6227362078E-04    1.6847189520E-04    1.7490685501E-04
    1.8158753391E-04    1.8852331011E-04    1.9572391943E-04    2.0319946898E-04
    2.1096045121E-04    2.1901775869E-04    2.2738269924E-04    2.3606701181E-04
    2.4508288284E-04    2.5444296333E-04    2.6416038650E-04    2.7424878612E-04
    2.8472231560E-04    2.9559566773E-04    3.0688409520E-04    3.1860343187E-04
    3.3077011494E-04    3.4340120781E-04    3.5651442395E-04    3.7012815159E-04
    3.8426147935E-04    3.9893422289E-04    4.1416695249E-04    4.2998102180E-04
    4.4639859749E-04    4.6344269024E-04    4.8113718671E-04    4.9950688283E-04
    5.1857751835E-04    5.3837581258E-04    5.5892950166E-04    5.8026737709E-04
    6.0241932576E-04    6.2541637153E-04    6.4929071831E-04    6.7407579482E-04
    6.9980630102E-04    7.2651825628E-04    7.5424904936E-04    7.8303749031E-04
    8.1292386427E-04    8.4394998736E-04    8.7615926456E-04    9.0959674993E-04
    9.4430920894E-04    9.8034518323E-04    1.0177550578E-03    1.0565911305E-03
    1.0969076847E-03    1.1387610641E-03    1.1822097503E-03    1.2273144439E-03
    1.2741381482E-03    1.3227462558E-03    1.3732066393E-03    1.4255897441E-03
    1.4799686858E-03    1.5364193509E-03    1.5950205009E-03    1.6558538806E-03
    1.7190043306E-03    1.7845599035E-03    1.8526119848E-03    1.9232554181E-03
    1.9965886351E-03    2.0727137906E-03    2.1517369015E-03    2.2337679925E-03
    2.3189212459E-03    2.4073151578E-03    2.4990726990E-03    2.5943214834E-03
    2.6931939411E-03    2.7958274986E-03    2.9023647657E-03    3.0129537291E-03
    3.1277479525E-03    3.2469067856E-03    3.3705955790E-03    3.4989859078E-03
    3.6322558035E-03    3.7705899940E-03    3.9141801526E-03    4.0632251555E-03
    4.2179313495E-03    4.3785128287E-03    4.5451917212E-03    4.7181984871E-03
    4.8977722258E-03    5.0841609952E-03    5.2776221428E-03    5.4784226472E-03
    5.6868394735E-03    5.9031599402E-03    6.1276820995E-03    6.3607151313E-03
    6.6025797510E-03    6.8536086318E-03    7.1141468414E-03    7.3845522951E-03
    7.6651962237E-03    7.9564636582E-03    8.2587539319E-03    8.5724811987E-03
    8.8980749709E-03    9.2359806743E-03    9.5866602229E-03    9.9505926134E-03
    1.0328274540E-02    1.0720221030E-02    1.1126966100E-02    1.1549063436E-02
    1.1987087097E-02    1.2441632237E-02    1.2913315857E-02    1.3402777579E-02
    1.3910680447E-02    1.4437711752E-02    1.4984583882E-02    1.5552035210E-02
    1.6140830996E-02    1.6751764326E-02    1.7385657084E-02    1.8043360944E-02
    1.8725758401E-02    1.9433763835E-02    2.0168324601E-02    2.0930422153E-02
    2.1721073212E-02    2.2541330955E-02    2.3392286244E-02    2.4275068897E-02
    2.5190848988E-02    2.6140838183E-02    2.7126291122E-02    2.8148506828E-02
    2.9208830164E-02    3.0308653322E-02    3.1449417354E-02    3.2632613743E-02
    3.3859786011E-02    3.5132531366E-02    3.6452502393E-02    3.7821408781E-02
    3.9241019089E-02    4.0713162549E-02    4.2239730914E-02    4.3822680335E-02
    4.5464033283E-02    4.7165880498E-02    4.8930382979E-02    5.0759774007E-02
    5.2656361192E-02    5.4622528560E-02    5.6660738658E-02    5.8773534688E-02
    6.0963542663E-02    6.3233473577E-02    6.5586125596E-02    6.8024386253E-02
    7.0551234655E-02    7.3169743685E-02    7.5883082205E-02    7.8694517245E-02
    8.1607416173E-02    8.4625248844E-02    8.7751589711E-02    9.0990119899E-02
    9.4344629224E-02    9.7819018145E-02    1.0141729965E-01    1.0514360106E-01
    1.0900216571E-01    1.1299735452E-01    1.1713364749E-01    1.2141564493E-01
    1.2584806866E-01    1.3043576292E-01    1.3518369511E-01    1.4009695630E-01
    1.4518076147E-01    1.5044044949E-01    1.5588148276E-01    1.6150944652E-01
    1.6733004778E-01    1.7334911387E-01    1.7957259044E-01    1.8600653916E-01
    1.9265713467E-01    1.9953066112E-01    2.0663350804E-01    2.1397216549E-01
    2.2155321856E-01    2.2938334102E-01    2.3746928823E-01    2.4581788901E-01
    2.5443603667E-01    2.6333067892E-01    2.7250880675E-01    2.8197744204E-01
    2.9174362400E-01    3.0181439422E-01    3.1219678028E-01    3.2289777794E-01
    3.3392433163E-01    3.4528331329E-01    3.5698149947E-01    3.6902554647E-01
    3.8142196360E-01    3.9417708423E-01    4.0729703483E-01    4.2078770159E-01
    4.3465469477E-01    4.4890331053E-01    4.6353849018E-01    4.7856477685E-01
    4.9398626930E-01    5.0980657301E-01    5.2602874831E-01    5.4265525555E-01
    5.5968789723E-01    5.7712775709E-01    5.9497513602E-01    6.1322948497E-01
    6.3188933457E-01    6.5095222180E-01    6.7041461350E-01    6.9027182691E-01
    7.1051794738E-01    7.3114574317E-01    7.5214657782E-01    7.7351032000E-01
    7.9522525121E-01    8.1727797169E-01    8.3965330467E-01    8.6233419960E-01
    8.8530163454E-01    9.0853451848E-01    9.3200959393E-01    9.5570134053E-01
    9.7958188031E-01    1.0036208855E+00    1.0277854895E+00    1.0520402022E+00
    1.0763468306E+00    1.1006644049E+00    1.1249491137E+00    1.1491542458E+00
    1.1732301435E+00    1.1971241661E+00    1.2207806670E+00    1.2441409839E+00
    1.2671434457E+00    1.2897233956E+00    1.3118132336E+00    1.3333424790E+00
    1.3542378545E+00    1.3744233945E+00    1.3938205767E+00    1.4123484816E+00
    1.4299239780E+00    1.4464619379E+00    1.4618754807E+00    1.4760762477E+00
    1.4889747074E+00    1.5004804924E+00    1.5105027671E+00    1.5189506265E+00
    1.5257335252E+00    1.5307617354E+00    1.5339468334E+00    1.5352022112E+00
    1.5344436124E+00    1.5315896891E+00    1.5265625764E+00    1.5192884817E+00
    1.5096982849E+00    1.4977281446E+00    1.4833201066E+00    1.4664227103E+00
    1.4469915876E+00    1.4249900502E+00    1.4003896607E+00    1.3731707831E+00
    1.3433231098E+00    1.3108461602E+00    1.2757497507E+00    1.2380544319E+00
    1.1977918958E+00    1.1550053499E+00    1.1097498634E+00    1.0620926867E+00
    1.0121135491E+00    9.5990494075E-01    9.0557238506E-01    8.4923470928E-01
    7.9102432101E-01    7.3108749833E-01    6.6958470051E-01    6.0669090489E-01
    5.4259597270E-01    4.7750504349E-01    4.1163895302E-01    3.4523466358E-01
    2.7854568857E-01    2.1184248473E-01    1.4541277584E-01    7.9561760869E-02
    1.4612148499E-02   -4.9096052246E-02   -1.1120606669E-01   -1.7134530704E-01
   -2.2912684419E-01   -2.8415150697E-01   -3.3601071975E-01   -3.8429018747E-01
   -4.2857452926E-01   -4.6845294638E-01   -5.0352598686E-01   -5.3341343556E-01
   -5.5776331572E-01   -5.7626193372E-01   -5.8864483523E-01   -5.9470846724E-01
   -5.9432225985E-01   -5.8744075554E-01   -5.7411532706E-01   -5.5450494172E-01
   -5.2888535637E-01   -4.9765607074E-01   -4.6134433470E-01   -4.2060550555E-01
   -3.7621909354E-01   -3.2907992462E-01   -2.8018399432E-01   -2.3060853769E-01
   -1.8148213943E-01   -1.3394647395E-01   -8.9117270664E-02   -4.8042334675E-02
   -1.1657481592E-02    1.9257644775E-02    4.4121519822E-02    6.2587792338E-02
    7.4574597236E-02    8.0283247726E-02    8.0203595811E-02    7.5103750640E-02
    6.6002500242E-02    5.4123699390E-02    4.0833060881E-02    2.7561886193E-02
    1.5729113921E-02    6.5922633698E-03    1.1710199576E-03   -2.1542005378E-05
   -1.1107629052E-06    0.0000000000E+00    0.0000000000E+00    0.0000000000E+00
 0. 0. 0. 0.
 0. 0. 0. 0.
 0. 0. 0. 0.
 0. 0. 0. 0.
 0. 0. 0. 0.
 0. 0. 0. 0.
 0. 0. 0. 0.
 0. 0. 0. 0.
 0. 0. 0. 0.
 0. 0. 0. 0.
 0. 0. 0. 0.
 0. 0. 0. 0.
 0. 0. 0. 0.
 0. 0. 0. 0.
 0. 0. 0. 0.
 0. 0. 0. 0.
 0. 0. 0. 0.
 0. 0. 0. 0.
 0. 0. 0. 0.
 0. 0. 0. 0.
 0. 0. 0. 0.
 0. 0. 0. 0.
 0. 0. 0. 0.
 0. 0. 0. 0.
 0. 0. 0. 0.
 0. 0. 0. 0.
 0. 0. 0. 0.
 0. 0. 0. 0.
 0. 0. 0. 0.
 0. 0. 0. 0.
 0. 0. 0. 0.
 0. 0. 0. 0.
 0. 0. 0. 0.
 0. 0. 0. 0.
 0. 0. 0. 0.
 0. 0. 0. 0.
 0. 0. 0. 0.
 0. 0. 0. 0.
 0. 0. 0. 0.
 0. 0. 0. 0.
 0. 0.
   </PP_BETA.5>
   <PP_BETA.6
       type="real"
       size="1078"
       columns="4"
       index="6"
       angular_momentum="2"
       cutoff_radius_index=" 916"
       cutoff_radius="    2.0159757564E+00" >
    0.0000000000E+00   -5.4279720539E-14   -5.6353620323E-14   -5.8507242609E-14
   -6.0742831429E-14   -6.3063743108E-14   -6.5473549092E-14   -6.7975451642E-14
   -7.0573048837E-14   -7.3269762871E-14   -7.6069391653E-14   -7.8976045160E-14
   -8.1994045649E-14   -8.5127278427E-14   -8.8380062265E-14   -9.1757183306E-14
   -9.5263614018E-14   -9.8903554923E-14   -1.0268308838E-13   -1.0660693283E-13
   -1.1068054162E-13   -1.1490975616E-13   -1.1930060081E-13   -1.2385929537E-13
   -1.2859211307E-13   -1.3350605513E-13   -1.3860734100E-13   -1.4390434277E-13
   -1.4940291978E-13   -1.5511209408E-13   -1.6103898212E-13   -1.6719243700E-13
   -1.7358130087E-13   -1.8021422685E-13   -1.8710037916E-13   -1.9425021803E-13
   -2.0167285968E-13   -2.0937897780E-13   -2.1737968058E-13   -2.2568670963E-13
   -2.3431024960E-13   -2.4326385461E-13   -2.5255937966E-13   -2.6220997115E-13
   -2.7222967539E-13   -2.8263204983E-13   -2.9343202380E-13   -3.0464433288E-13
   -3.1628612341E-13   -3.2837191902E-13   -3.4091975207E-13   -3.5394665518E-13
   -3.6747163853E-13   -3.8151343014E-13   -3.9609192712E-13   -4.1122729333E-13
   -4.2694141357E-13   -4.4325553184E-13   -4.6019340596E-13   -4.7777830494E-13
   -4.9603502322E-13   -5.1498958479E-13   -5.3466845498E-13   -5.5509933621E-13
   -5.7631057944E-13   -5.9833246684E-13   -6.2119609752E-13   -6.4493255368E-13
   -6.6957743658E-13   -6.9516367116E-13   -7.2172754398E-13   -7.4930536822E-13
   -7.7793806935E-13   -8.0766522214E-13   -8.3852668453E-13   -8.7056931619E-13
   -9.0383494938E-13   -9.3837218630E-13   -9.7422918888E-13   -1.0114555160E-12
   -1.0501066942E-12   -1.0902328994E-12   -1.1318932405E-12   -1.1751449714E-12
   -1.2200496552E-12   -1.2666702778E-12   -1.3150711221E-12   -1.3653232756E-12
   -1.4174948218E-12   -1.4716600900E-12   -1.5278957250E-12   -1.5862796210E-12
   -1.6468951073E-12   -1.7098252472E-12   -1.7751612229E-12   -1.8429937508E-12
   -1.9134174360E-12   -1.9865331313E-12   -2.0624426745E-12   -2.1412536137E-12
   -2.2230747649E-12   -2.3080241733E-12   -2.3962171701E-12   -2.4877813895E-12
   -2.5828448298E-12   -2.6815396373E-12   -2.7840080661E-12   -2.8903890843E-12
   -3.0008378772E-12   -3.1155052618E-12   -3.2345550289E-12   -3.3581539862E-12
   -3.4864752038E-12   -3.6197014642E-12   -3.7580171015E-12   -3.9016186816E-12
   -4.0507070653E-12   -4.2054924327E-12   -4.3661917318E-12   -4.5330335185E-12
   -4.7062497089E-12   -4.8860846874E-12   -5.0727922307E-12   -5.2666331847E-12
   -5.4678823041E-12   -5.6768197059E-12   -5.8937427780E-12   -6.1189545821E-12
   -6.3527734180E-12   -6.5955233502E-12   -6.8475523683E-12   -7.1092127519E-12
   -7.3808685487E-12   -7.6629055470E-12   -7.9557203604E-12   -8.2597261504E-12
   -8.5753463511E-12   -8.9030276240E-12   -9.2432293555E-12   -9.5964311941E-12
   -9.9631302679E-12   -1.0343842199E-11   -1.0739099831E-11   -1.1149462766E-11
   -1.1575504704E-11   -1.2017831039E-11   -1.2477053656E-11   -1.2953827528E-11
   -1.3448820452E-11   -1.3962725706E-11   -1.4496269859E-11   -1.5050202018E-11
   -1.5625298388E-11   -1.6222372790E-11   -1.6842263034E-11   -1.7485836886E-11
   -1.8154006005E-11   -1.8847711012E-11   -1.9567918299E-11   -2.0315647588E-11
   -2.1091948904E-11   -2.1897913337E-11   -2.2734676339E-11   -2.3603414359E-11
   -2.4505347944E-11   -2.5441745204E-11   -2.6413927464E-11   -2.7423255395E-11
   -2.8471150415E-11   -2.9559091568E-11   -3.0688603948E-11   -3.1861278036E-11
   -3.3078758761E-11   -3.4342765593E-11   -3.5655070906E-11   -3.7017523095E-11
   -3.8432036062E-11   -3.9900599661E-11   -4.1425281056E-11   -4.3008225043E-11
   -4.4651656458E-11   -4.6357886271E-11   -4.8129311920E-11   -4.9968428465E-11
   -5.1877824985E-11   -5.3860177369E-11   -5.5918281968E-11   -5.8055032657E-11
   -6.0273432113E-11   -6.2576598994E-11   -6.4967776273E-11   -6.7450323141E-11
   -7.0027735879E-11   -7.2703637110E-11   -7.5481790990E-11   -7.8366096900E-11
   -8.1360622160E-11   -8.4469577515E-11   -8.7697326149E-11   -9.1048418307E-11
   -9.4527555987E-11   -9.8139648854E-11   -1.0188975849E-10   -1.0578316984E-10
   -1.0982535523E-10   -1.1402199989E-10   -1.1837901138E-10   -1.2290251098E-10
   -1.2759885989E-10   -1.3247467037E-10   -1.3753679462E-10   -1.4279234514E-10
   -1.4824872272E-10   -1.5391360627E-10   -1.5979495500E-10   -1.6590103699E-10
   -1.7224045245E-10   -1.7882210011E-10   -1.8565525321E-10   -1.9274951020E-10
   -2.0011485676E-10   -2.0776164418E-10   -2.1570063212E-10   -2.2394298270E-10
   -2.3250029540E-10   -2.4138459742E-10   -2.5060838315E-10   -2.6018463470E-10
   -2.7012680454E-10   -2.8044889787E-10   -2.9116540876E-10   -3.0229142071E-10
   -3.1384257817E-10   -3.2583513248E-10   -3.3828594150E-10   -3.5121253520E-10
   -3.6463306522E-10   -3.7856642546E-10   -3.9303220850E-10   -4.0805075403E-10
   -4.2364318811E-10   -4.3983144602E-10   -4.5663828140E-10   -4.7408734940E-10
   -4.9220317500E-10   -5.1101124507E-10   -5.3053801200E-10   -5.5081093495E-10
   -5.7185852029E-10   -5.9371037772E-10   -6.1639724968E-10   -6.3995102193E-10
   -6.6440483134E-10   -6.8979307370E-10   -7.1615145256E-10   -7.4351703396E-10
   -7.7192831241E-10   -8.0142523842E-10   -8.3204930646E-10   -8.6384358241E-10
   -8.9685277442E-10   -9.3112332739E-10   -9.6670341787E-10   -1.0036430969E-09
   -1.0419943019E-09   -1.0818110027E-09   -1.1231491787E-09   -1.1660669575E-09
   -1.2106247210E-09   -1.2568851232E-09   -1.3049132348E-09   -1.3547765904E-09
   -1.4065453294E-09   -1.4602922529E-09   -1.5160929628E-09   -1.5740259172E-09
   -1.6341726210E-09   -1.6966176416E-09   -1.7614488204E-09   -1.8287573221E-09
   -1.8986378183E-09   -1.9711885959E-09   -2.0465116814E-09   -2.1247130091E-09
   -2.2059025816E-09   -2.2901945587E-09   -2.3777075158E-09   -2.4685645080E-09
   -2.5628933545E-09   -2.6608266729E-09   -2.7625022382E-09   -2.8680630199E-09
   -2.9776574941E-09   -3.0914397985E-09   -3.2095699545E-09   -3.3322141191E-09
   -3.4595447534E-09   -3.5917409626E-09   -3.7289886498E-09   -3.8714808419E-09
   -4.0194179558E-09   -4.1730080578E-09   -4.3324671548E-09   -4.4980194949E-09
   -4.6698979600E-09   -4.8483442131E-09   -5.0336092736E-09   -5.2259537080E-09
   -5.4256480017E-09   -5.6329730388E-09   -5.8482203915E-09   -6.0716927716E-09
   -6.3037045007E-09   -6.5445818673E-09   -6.7946636682E-09   -7.0543015968E-09
   -7.3238608461E-09   -7.6037204650E-09   -7.8942741546E-09   -8.1959304794E-09
   -8.5091137172E-09   -8.8342643312E-09   -9.1718396202E-09   -9.5223143703E-09
   -9.8861815090E-09   -1.0263952746E-08   -1.0656159391E-08   -1.1063353102E-08
   -1.1486106511E-08   -1.1925014222E-08   -1.2380693510E-08   -1.2853785270E-08
   -1.3344954828E-08   -1.3854893033E-08   -1.4384317051E-08   -1.4933971466E-08
   -1.5504629339E-08   -1.6097093239E-08   -1.6712196445E-08   -1.7350804042E-08
   -1.8013814187E-08   -1.8702159358E-08   -1.9416807655E-08   -2.0158764201E-08
   -2.0929072493E-08   -2.1728815876E-08   -2.2559119179E-08   -2.3421150125E-08
   -2.4316121191E-08   -2.5245290953E-08   -2.6209966330E-08   -2.7211504030E-08
   -2.8251312632E-08   -2.9330854565E-08   -3.0451648170E-08   -3.1615269698E-08
   -3.2823355757E-08   -3.4077605407E-08   -3.5379782721E-08   -3.6731719047E-08
   -3.8135315833E-08   -3.9592547140E-08   -4.1105462469E-08   -4.2676189672E-08
   -4.4306937825E-08   -4.6000000472E-08   -4.7757758838E-08   -4.9582685068E-08
   -5.1477345809E-08   -5.3444405807E-08   -5.5486631590E-08   -5.7606895464E-08
   -5.9808179420E-08   -6.2093579379E-08   -6.4466309736E-08   -6.6929707546E-08
   -6.9487237386E-08   -7.2142496389E-08   -7.4899218961E-08   -7.7761282294E-08
   -8.0732711744E-08   -8.3817686417E-08   -8.7020545138E-08   -9.0345792701E-08
   -9.3798105820E-08   -9.7382339970E-08   -1.0110353625E-07   -1.0496692833E-07
   -1.0897794991E-07   -1.1314224223E-07   -1.1746566221E-07   -1.2195429066E-07
   -1.2661444054E-07   -1.3145266615E-07   -1.3647577227E-07   -1.4169082374E-07
   -1.4710515531E-07   -1.5272638198E-07   -1.5856240984E-07   -1.6462144710E-07
   -1.7091201556E-07   -1.7744296259E-07   -1.8422347401E-07   -1.9126308617E-07
   -1.9857170028E-07   -2.0615959552E-07   -2.1403744419E-07   -2.2221632633E-07
   -2.3070774525E-07   -2.3952364402E-07   -2.4867642204E-07   -2.5817895248E-07
   -2.6804460049E-07   -2.7828724208E-07   -2.8892128331E-07   -2.9996168086E-07
   -3.1142396295E-07   -3.2332425132E-07   -3.3567928349E-07   -3.4850643691E-07
   -3.6182375293E-07   -3.7564996230E-07   -3.9000451178E-07   -4.0490759119E-07
   -4.2038016152E-07   -4.3644398542E-07   -4.5312165675E-07   -4.7043663298E-07
   -4.8841326780E-07   -5.0707684592E-07   -5.2645361804E-07   -5.4657083801E-07
   -5.6745680136E-07   -5.8914088492E-07   -6.1165358806E-07   -6.3502657585E-07
   -6.5929272320E-07   -6.8448616157E-07   -7.1064232688E-07   -7.3779800899E-07
   -7.6599140387E-07   -7.9526216724E-07   -8.2565147018E-07   -8.5720205720E-07
   -8.8995830646E-07   -9.2396629202E-07   -9.5927384866E-07   -9.9593063939E-07
   -1.0339882252E-06   -1.0735001375E-06   -1.1145219534E-06   -1.1571113740E-06
   -1.2013283062E-06   -1.2472349455E-06   -1.2948958650E-06   -1.3443781051E-06
   -1.3957512690E-06   -1.4490876197E-06   -1.5044621817E-06   -1.5619528470E-06
   -1.6216404848E-06   -1.6836090547E-06   -1.7479457252E-06   -1.8147409961E-06
   -1.8840888267E-06   -1.9560867665E-06   -2.0308360940E-06   -2.1084419580E-06
   -2.1890135265E-06   -2.2726641398E-06   -2.3595114701E-06   -2.4496776870E-06
   -2.5432896296E-06   -2.6404789849E-06   -2.7413824733E-06   -2.8461420405E-06
   -2.9549050581E-06   -3.0678245301E-06   -3.1850593089E-06   -3.3067743185E-06
   -3.4331407868E-06   -3.5643364867E-06   -3.7005459857E-06   -3.8419609069E-06
   -3.9887801972E-06   -4.1412104084E-06   -4.2994659877E-06   -4.4637695797E-06
   -4.6343523388E-06   -4.8114542565E-06   -4.9953244974E-06   -5.1862217506E-06
   -5.3844145946E-06   -5.5901818741E-06   -5.8038130942E-06   -6.0256088257E-06
   -6.2558811308E-06   -6.4949540012E-06   -6.7431638135E-06   -7.0008598049E-06
   -7.2684045628E-06   -7.5461745370E-06   -7.8345605688E-06   -8.1339684420E-06
   -8.4448194538E-06   -8.7675510088E-06   -9.1026172345E-06   -9.4504896203E-06
   -9.8116576835E-06   -1.0186629657E-05   -1.0575933205E-05   -1.0980116169E-05
   -1.1399747335E-05   -1.1835417239E-05   -1.2287738997E-05   -1.2757349168E-05
   -1.3244908654E-05   -1.3751103627E-05   -1.4276646497E-05   -1.4822276920E-05
   -1.5388762833E-05   -1.5976901544E-05   -1.6587520849E-05   -1.7221480201E-05
   -1.7879671925E-05   -1.8563022470E-05   -1.9272493716E-05   -2.0009084334E-05
   -2.0773831190E-05   -2.1567810807E-05   -2.2392140884E-05   -2.3247981874E-05
   -2.4136538613E-05   -2.5059062027E-05   -2.6016850893E-05   -2.7011253668E-05
   -2.8043670397E-05   -2.9115554682E-05   -3.0228415734E-05   -3.1383820504E-05
   -3.2583395893E-05   -3.3828831045E-05   -3.5121879733E-05   -3.6464362834E-05
   -3.7858170896E-05   -3.9305266808E-05   -4.0807688573E-05   -4.2367552180E-05
   -4.3987054593E-05   -4.5668476856E-05   -4.7414187310E-05   -4.9226644936E-05
   -5.1108402834E-05   -5.3062111822E-05   -5.5090524185E-05   -5.7196497561E-05
   -5.9382998978E-05   -6.1653109048E-05   -6.4010026318E-05   -6.6457071791E-05
   -6.8997693623E-05   -7.1635471992E-05   -7.4374124164E-05   -7.7217509744E-05
   -8.0169636140E-05   -8.3234664225E-05   -8.6416914225E-05   -8.9720871830E-05
   -9.3151194540E-05   -9.6712718255E-05   -1.0041046412E-04   -1.0424964563E-04
   -1.0823567601E-04   -1.1237417588E-04   -1.1667098121E-04   -1.2113215160E-04
   -1.2576397884E-04   -1.3057299583E-04   -1.3556598585E-04   -1.4074999216E-04
   -1.4613232798E-04   -1.5172058687E-04   -1.5752265347E-04   -1.6354671471E-04
   -1.6980127141E-04   -1.7629515033E-04   -1.8303751670E-04   -1.9003788722E-04
   -1.9730614358E-04   -2.0485254647E-04   -2.1268775016E-04   -2.2082281762E-04
   -2.2926923624E-04   -2.3803893415E-04   -2.4714429715E-04   -2.5659818634E-04
   -2.6641395638E-04   -2.7660547448E-04   -2.8718714012E-04   -2.9817390554E-04
   -3.0958129699E-04   -3.2142543684E-04   -3.3372306650E-04   -3.4649157030E-04
   -3.5974900018E-04   -3.7351410142E-04   -3.8780633935E-04   -4.0264592709E-04
   -4.1805385431E-04   -4.3405191717E-04   -4.5066274941E-04   -4.6790985458E-04
   -4.8581763960E-04   -5.0441144952E-04   -5.2371760374E-04   -5.4376343353E-04
   -5.6457732103E-04   -5.8618873981E-04   -6.0862829688E-04   -6.3192777648E-04
   -6.5612018541E-04   -6.8123980022E-04   -7.0732221616E-04   -7.3440439806E-04
   -7.6252473316E-04   -7.9172308598E-04   -8.2204085528E-04   -8.5352103333E-04
   -8.8620826728E-04   -9.2014892311E-04   -9.5539115188E-04   -9.9198495863E-04
   -1.0299822739E-03   -1.0694370280E-03   -1.1104052282E-03   -1.1529450388E-03
   -1.1971168643E-03   -1.2429834361E-03   -1.2906099018E-03   -1.3400639186E-03
   -1.3914157500E-03   -1.4447383665E-03   -1.5001075495E-03   -1.5576020001E-03
   -1.6173034511E-03   -1.6792967842E-03   -1.7436701509E-03   -1.8105150986E-03
   -1.8799267012E-03   -1.9520036946E-03   -2.0268486175E-03   -2.1045679580E-03
   -2.1852723044E-03   -2.2690765036E-03   -2.3560998235E-03   -2.4464661234E-03
   -2.5403040290E-03   -2.6377471157E-03   -2.7389340974E-03   -2.8440090232E-03
   -2.9531214806E-03   -3.0664268074E-03   -3.1840863103E-03   -3.3062674924E-03
   -3.4331442883E-03   -3.5648973088E-03   -3.7017140933E-03   -3.8437893726E-03
   -3.9913253403E-03   -4.1445319343E-03   -4.3036271286E-03   -4.4688372349E-03
   -4.6403972157E-03   -4.8185510075E-03   -5.0035518560E-03   -5.1956626625E-03
   -5.3951563426E-03   -5.6023161969E-03   -5.8174362940E-03   -6.0408218672E-03
   -6.2727897233E-03   -6.5136686657E-03   -6.7637999305E-03   -7.0235376374E-03
   -7.2932492544E-03   -7.5733160766E-03   -7.8641337207E-03   -8.1661126337E-03
   -8.4796786167E-03   -8.8052733644E-03   -9.1433550196E-03   -9.4943987431E-03
   -9.8588972993E-03   -1.0237361657E-02   -1.0630321606E-02   -1.1038326387E-02
   -1.1461945341E-02   -1.1901768566E-02   -1.2358407599E-02   -1.2832496097E-02
   -1.3324690548E-02   -1.3835670979E-02   -1.4366141688E-02   -1.4916831979E-02
   -1.5488496911E-02   -1.6081918053E-02   -1.6697904247E-02   -1.7337292374E-02
   -1.8000948129E-02   -1.8689766791E-02   -1.9404673992E-02   -2.0146626489E-02
   -2.0916612918E-02   -2.1715654548E-02   -2.2544806015E-02   -2.3405156039E-02
   -2.4297828114E-02   -2.5223981182E-02   -2.6184810257E-02   -2.7181547021E-02
   -2.8215460371E-02   -2.9287856909E-02   -3.0400081371E-02   -3.1553516989E-02
   -3.2749585769E-02   -3.3989748674E-02   -3.5275505718E-02   -3.6608395928E-02
   -3.7989997194E-02   -3.9421925964E-02   -4.0905836788E-02   -4.2443421686E-02
   -4.4036409316E-02   -4.5686563943E-02   -4.7395684154E-02   -4.9165601334E-02
   -5.0998177850E-02   -5.2895304928E-02   -5.4858900198E-02   -5.6890904872E-02
   -5.8993280519E-02   -6.1168005416E-02   -6.3417070423E-02   -6.5742474361E-02
   -6.8146218827E-02   -7.0630302437E-02   -7.3196714414E-02   -7.5847427506E-02
   -7.8584390158E-02   -8.1409517898E-02   -8.4324683880E-02   -8.7331708519E-02
   -9.0432348165E-02   -9.3628282743E-02   -9.6921102306E-02   -1.0031229242E-01
   -1.0380321831E-01   -1.0739510771E-01   -1.1108903234E-01   -1.1488588792E-01
   -1.1878637262E-01   -1.2279096397E-01   -1.2689989403E-01   -1.3111312284E-01
   -1.3543031000E-01   -1.3985078434E-01   -1.4437351168E-01   -1.4899706044E-01
   -1.5371956524E-01   -1.5853868830E-01   -1.6345157863E-01   -1.6845482901E-01
   -1.7354443066E-01   -1.7871572568E-01   -1.8396335718E-01   -1.8928121716E-01
   -1.9466239218E-01   -2.0009910687E-01   -2.0558266538E-01   -2.1110339085E-01
   -2.1665056313E-01   -2.2221235482E-01   -2.2777576595E-01   -2.3332655749E-01
   -2.3884918408E-01   -2.4432672624E-01   -2.4974082255E-01   -2.5507160226E-01
   -2.6029761883E-01   -2.6539578503E-01   -2.7034131031E-01   -2.7510764105E-01
   -2.7966640472E-01   -2.8398735866E-01   -2.8803834460E-01   -2.9178524988E-01
   -2.9519197667E-01   -2.9822042032E-01   -3.0083045814E-01   -3.0297995020E-01
   -3.0462475343E-01   -3.0571875070E-01   -3.0621389651E-01   -3.0606028086E-01
   -3.0520621319E-01   -3.0359832799E-01   -3.0118171394E-01   -2.9790006823E-01
   -2.9369587790E-01   -2.8851062972E-01   -2.8228505023E-01   -2.7495937733E-01
   -2.6647366471E-01   -2.5676812006E-01   -2.4578347795E-01   -2.3346140778E-01
   -2.1974495683E-01   -2.0457902827E-01   -1.8791089319E-01   -1.6969073533E-01
   -1.4987222673E-01   -1.2841313153E-01   -1.0527593491E-01   -8.0428492979E-02
   -5.3844698885E-02   -2.5505159651E-02    4.6021228293E-03    3.6481073798E-02
    7.0126878754E-02    1.0552533655E-01    1.4265224202E-01    1.8147280845E-01
    2.2194114046E-01    2.6399976864E-01    3.0757925704E-01    3.5259789487E-01
    3.9896148339E-01    4.4656322826E-01    4.9528374696E-01    5.4499119923E-01
    5.9554154722E-01    6.4677894957E-01    6.9853629134E-01    7.5063584887E-01
    8.0289008502E-01    8.5510256692E-01    9.0706899412E-01    9.5857832116E-01
    1.0094139539E+00    1.0593549954E+00    1.1081775121E+00    1.1556557890E+00
    1.2015635383E+00    1.2456750249E+00    1.2877660707E+00    1.3276149023E+00
    1.3650028067E+00    1.3997145664E+00    1.4315386530E+00    1.4602671659E+00
    1.4856955186E+00    1.5076218880E+00    1.5258464620E+00    1.5401705419E+00
    1.5503955771E+00    1.5563222368E+00    1.5577496469E+00    1.5544749439E+00
    1.5462933223E+00    1.5329987686E+00    1.5143856865E+00    1.4902516265E+00
    1.4604013219E+00    1.4246522187E+00    1.3828416506E+00    1.3348357592E+00
    1.2805401934E+00    1.2199125261E+00    1.1529762257E+00    1.0798358871E+00
    1.0006932894E+00    9.1586369473E-01    8.2579164624E-01    7.3106537612E-01
    6.3242879753E-01    5.3078995107E-01    4.2722471371E-01    3.2297457451E-01
    2.1943735206E-01    1.1814988776E-01    2.0762003252E-02   -7.0999442933E-02
   -1.5538949710E-01   -2.3072078436E-01   -2.9543280853E-01   -3.4816451327E-01
   -3.8782957508E-01   -4.1369081237E-01   -4.2542938898E-01   -4.2320392541E-01
   -4.0769427876E-01   -3.8012469193E-01   -3.4226131863E-01   -2.9637986631E-01
   -2.4520030786E-01   -1.9178730607E-01   -1.3941716763E-01   -9.1419769042E-02
   -5.1016599626E-02   -2.1025611233E-02   -3.6913083248E-03    6.7445207640E-05
    3.4946477123E-06   -0.0000000000E+00   -0.0000000000E+00   -0.0000000000E+00
 0. 0. 0. 0.
 0. 0. 0. 0.
 0. 0. 0. 0.
 0. 0. 0. 0.
 0. 0. 0. 0.
 0. 0. 0. 0.
 0. 0. 0. 0.
 0. 0. 0. 0.
 0. 0. 0. 0.
 0. 0. 0. 0.
 0. 0. 0. 0.
 0. 0. 0. 0.
 0. 0. 0. 0.
 0. 0. 0. 0.
 0. 0. 0. 0.
 0. 0. 0. 0.
 0. 0. 0. 0.
 0. 0. 0. 0.
 0. 0. 0. 0.
 0. 0. 0. 0.
 0. 0. 0. 0.
 0. 0. 0. 0.
 0. 0. 0. 0.
 0. 0. 0. 0.
 0. 0. 0. 0.
 0. 0. 0. 0.
 0. 0. 0. 0.
 0. 0. 0. 0.
 0. 0. 0. 0.
 0. 0. 0. 0.
 0. 0. 0. 0.
 0. 0. 0. 0.
 0. 0. 0. 0.
 0. 0. 0. 0.
 0. 0. 0. 0.
 0. 0. 0. 0.
 0. 0. 0. 0.
 0. 0. 0. 0.
 0. 0. 0. 0.
 0. 0. 0. 0.
 0. 0.
   </PP_BETA.6>
   <PP_DIJ type="real"  size="  36" columns="4">
    7.4983436093E+00    0.0000000000E+00    0.0000000000E+00    0.0000000000E+00
    0.0000000000E+00    0.0000000000E+00    0.0000000000E+00   -8.8173429476E-01
    0.0000000000E+00    0.0000000000E+00    0.0000000000E+00    0.0000000000E+00
    0.0000000000E+00    0.0000000000E+00   -2.2490106215E+00    0.0000000000E+00
    0.0000000000E+00    0.0000000000E+00    0.0000000000E+00    0.0000000000E+00
    0.0000000000E+00   -4.3865980805E-01    0.0000000000E+00    0.0000000000E+00
    0.0000000000E+00    0.0000000000E+00    0.0000000000E+00    0.0000000000E+00
   -9.8728650076E+00    0.0000000000E+00    0.0000000000E+00    0.0000000000E+00
    0.0000000000E+00    0.0000000000E+00    0.0000000000E+00   -2.9648005211E+00
   </PP_DIJ>
 </PP_NONLOCAL>
 <PP_PSWFC>
   <PP_CHI.1
       type="real"
       size="1078"
       columns="4"
       index="1"
       occupation=" 2.000"
       pseudo_energy="   -0.5147452181E+01"
       label="3S"
       l="0" >
    0.0000000000E+00    3.9744647864E-05    4.0244573992E-05    4.0750788416E-05
    4.1263370234E-05    4.1782399538E-05    4.2307957427E-05    4.2840126020E-05
    4.3378988470E-05    4.3924628975E-05    4.4477132792E-05    4.5036586252E-05
    4.5603076771E-05    4.6176692863E-05    4.6757524157E-05    4.7345661410E-05
    4.7941196518E-05    4.8544222536E-05    4.9154833687E-05    4.9773125381E-05
    5.0399194228E-05    5.1033138051E-05    5.1675055905E-05    5.2325048092E-05
    5.2983216175E-05    5.3649662993E-05    5.4324492679E-05    5.5007810679E-05
    5.5699723760E-05    5.6400340037E-05    5.7109768982E-05    5.7828121444E-05
    5.8555509668E-05    5.9292047309E-05    6.0037849453E-05    6.0793032634E-05
    6.1557714849E-05    6.2332015583E-05    6.3116055821E-05    6.3909958071E-05
    6.4713846382E-05    6.5527846364E-05    6.6352085204E-05    6.7186691693E-05
    6.8031796239E-05    6.8887530892E-05    6.9754029361E-05    7.0631427040E-05
    7.1519861022E-05    7.2419470129E-05    7.3330394925E-05    7.4252777744E-05
    7.5186762711E-05    7.6132495763E-05    7.7090124672E-05    7.8059799069E-05
    7.9041670469E-05    8.0035892291E-05    8.1042619884E-05    8.2062010551E-05
    8.3094223575E-05    8.4139420239E-05    8.5197763859E-05    8.6269419804E-05
    8.7354555520E-05    8.8453340564E-05    8.9565946621E-05    9.0692547541E-05
    9.1833319355E-05    9.2988440312E-05    9.4158090902E-05    9.5342453886E-05
    9.6541714321E-05    9.7756059596E-05    9.8985679455E-05    1.0023076603E-04
    1.0149151386E-04    1.0276811995E-04    1.0406078376E-04    1.0536970729E-04
    1.0669509505E-04    1.0803715413E-04    1.0939609423E-04    1.1077212770E-04
    1.1216546954E-04    1.1357633747E-04    1.1500495192E-04    1.1645153614E-04
    1.1791631614E-04    1.1939952081E-04    1.2090138189E-04    1.2242213406E-04
    1.2396201494E-04    1.2552126514E-04    1.2710012829E-04    1.2869885109E-04
    1.3031768335E-04    1.3195687801E-04    1.3361669121E-04    1.3529738228E-04
    1.3699921385E-04    1.3872245182E-04    1.4046736545E-04    1.4223422740E-04
    1.4402331373E-04    1.4583490400E-04    1.4766928127E-04    1.4952673217E-04
    1.5140754692E-04    1.5331201941E-04    1.5524044721E-04    1.5719313165E-04
    1.5917037783E-04    1.6117249471E-04    1.6319979513E-04    1.6525259584E-04
    1.6733121760E-04    1.6943598521E-04    1.7156722753E-04    1.7372527758E-04
    1.7591047256E-04    1.7812315391E-04    1.8036366737E-04    1.8263236301E-04
    1.8492959533E-04    1.8725572328E-04    1.8961111031E-04    1.9199612447E-04
    1.9441113841E-04    1.9685652948E-04    1.9933267979E-04    2.0183997623E-04
    2.0437881058E-04    2.0694957954E-04    2.0955268479E-04    2.1218853307E-04
    2.1485753624E-04    2.1756011133E-04    2.2029668064E-04    2.2306767175E-04
    2.2587351764E-04    2.2871465672E-04    2.3159153293E-04    2.3450459579E-04
    2.3745430047E-04    2.4044110787E-04    2.4346548468E-04    2.4652790346E-04
    2.4962884273E-04    2.5276878701E-04    2.5594822693E-04    2.5916765928E-04
    2.6242758711E-04    2.6572851977E-04    2.6907097306E-04    2.7245546923E-04
    2.7588253713E-04    2.7935271223E-04    2.8286653675E-04    2.8642455975E-04
    2.9002733717E-04    2.9367543195E-04    2.9736941411E-04    3.0110986084E-04
    3.0489735660E-04    3.0873249319E-04    3.1261586986E-04    3.1654809340E-04
    3.2052977821E-04    3.2456154646E-04    3.2864402810E-04    3.3277786104E-04
    3.3696369119E-04    3.4120217261E-04    3.4549396756E-04    3.4983974663E-04
    3.5424018888E-04    3.5869598188E-04    3.6320782185E-04    3.6777641378E-04
    3.7240247152E-04    3.7708671790E-04    3.8182988484E-04    3.8663271348E-04
    3.9149595426E-04    3.9642036708E-04    4.0140672138E-04    4.0645579630E-04
    4.1156838075E-04    4.1674527360E-04    4.2198728374E-04    4.2729523025E-04
    4.3266994251E-04    4.3811226032E-04    4.4362303405E-04    4.4920312478E-04
    4.5485340441E-04    4.6057475580E-04    4.6636807293E-04    4.7223426101E-04
    4.7817423666E-04    4.8418892799E-04    4.9027927482E-04    4.9644622878E-04
    5.0269075346E-04    5.0901382459E-04    5.1541643016E-04    5.2189957058E-04
    5.2846425887E-04    5.3511152076E-04    5.4184239491E-04    5.4865793302E-04
    5.5555920005E-04    5.6254727432E-04    5.6962324773E-04    5.7678822593E-04
    5.8404332844E-04    5.9138968891E-04    5.9882845520E-04    6.0636078965E-04
    6.1398786919E-04    6.2171088557E-04    6.2953104552E-04    6.3744957097E-04
    6.4546769920E-04    6.5358668305E-04    6.6180779113E-04    6.7013230801E-04
    6.7856153441E-04    6.8709678741E-04    6.9573940066E-04    7.0449072459E-04
    7.1335212660E-04    7.2232499132E-04    7.3141072077E-04    7.4061073460E-04
    7.4992647034E-04    7.5935938360E-04    7.6891094828E-04    7.7858265683E-04
    7.8837602048E-04    7.9829256946E-04    8.0833385324E-04    8.1850144080E-04
    8.2879692085E-04    8.3922190206E-04    8.4977801338E-04    8.6046690419E-04
    8.7129024468E-04    8.8224972600E-04    8.9334706059E-04    9.0458398244E-04
    9.1596224733E-04    9.2748363314E-04    9.3914994011E-04    9.5096299112E-04
    9.6292463198E-04    9.7503673172E-04    9.8730118287E-04    9.9971990179E-04
    1.0122948289E-03    1.0250279291E-03    1.0379211919E-03    1.0509766320E-03
    1.0641962892E-03    1.0775822292E-03    1.0911365436E-03    1.1048613501E-03
    1.1187587934E-03    1.1328310450E-03    1.1470803037E-03    1.1615087958E-03
    1.1761187761E-03    1.1909125271E-03    1.2058923606E-03    1.2210606171E-03
    1.2364196667E-03    1.2519719092E-03    1.2677197748E-03    1.2836657241E-03
    1.2998122487E-03    1.3161618714E-03    1.3327171470E-03    1.3494806621E-03
    1.3664550363E-03    1.3836429216E-03    1.4010470039E-03    1.4186700024E-03
    1.4365146708E-03    1.4545837974E-03    1.4728802054E-03    1.4914067539E-03
    1.5101663374E-03    1.5291618873E-03    1.5483963717E-03    1.5678727959E-03
    1.5875942033E-03    1.6075636752E-03    1.6277843319E-03    1.6482593330E-03
    1.6689918777E-03    1.6899852056E-03    1.7112425967E-03    1.7327673727E-03
    1.7545628968E-03    1.7766325747E-03    1.7989798546E-03    1.8216082285E-03
    1.8445212320E-03    1.8677224453E-03    1.8912154937E-03    1.9150040479E-03
    1.9390918250E-03    1.9634825887E-03    1.9881801502E-03    2.0131883683E-03
    2.0385111507E-03    2.0641524542E-03    2.0901162852E-03    2.1164067005E-03
    2.1430278081E-03    2.1699837676E-03    2.1972787909E-03    2.2249171428E-03
    2.2529031419E-03    2.2812411611E-03    2.3099356281E-03    2.3389910265E-03
    2.3684118963E-03    2.3982028344E-03    2.4283684958E-03    2.4589135939E-03
    2.4898429014E-03    2.5211612510E-03    2.5528735361E-03    2.5849847120E-03
    2.6174997960E-03    2.6504238686E-03    2.6837620742E-03    2.7175196220E-03
    2.7517017866E-03    2.7863139089E-03    2.8213613971E-03    2.8568497275E-03
    2.8927844451E-03    2.9291711647E-03    2.9660155718E-03    3.0033234233E-03
    3.0411005486E-03    3.0793528504E-03    3.1180863056E-03    3.1573069663E-03
    3.1970209608E-03    3.2372344944E-03    3.2779538505E-03    3.3191853915E-03
    3.3609355597E-03    3.4032108788E-03    3.4460179541E-03    3.4893634743E-03
    3.5332542122E-03    3.5776970256E-03    3.6226988587E-03    3.6682667431E-03
    3.7144077988E-03    3.7611292351E-03    3.8084383524E-03    3.8563425427E-03
    3.9048492910E-03    3.9539661764E-03    4.0037008734E-03    4.0540611530E-03
    4.1050548839E-03    4.1566900340E-03    4.2089746711E-03    4.2619169646E-03
    4.3155251867E-03    4.3698077137E-03    4.4247730271E-03    4.4804297152E-03
    4.5367864742E-03    4.5938521098E-03    4.6516355384E-03    4.7101457885E-03
    4.7693920024E-03    4.8293834370E-03    4.8901294660E-03    4.9516395807E-03
    5.0139233920E-03    5.0769906316E-03    5.1408511535E-03    5.2055149359E-03
    5.2709920822E-03    5.3372928231E-03    5.4044275179E-03    5.4724066561E-03
    5.5412408594E-03    5.6109408827E-03    5.6815176165E-03    5.7529820881E-03
    5.8253454636E-03    5.8986190495E-03    5.9728142945E-03    6.0479427913E-03
    6.1240162784E-03    6.2010466419E-03    6.2790459174E-03    6.3580262920E-03
    6.4380001060E-03    6.5189798547E-03    6.6009781910E-03    6.6840079265E-03
    6.7680820342E-03    6.8532136501E-03    6.9394160756E-03    7.0267027792E-03
    7.1150873989E-03    7.2045837441E-03    7.2952057981E-03    7.3869677199E-03
    7.4798838466E-03    7.5739686956E-03    7.6692369669E-03    7.7657035454E-03
    7.8633835032E-03    7.9622921019E-03    8.0624447951E-03    8.1638572307E-03
    8.2665452534E-03    8.3705249072E-03    8.4758124378E-03    8.5824242954E-03
    8.6903771368E-03    8.7996878285E-03    8.9103734491E-03    9.0224512917E-03
    9.1359388673E-03    9.2508539068E-03    9.3672143643E-03    9.4850384193E-03
    9.6043444805E-03    9.7251511876E-03    9.8474774150E-03    9.9713422742E-03
    1.0096765117E-02    1.0223765540E-02    1.0352363383E-02    1.0482578738E-02
    1.0614431950E-02    1.0747943617E-02    1.0883134599E-02    1.1020026017E-02
    1.1158639257E-02    1.1298995975E-02    1.1441118098E-02    1.1585027831E-02
    1.1730747656E-02    1.1878300339E-02    1.2027708931E-02    1.2178996774E-02
    1.2332187503E-02    1.2487305051E-02    1.2644373650E-02    1.2803417839E-02
    1.2964462464E-02    1.3127532683E-02    1.3292653972E-02    1.3459852126E-02
    1.3629153265E-02    1.3800583838E-02    1.3974170624E-02    1.4149940741E-02
    1.4327921647E-02    1.4508141147E-02    1.4690627392E-02    1.4875408889E-02
    1.5062514505E-02    1.5251973467E-02    1.5443815371E-02    1.5638070184E-02
    1.5834768251E-02    1.6033940298E-02    1.6235617437E-02    1.6439831170E-02
    1.6646613397E-02    1.6855996419E-02    1.7068012940E-02    1.7282696079E-02
    1.7500079369E-02    1.7720196764E-02    1.7943082646E-02    1.8168771829E-02
    1.8397299565E-02    1.8628701547E-02    1.8863013919E-02    1.9100273277E-02
    1.9340516679E-02    1.9583781648E-02    1.9830106177E-02    2.0079528739E-02
    2.0332088288E-02    2.0587824269E-02    2.0846776622E-02    2.1108985790E-02
    2.1374492723E-02    2.1643338884E-02    2.1915566260E-02    2.2191217364E-02
    2.2470335243E-02    2.2752963485E-02    2.3039146225E-02    2.3328928154E-02
    2.3622354522E-02    2.3919471149E-02    2.4220324431E-02    2.4524961345E-02
    2.4833429459E-02    2.5145776938E-02    2.5462052553E-02    2.5782305686E-02
    2.6106586340E-02    2.6434945145E-02    2.6767433367E-02    2.7104102917E-02
    2.7445006357E-02    2.7790196907E-02    2.8139728458E-02    2.8493655575E-02
    2.8852033510E-02    2.9214918208E-02    2.9582366315E-02    2.9954435189E-02
    3.0331182908E-02    3.0712668278E-02    3.1098950843E-02    3.1490090895E-02
    3.1886149482E-02    3.2287188417E-02    3.2693270289E-02    3.3104458474E-02
    3.3520817140E-02    3.3942411262E-02    3.4369306627E-02    3.4801569852E-02
    3.5239268384E-02    3.5682470519E-02    3.6131245408E-02    3.6585663069E-02
    3.7045794399E-02    3.7511711181E-02    3.7983486100E-02    3.8461192751E-02
    3.8944905651E-02    3.9434700251E-02    3.9930652948E-02    4.0432841093E-02
    4.0941343010E-02    4.1456238002E-02    4.1977606364E-02    4.2505529397E-02
    4.3040089422E-02    4.3581369788E-02    4.4129454888E-02    4.4684430171E-02
    4.5246382156E-02    4.5815398444E-02    4.6391567731E-02    4.6974979825E-02
    4.7565725654E-02    4.8163897285E-02    4.8769587935E-02    4.9382891988E-02
    5.0003905006E-02    5.0632723745E-02    5.1269446170E-02    5.1914171472E-02
    5.2567000078E-02    5.3228033671E-02    5.3897375202E-02    5.4575128907E-02
    5.5261400325E-02    5.5956296309E-02    5.6659925048E-02    5.7372396078E-02
    5.8093820301E-02    5.8824310002E-02    5.9563978866E-02    6.0312941994E-02
    6.1071315919E-02    6.1839218629E-02    6.2616769578E-02    6.3404089707E-02
    6.4201301463E-02    6.5008528817E-02    6.5825897278E-02    6.6653533920E-02
    6.7491567392E-02    6.8340127944E-02    6.9199347444E-02    7.0069359395E-02
    7.0950298957E-02    7.1842302970E-02    7.2745509967E-02    7.3660060202E-02
    7.4586095663E-02    7.5523760101E-02    7.6473199043E-02    7.7434559819E-02
    7.8407991583E-02    7.9393645329E-02    8.0391673922E-02    8.1402232111E-02
    8.2425476558E-02    8.3461565858E-02    8.4510660561E-02    8.5572923196E-02
    8.6648518295E-02    8.7737612415E-02    8.8840374164E-02    8.9956974220E-02
    9.1087585362E-02    9.2232382488E-02    9.3391542643E-02    9.4565245045E-02
    9.5753671104E-02    9.6957004456E-02    9.8175430981E-02    9.9409138832E-02
    1.0065831846E-01    1.0192316264E-01    1.0320386650E-01    1.0450062754E-01
    1.0581364567E-01    1.0714312322E-01    1.0848926500E-01    1.0985227827E-01
    1.1123237284E-01    1.1262976104E-01    1.1404465775E-01    1.1547728049E-01
    1.1692784937E-01    1.1839658715E-01    1.1988371929E-01    1.2138947395E-01
    1.2291408203E-01    1.2445777718E-01    1.2602079587E-01    1.2760337738E-01
    1.2920576384E-01    1.3082820026E-01    1.3247093459E-01    1.3413421767E-01
    1.3581830336E-01    1.3752344849E-01    1.3924991292E-01    1.4099795957E-01
    1.4276785446E-01    1.4455986670E-01    1.4637426856E-01    1.4821133549E-01
    1.5007134612E-01    1.5195458233E-01    1.5386132926E-01    1.5579187532E-01
    1.5774651224E-01    1.5972553512E-01    1.6172924238E-01    1.6375793589E-01
    1.6581192090E-01    1.6789150614E-01    1.6999700380E-01    1.7212872957E-01
    1.7428700268E-01    1.7647214588E-01    1.7868448552E-01    1.8092435154E-01
    1.8319207747E-01    1.8548800052E-01    1.8781246151E-01    1.9016580498E-01
    1.9254837912E-01    1.9496053586E-01    1.9740263083E-01    1.9987502343E-01
    2.0237807679E-01    2.0491215778E-01    2.0747763709E-01    2.1007488914E-01
    2.1270429216E-01    2.1536622815E-01    2.1806108290E-01    2.2078924600E-01
    2.2355111080E-01    2.2634707443E-01    2.2917753780E-01    2.3204290555E-01
    2.3494358607E-01    2.3787999147E-01    2.4085253755E-01    2.4386164378E-01
    2.4690773326E-01    2.4999123272E-01    2.5311257242E-01    2.5627218617E-01
    2.5947051121E-01    2.6270798825E-01    2.6598506129E-01    2.6930217768E-01
    2.7265978793E-01    2.7605834572E-01    2.7949830775E-01    2.8298013369E-01
    2.8650428603E-01    2.9007123001E-01    2.9368143348E-01    2.9733536677E-01
    3.0103350255E-01    3.0477631566E-01    3.0856428299E-01    3.1239788325E-01
    3.1627759682E-01    3.2020390554E-01    3.2417729248E-01    3.2819824173E-01
    3.3226723813E-01    3.3638476701E-01    3.4055131395E-01    3.4476736441E-01
    3.4903340346E-01    3.5334991543E-01    3.5771738353E-01    3.6213628951E-01
    3.6660711319E-01    3.7113033206E-01    3.7570642084E-01    3.8033585093E-01
    3.8501908995E-01    3.8975660117E-01    3.9454884291E-01    3.9939626795E-01
    4.0429932285E-01    4.0925844728E-01    4.1427407329E-01    4.1934662452E-01
    4.2447651538E-01    4.2966415022E-01    4.3490992239E-01    4.4021421326E-01
    4.4557739127E-01    4.5099981079E-01    4.5648181101E-01    4.6202371479E-01
    4.6762582734E-01    4.7328843495E-01    4.7901180358E-01    4.8479617738E-01
    4.9064177719E-01    4.9654879888E-01    5.0251741167E-01    5.0854775635E-01
    5.1463994337E-01    5.2079405089E-01    5.2701012271E-01    5.3328816611E-01
    5.3962814955E-01    5.4603000029E-01    5.5249360192E-01    5.5901879171E-01
    5.6560535791E-01    5.7225303686E-01    5.7896151001E-01    5.8573040082E-01
    5.9255927146E-01    5.9944761944E-01    6.0639487405E-01    6.1340039269E-01
    6.2046345697E-01    6.2758326878E-01    6.3475894607E-01    6.4198951854E-01
    6.4927392318E-01    6.5661099959E-01    6.6399948514E-01    6.7143801004E-01
    6.7892509210E-01    6.8645913145E-01    6.9403840500E-01    7.0166106079E-01
    7.0932511213E-01    7.1702843157E-01    7.2476874478E-01    7.3254362416E-01
    7.4035048243E-01    7.4818656592E-01    7.5604894789E-01    7.6393452160E-01
    7.7183999335E-01    7.7976187533E-01    7.8769647850E-01    7.9563990530E-01
    8.0358804241E-01    8.1153655337E-01    8.1948087133E-01    8.2741619171E-01
    8.3533746504E-01    8.4323938975E-01    8.5111640525E-01    8.5896268501E-01
    8.6677213003E-01    8.7453836239E-01    8.8225471927E-01    8.8991424722E-01
    8.9750969691E-01    9.0503351837E-01    9.1247785674E-01    9.1983454870E-01
    9.2709511958E-01    9.3425078122E-01    9.4129243075E-01    9.4821065026E-01
    9.5499570761E-01    9.6163755828E-01    9.6812584854E-01    9.7444991991E-01
    9.8059881511E-01    9.8656128558E-01    9.9232580063E-01    9.9788055842E-01
    1.0032134988E+00    1.0083123182E+00    1.0131644865E+00    1.0177572666E+00
    1.0220777356E+00    1.0261128088E+00    1.0298492666E+00    1.0332737833E+00
    1.0363729592E+00    1.0391333549E+00    1.0415415291E+00    1.0435840787E+00
    1.0452476818E+00    1.0465191444E+00    1.0473854483E+00    1.0478338037E+00
    1.0478517032E+00    1.0474269791E+00    1.0465478627E+00    1.0452030464E+00
    1.0433817478E+00    1.0410737754E+00    1.0382695962E+00    1.0349604043E+00
    1.0311381908E+00    1.0267958137E+00    1.0219270678E+00    1.0165267549E+00
    1.0105907518E+00    1.0041160771E+00    9.9710095647E-01    9.8954488380E-01
    9.8144867937E-01    9.7281454361E-01    9.6364610559E-01    9.5394846583E-01
    9.4372823233E-01    9.3299354942E-01    9.2175411843E-01    9.1002120960E-01
    8.9780766468E-01    8.8512788942E-01    8.7199783564E-01    8.5843497241E-01
    8.4445824595E-01    8.3008802815E-01    8.1534605362E-01    8.0025534534E-01
    7.8484012916E-01    7.6912573753E-01    7.5313850301E-01    7.3690564225E-01
    7.2045513137E-01    7.0381557366E-01    6.8701606066E-01    6.7008602799E-01
    6.5305510695E-01    6.3595297332E-01    6.1880919444E-01    6.0165307578E-01
    5.8451350783E-01    5.6741881404E-01    5.5039660019E-01    5.3347360519E-01
    5.1667555273E-01    5.0002700281E-01    4.8355120139E-01    4.6726992579E-01
    4.5120332292E-01    4.3536973582E-01    4.1978551656E-01    4.0446482109E-01
    3.8941941184E-01    3.7465907557E-01    3.6019261286E-01    3.4602801100E-01
    3.3217244995E-01    3.1863230948E-01    3.0541317846E-01    2.9251986586E-01
    2.7995641344E-01    2.6772611005E-01    2.5583150756E-01    2.4427443822E-01
    2.3305603354E-01    2.2217674469E-01    2.1163636429E-01    2.0143404963E-01
    1.9156834744E-01    1.8203721991E-01    1.7283807211E-01    1.6396778063E-01
    1.5542272332E-01    1.4719880986E-01    1.3929151315E-01    1.3169590093E-01
    1.2440666778E-01    1.1741816680E-01    1.1072444107E-01    1.0431925447E-01
    9.8196121665E-02    9.2348337268E-02    8.6769003871E-02    8.1451059039E-02
    7.6387301179E-02    7.1570414288E-02    6.6992991620E-02    6.2647558279E-02
    5.8526592795E-02    5.4622547696E-02    5.0927869123E-02    4.7435015498E-02
    4.4136475262E-02    4.1024783700E-02    3.8092538840E-02    3.5332416448E-02
    3.2737184096E-02    3.0299714307E-02    2.8012996776E-02    2.5870149660E-02
    2.3864429931E-02    2.1989242812E-02    2.0238150270E-02    1.8604878615E-02
    1.7083325170E-02    1.5667564067E-02    1.4351851163E-02    1.3130628107E-02
    1.1998525576E-02    1.0950365712E-02    9.9811637928E-03    9.0861291559E-03
    8.2606654222E-03    7.5003700483E-03    6.8010332474E-03    6.1586363162E-03
    5.5693494067E-03    5.0295287858E-03    4.5357136208E-03    4.0846223334E-03
    3.6731485640E-03    3.2983567859E-03    2.9574776120E-03    2.6479028320E-03
    2.3671802228E-03    2.1130081665E-03    1.8832301169E-03    1.6758289479E-03
    1.4889212194E-03    1.3207513929E-03    1.1696860265E-03    1.0342079801E-03
    9.1291065439E-04    8.0449229032E-04    7.0775034973E-04    6.2157599713E-04
    5.4494870023E-04    4.7693096466E-04    4.1666321611E-04    3.6335884129E-04
    3.1629939738E-04    2.7482999774E-04    2.3835488026E-04    2.0633316325E-04
    1.7827479218E-04    1.5373667975E-04    1.3231904021E-04    1.1366191786E-04
    9.7441908817E-05    8.3369073857E-05    7.1184039585E-05    6.0655284057E-05
    5.1576602478E-05    4.3764747788E-05    3.7057240389E-05    3.1310340783E-05
    2.6397178401E-05    2.2206029619E-05    1.8638737638E-05    1.5609266748E-05
    1.3042383388E-05    1.0872456341E-05    9.0423684851E-06    7.5025325624E-06
    6.2100036019E-06    5.1276808109E-06    4.2235919876E-06    3.4702537723E-06
    2.8441013483E-06    2.3249815221E-06    1.8957034402E-06    1.5416415430E-06
    1.2503856995E-06    1.0114338153E-06    8.1592254573E-07    6.5639208396E-07
    5.2658131859E-07    4.2124996947E-07    3.3602461053E-07    2.6726577343E-07
    2.1195359442E-07    1.6758971876E-07    1.3211341174E-07    1.0383004322E-07
    8.1350313062E-08    6.3538769256E-08    4.9470338517E-08    3.8393742180E-08
    2.9700808402E-08    2.2900816314E-08    1.7599119479E-08    1.3479395726E-08
    1.0288959124E-08    7.8266483267E-09    5.9328747047E-09    4.4814743712E-09
    3.3730612697E-09    2.5296246285E-09    1.8901540786E-09    1.4071102132E-09
    1.0435879847E-09    7.7104565860E-10    5.6749360080E-10    4.1605544514E-10
    3.0382960264E-10    2.2099202278E-10    1.6009194445E-10    1.1550138606E-10
    8.2986592588E-11    5.9375816643E-11    4.2302867285E-11    3.0009992699E-11
    2.1197023747E-11    1.4906426099E-11    1.0436100639E-11    7.2735293268E-12
    5.0462661595E-12    3.4848864655E-12    2.3953876943E-12    1.6387267681E-12
    1.1157203625E-12    7.5595586266E-13    5.0968709982E-13    3.4194044838E-13
    2.2824964349E-13    1.5158469152E-13    1.0015177123E-13    6.5825179325E-14
    4.3035540241E-14    2.7985666462E-14
   </PP_CHI.1>
   <PP_CHI.2
       type="real"
       size="1078"
       columns="4"
       index="2"
       occupation=" 6.000"
       pseudo_energy="   -0.3230039038E+01"
       label="3P"
       l="1" >
    0.0000000000E+00    1.8256246811E-09    1.8718405900E-09    1.9192264601E-09
    1.9678119093E-09    2.0176273050E-09    2.0687037834E-09    2.1210732690E-09
    2.1747684944E-09    2.2298230210E-09    2.2862712595E-09    2.3441484920E-09
    2.4034908936E-09    2.4643355553E-09    2.5267205069E-09    2.5906847411E-09
    2.6562682375E-09    2.7235119881E-09    2.7924580223E-09    2.8631494337E-09
    2.9356304067E-09    3.0099462442E-09    3.0861433961E-09    3.1642694881E-09
    3.2443733516E-09    3.3265050540E-09    3.4107159303E-09    3.4970586151E-09
    3.5855870754E-09    3.6763566443E-09    3.7694240558E-09    3.8648474800E-09
    3.9626865597E-09    4.0630024475E-09    4.1658578440E-09    4.2713170374E-09
    4.3794459429E-09    4.4903121446E-09    4.6039849377E-09    4.7205353712E-09
    4.8400362929E-09    4.9625623949E-09    5.0881902598E-09    5.2169984094E-09
    5.3490673527E-09    5.4844796373E-09    5.6233199001E-09    5.7656749209E-09
    5.9116336762E-09    6.0612873950E-09    6.2147296157E-09    6.3720562447E-09
    6.5333656163E-09    6.6987585540E-09    6.8683384338E-09    7.0422112488E-09
    7.2204856749E-09    7.4032731397E-09    7.5906878911E-09    7.7828470695E-09
    7.9798707807E-09    8.1818821708E-09    8.3890075036E-09    8.6013762391E-09
    8.8191211147E-09    9.0423782280E-09    9.2712871221E-09    9.5059908723E-09
    9.7466361763E-09    9.9933734451E-09    1.0246356898E-08    1.0505744656E-08
    1.0771698848E-08    1.1044385701E-08    1.1323975656E-08    1.1610643463E-08
    1.1904568301E-08    1.2205933881E-08    1.2514928567E-08    1.2831745491E-08
    1.3156582673E-08    1.3489643148E-08    1.3831135088E-08    1.4181271939E-08
    1.4540272545E-08    1.4908361295E-08    1.5285768257E-08    1.5672729320E-08
    1.6069486350E-08    1.6476287332E-08    1.6893386529E-08    1.7321044643E-08
    1.7759528973E-08    1.8209113587E-08    1.8670079489E-08    1.9142714798E-08
    1.9627314928E-08    2.0124182767E-08    2.0633628876E-08    2.1155971674E-08
    2.1691537643E-08    2.2240661529E-08    2.2803686552E-08    2.3380964621E-08
    2.3972856554E-08    2.4579732302E-08    2.5201971182E-08    2.5839962114E-08
    2.6494103864E-08    2.7164805290E-08    2.7852485604E-08    2.8557574627E-08
    2.9280513063E-08    3.0021752773E-08    3.0781757055E-08    3.1561000937E-08
    3.2359971470E-08    3.3179168039E-08    3.4019102667E-08    3.4880300341E-08
    3.5763299338E-08    3.6668651559E-08    3.7596922881E-08    3.8548693503E-08
    3.9524558312E-08    4.0525127255E-08    4.1551025721E-08    4.2602894930E-08
    4.3681392334E-08    4.4787192028E-08    4.5920985175E-08    4.7083480430E-08
    4.8275404392E-08    4.9497502052E-08    5.0750537260E-08    5.2035293205E-08
    5.3352572899E-08    5.4703199687E-08    5.6088017753E-08    5.7507892654E-08
    5.8963711858E-08    6.0456385299E-08    6.1986845947E-08    6.3556050388E-08
    6.5164979428E-08    6.6814638698E-08    6.8506059289E-08    7.0240298394E-08
    7.2018439969E-08    7.3841595410E-08    7.5710904248E-08    7.7627534863E-08
    7.9592685209E-08    8.1607583571E-08    8.3673489324E-08    8.5791693728E-08
    8.7963520728E-08    9.0190327787E-08    9.2473506731E-08    9.4814484622E-08
    9.7214724646E-08    9.9675727031E-08    1.0219902998E-07    1.0478621065E-07
    1.0743888610E-07    1.1015871435E-07    1.1294739537E-07    1.1580667218E-07
    1.1873833192E-07    1.2174420698E-07    1.2482617611E-07    1.2798616567E-07
    1.3122615073E-07    1.3454815639E-07    1.3795425902E-07    1.4144658754E-07
    1.4502732477E-07    1.4869870878E-07    1.5246303432E-07    1.5632265419E-07
    1.6027998080E-07    1.6433748760E-07    1.6849771066E-07    1.7276325025E-07
    1.7713677248E-07    1.8162101094E-07    1.8621876842E-07    1.9093291867E-07
    1.9576640818E-07    2.0072225805E-07    2.0580356584E-07    2.1101350752E-07
    2.1635533949E-07    2.2183240056E-07    2.2744811406E-07    2.3320599001E-07
    2.3910962726E-07    2.4516271576E-07    2.5136903891E-07    2.5773247585E-07
    2.6425700393E-07    2.7094670119E-07    2.7780574892E-07    2.8483843422E-07
    2.9204915277E-07    2.9944241149E-07    3.0702283141E-07    3.1479515052E-07
    3.2276422679E-07    3.3093504114E-07    3.3931270058E-07    3.4790244144E-07
    3.5670963256E-07    3.6573977873E-07    3.7499852409E-07    3.8449165563E-07
    3.9422510687E-07    4.0420496154E-07    4.1443745736E-07    4.2492898996E-07
    4.3568611690E-07    4.4671556172E-07    4.5802421817E-07    4.6961915453E-07
    4.8150761800E-07    4.9369703925E-07    5.0619503706E-07    5.1900942308E-07
    5.3214820670E-07    5.4561960009E-07    5.5943202329E-07    5.7359410950E-07
    5.8811471049E-07    6.0300290209E-07    6.1826798989E-07    6.3391951506E-07
    6.4996726029E-07    6.6642125593E-07    6.8329178626E-07    7.0058939589E-07
    7.1832489637E-07    7.3650937295E-07    7.5515419150E-07    7.7427100563E-07
    7.9387176394E-07    8.1396871753E-07    8.3457442762E-07    8.5570177343E-07
    8.7736396022E-07    8.9957452753E-07    9.2234735767E-07    9.4569668436E-07
    9.6963710168E-07    9.9418357312E-07    1.0193514410E-06    1.0451564360E-06
    1.0716146871E-06    1.0987427315E-06    1.1265575251E-06    1.1550764529E-06
    1.1843173402E-06    1.2142984635E-06    1.2450385619E-06    1.2765568489E-06
    1.3088730244E-06    1.3420072870E-06    1.3759803466E-06    1.4108134375E-06
    1.4465283313E-06    1.4831473511E-06    1.5206933848E-06    1.5591898998E-06
    1.5986609577E-06    1.6391312290E-06    1.6806260088E-06    1.7231712328E-06
    1.7667934929E-06    1.8115200544E-06    1.8573788726E-06    1.9043986109E-06
    1.9526086578E-06    2.0020391462E-06    2.0527209716E-06    2.1046858116E-06
    2.1579661458E-06    2.2125952759E-06    2.2686073469E-06    2.3260373679E-06
    2.3849212344E-06    2.4452957505E-06    2.5071986520E-06    2.5706686302E-06
    2.6357453555E-06    2.7024695028E-06    2.7708827767E-06    2.8410279374E-06
    2.9129488277E-06    2.9866904002E-06    3.0622987454E-06    3.1398211209E-06
    3.2193059801E-06    3.3008030035E-06    3.3843631290E-06    3.4700385840E-06
    3.5578829180E-06    3.6479510362E-06    3.7402992338E-06    3.8349852307E-06
    3.9320682085E-06    4.0316088467E-06    4.1336693608E-06    4.2383135414E-06
    4.3456067940E-06    4.4556161797E-06    4.5684104573E-06    4.6840601264E-06
    4.8026374708E-06    4.9242166047E-06    5.0488735180E-06    5.1766861247E-06
    5.3077343109E-06    5.4420999851E-06    5.5798671292E-06    5.7211218512E-06
    5.8659524387E-06    6.0144494146E-06    6.1667055930E-06    6.3228161379E-06
    6.4828786220E-06    6.6469930883E-06    6.8152621123E-06    6.9877908660E-06
    7.1646871839E-06    7.3460616304E-06    7.5320275686E-06    7.7227012314E-06
    7.9182017942E-06    8.1186514491E-06    8.3241754815E-06    8.5349023485E-06
    8.7509637587E-06    8.9724947551E-06    9.1996337993E-06    9.4325228576E-06
    9.6713074906E-06    9.9161369432E-06    1.0167164239E-05    1.0424546274E-05
    1.0688443918E-05    1.0959022111E-05    1.1236449969E-05    1.1520900891E-05
    1.1812552662E-05    1.2111587570E-05    1.2418192517E-05    1.2732559136E-05
    1.3054883911E-05    1.3385368300E-05    1.3724218860E-05    1.4071647379E-05
    1.4427871003E-05    1.4793112377E-05    1.5167599783E-05    1.5551567279E-05
    1.5945254850E-05    1.6348908555E-05    1.6762780681E-05    1.7187129905E-05
    1.7622221447E-05    1.8068327244E-05    1.8525726117E-05    1.8994703943E-05
    1.9475553837E-05    1.9968576333E-05    2.0474079574E-05    2.0992379502E-05
    2.1523800058E-05    2.2068673380E-05    2.2627340017E-05    2.3200149137E-05
    2.3787458747E-05    2.4389635917E-05    2.5007057006E-05    2.5640107904E-05
    2.6289184266E-05    2.6954691763E-05    2.7637046337E-05    2.8336674455E-05
    2.9054013382E-05    2.9789511452E-05    3.0543628344E-05    3.1316835378E-05
    3.2109615799E-05    3.2922465089E-05    3.3755891270E-05    3.4610415222E-05
    3.5486571013E-05    3.6384906227E-05    3.7305982310E-05    3.8250374919E-05
    3.9218674283E-05    4.0211485571E-05    4.1229429270E-05    4.2273141571E-05
    4.3343274772E-05    4.4440497680E-05    4.5565496029E-05    4.6718972914E-05
    4.7901649224E-05    4.9114264096E-05    5.0357575375E-05    5.1632360088E-05
    5.2939414932E-05    5.4279556767E-05    5.5653623129E-05    5.7062472754E-05
    5.8506986114E-05    5.9988065964E-05    6.1506637912E-05    6.3063650990E-05
    6.4660078254E-05    6.6296917387E-05    6.7975191325E-05    6.9695948891E-05
    7.1460265459E-05    7.3269243618E-05    7.5124013863E-05    7.7025735304E-05
    7.8975596384E-05    8.0974815629E-05    8.3024642402E-05    8.5126357688E-05
    8.7281274891E-05    8.9490740659E-05    9.1756135718E-05    9.4078875740E-05
    9.6460412228E-05    9.8902233415E-05    1.0140586520E-04    1.0397287211E-04
    1.0660485824E-04    1.0930346831E-04    1.1207038865E-04    1.1490734826E-04
    1.1781611991E-04    1.2079852123E-04    1.2385641583E-04    1.2699171451E-04
    1.3020637640E-04    1.3350241023E-04    1.3688187553E-04    1.4034688398E-04
    1.4389960068E-04    1.4754224552E-04    1.5127709457E-04    1.5510648149E-04
    1.5903279898E-04    1.6305850030E-04    1.6718610077E-04    1.7141817939E-04
    1.7575738038E-04    1.8020641487E-04    1.8476806261E-04    1.8944517366E-04
    1.9424067020E-04    1.9915754836E-04    2.0419888005E-04    2.0936781490E-04
    2.1466758226E-04    2.2010149315E-04    2.2567294237E-04    2.3138541060E-04
    2.3724246658E-04    2.4324776934E-04    2.4940507045E-04    2.5571821642E-04
    2.6219115104E-04    2.6882791787E-04    2.7563266276E-04    2.8260963643E-04
    2.8976319712E-04    2.9709781331E-04    3.0461806651E-04    3.1232865411E-04
    3.2023439230E-04    3.2834021910E-04    3.3665119742E-04    3.4517251819E-04
    3.5390950366E-04    3.6286761065E-04    3.7205243401E-04    3.8146971003E-04
    3.9112532011E-04    4.0102529434E-04    4.1117581530E-04    4.2158322191E-04
    4.3225401336E-04    4.4319485318E-04    4.5441257336E-04    4.6591417864E-04
    4.7770685084E-04    4.8979795335E-04    5.0219503572E-04    5.1490583833E-04
    5.2793829723E-04    5.4130054908E-04    5.5500093620E-04    5.6904801178E-04
    5.8345054518E-04    5.9821752739E-04    6.1335817662E-04    6.2888194406E-04
    6.4479851973E-04    6.6111783848E-04    6.7785008623E-04    6.9500570625E-04
    7.1259540567E-04    7.3063016213E-04    7.4912123060E-04    7.6808015036E-04
    7.8751875221E-04    8.0744916573E-04    8.2788382693E-04    8.4883548585E-04
    8.7031721457E-04    8.9234241524E-04    9.1492482849E-04    9.3807854185E-04
    9.6181799856E-04    9.8615800651E-04    1.0111137474E-03    1.0367007862E-03
    1.0629350806E-03    1.0898329914E-03    1.1174112919E-03    1.1456871790E-03
    1.1746782833E-03    1.2044026804E-03    1.2348789020E-03    1.2661259470E-03
    1.2981632939E-03    1.3310109123E-03    1.3646892754E-03    1.3992193729E-03
    1.4346227235E-03    1.4709213887E-03    1.5081379861E-03    1.5462957032E-03
    1.5854183123E-03    1.6255301846E-03    1.6666563056E-03    1.7088222900E-03
    1.7520543983E-03    1.7963795521E-03    1.8418253513E-03    1.8884200907E-03
    1.9361927778E-03    1.9851731503E-03    2.0353916945E-03    2.0868796640E-03
    2.1396690990E-03    2.1937928458E-03    2.2492845774E-03    2.3061788134E-03
    2.3645109418E-03    2.4243172404E-03    2.4856348994E-03    2.5485020434E-03
    2.6129577554E-03    2.6790421007E-03    2.7467961510E-03    2.8162620095E-03
    2.8874828372E-03    2.9605028784E-03    3.0353674884E-03    3.1121231607E-03
    3.1908175554E-03    3.2714995285E-03    3.3542191609E-03    3.4390277898E-03
    3.5259780391E-03    3.6151238517E-03    3.7065205220E-03    3.8002247297E-03
    3.8962945737E-03    3.9947896077E-03    4.0957708760E-03    4.1993009501E-03
    4.3054439669E-03    4.4142656669E-03    4.5258334345E-03    4.6402163376E-03
    4.7574851697E-03    4.8777124926E-03    5.0009726794E-03    5.1273419591E-03
    5.2568984627E-03    5.3897222695E-03    5.5258954551E-03    5.6655021401E-03
    5.8086285407E-03    5.9553630194E-03    6.1057961380E-03    6.2600207109E-03
    6.4181318605E-03    6.5802270734E-03    6.7464062576E-03    6.9167718022E-03
    7.0914286370E-03    7.2704842946E-03    7.4540489735E-03    7.6422356026E-03
    7.8351599075E-03    8.0329404778E-03    8.2356988368E-03    8.4435595116E-03
    8.6566501060E-03    8.8751013743E-03    9.0990472967E-03    9.3286251574E-03
    9.5639756231E-03    9.8052428241E-03    1.0052574437E-02    1.0306121770E-02
    1.0566039847E-02    1.0832487499E-02    1.1105627453E-02    1.1385626424E-02
    1.1672655209E-02    1.1966888785E-02    1.2268506404E-02    1.2577691699E-02
    1.2894632781E-02    1.3219522348E-02    1.3552557790E-02    1.3893941297E-02
    1.4243879975E-02    1.4602585956E-02    1.4970276516E-02    1.5347174195E-02
    1.5733506914E-02    1.6129508102E-02    1.6535416822E-02    1.6951477898E-02
    1.7377942049E-02    1.7815066017E-02    1.8263112710E-02    1.8722351337E-02
    1.9193057550E-02    1.9675513591E-02    2.0170008435E-02    2.0676837941E-02
    2.1196305008E-02    2.1728719724E-02    2.2274399530E-02    2.2833669376E-02
    2.3406861888E-02    2.3994317534E-02    2.4596384791E-02    2.5213420319E-02
    2.5845789136E-02    2.6493864793E-02    2.7158029559E-02    2.7838674600E-02
    2.8536200168E-02    2.9251015789E-02    2.9983540453E-02    3.0734202809E-02
    3.1503441364E-02    3.2291704679E-02    3.3099451575E-02    3.3927151334E-02
    3.4775283906E-02    3.5644340122E-02    3.6534821902E-02    3.7447242471E-02
    3.8382126574E-02    3.9340010694E-02    4.0321443270E-02    4.1326984925E-02
    4.2357208680E-02    4.3412700185E-02    4.4494057945E-02    4.5601893542E-02
    4.6736831869E-02    4.7899511355E-02    4.9090584194E-02    5.0310716576E-02
    5.1560588917E-02    5.2840896087E-02    5.4152347636E-02    5.5495668026E-02
    5.6871596857E-02    5.8280889087E-02    5.9724315262E-02    6.1202661729E-02
    6.2716730859E-02    6.4267341261E-02    6.5855327989E-02    6.7481542750E-02
    6.9146854109E-02    7.0852147679E-02    7.2598326314E-02    7.4386310292E-02
    7.6217037492E-02    7.8091463558E-02    8.0010562062E-02    8.1975324649E-02
    8.3986761178E-02    8.6045899850E-02    8.8153787316E-02    9.0311488787E-02
    9.2520088112E-02    9.4780687855E-02    9.7094409343E-02    9.9462392707E-02
    1.0188579689E-01    1.0436579967E-01    1.0690359758E-01    1.0950040590E-01
    1.1215745859E-01    1.1487600815E-01    1.1765732552E-01    1.2050269988E-01
    1.2341343851E-01    1.2639086653E-01    1.2943632662E-01    1.3255117876E-01
    1.3573679985E-01    1.3899458335E-01    1.4232593881E-01    1.4573229143E-01
    1.4921508152E-01    1.5277576389E-01    1.5641580725E-01    1.6013669347E-01
    1.6393991685E-01    1.6782698328E-01    1.7179940932E-01    1.7585872129E-01
    1.8000645416E-01    1.8424415049E-01    1.8857335917E-01    1.9299563416E-01
    1.9751253307E-01    2.0212561574E-01    2.0683644261E-01    2.1164657305E-01
    2.1655756359E-01    2.2157096599E-01    2.2668832522E-01    2.3191117736E-01
    2.3724104727E-01    2.4267944623E-01    2.4822786940E-01    2.5388779311E-01
    2.5966067206E-01    2.6554793633E-01    2.7155098825E-01    2.7767119909E-01
    2.8390990559E-01    2.9026840631E-01    2.9674795784E-01    3.0334977075E-01
    3.1007500542E-01    3.1692476766E-01    3.2390010409E-01    3.3100199735E-01
    3.3823136113E-01    3.4558903493E-01    3.5307577860E-01    3.6069226674E-01
    3.6843908277E-01    3.7631671286E-01    3.8432553957E-01    3.9246583525E-01
    4.0073775531E-01    4.0914133108E-01    4.1767646262E-01    4.2634291115E-01
    4.3514029129E-01    4.4406806312E-01    4.5312552397E-01    4.6231179990E-01
    4.7162583717E-01    4.8106639323E-01    4.9063202777E-01    5.0032109334E-01
    5.1013172596E-01    5.2006183545E-01    5.3010909568E-01    5.4027093458E-01
    5.5054452412E-01    5.6092677016E-01    5.7141430218E-01    5.8200346302E-01
    5.9269029852E-01    6.0347054726E-01    6.1433963025E-01    6.2529264071E-01
    6.3632433403E-01    6.4742911781E-01    6.5860104213E-01    6.6983379010E-01
    6.8112066868E-01    6.9245459989E-01    7.0382811241E-01    7.1523333373E-01
    7.2666198280E-01    7.3810536332E-01    7.4955435778E-01    7.6099942227E-01
    7.7243058209E-01    7.8383742845E-01    7.9520911612E-01    8.0653436226E-01
    8.1780144652E-01    8.2899821242E-01    8.4011207029E-01    8.5113000164E-01
    8.6203856533E-01    8.7282390538E-01    8.8347176081E-01    8.9396747736E-01
    9.0429602142E-01    9.1444199609E-01    9.2438965967E-01    9.3412294648E-01
    9.4362549035E-01    9.5288065057E-01    9.6187154075E-01    9.7058106036E-01
    9.7899192916E-01    9.8708672463E-01    9.9484792236E-01    1.0022579394E+00
    1.0092991809E+00    1.0159540894E+00    1.0222051973E+00    1.0280351830E+00
    1.0334269286E+00    1.0383635818E+00    1.0428286196E+00    1.0468059154E+00
    1.0502798076E+00    1.0532351714E+00    1.0556574917E+00    1.0575329385E+00
    1.0588484431E+00    1.0595917755E+00    1.0597516228E+00    1.0593176674E+00
    1.0582806651E+00    1.0566325227E+00    1.0543663740E+00    1.0514766540E+00
    1.0479591708E+00    1.0438111742E+00    1.0390314206E+00    1.0336202332E+00
    1.0275795571E+00    1.0209130081E+00    1.0136259153E+00    1.0057253555E+00
    9.9722017946E-01    9.8812102918E-01    9.7844034528E-01    9.6819236364E-01
    9.5739310089E-01    9.4606032793E-01    9.3421353098E-01    9.2187385950E-01
    9.0906406081E-01    8.9580840078E-01    8.8213257067E-01    8.6806357979E-01
    8.5362963424E-01    8.3886000178E-01    8.2378486342E-01    8.0843515220E-01
    7.9284238003E-01    7.7703845363E-01    7.6105548092E-01    7.4492556925E-01
    7.2868061759E-01    7.1235210440E-01    6.9597087396E-01    6.7956692356E-01
    6.6316919469E-01    6.4680537134E-01    6.3050168905E-01    6.1428275828E-01
    5.9817140608E-01    5.8218854000E-01    5.6635303831E-01    5.5068167040E-01
    5.3518905131E-01    5.1988763382E-01    5.0478774134E-01    4.8989764391E-01
    4.7522367925E-01    4.6077041925E-01    4.4654088156E-01    4.3253678416E-01
    4.1875883915E-01    4.0520708013E-01    3.9188121530E-01    3.7878099610E-01
    3.6590658840E-01    3.5325893070E-01    3.4084006487E-01    3.2865341437E-01
    3.1670373507E-01    3.0499594269E-01    2.9353443580E-01    2.8232308383E-01
    2.7136523239E-01    2.6066371114E-01    2.5022084337E-01    2.4003845739E-01
    2.3011789962E-01    2.2046004939E-01    2.1106533514E-01    2.0193375180E-01
    1.9306487926E-01    1.8445790134E-01    1.7611162523E-01    1.6802450096E-01
    1.6019464066E-01    1.5261983756E-01    1.4529758441E-01    1.3822509133E-01
    1.3139930311E-01    1.2481691581E-01    1.1847439290E-01    1.1236798082E-01
    1.0649372412E-01    1.0084748030E-01    9.5424934191E-02    9.0221612254E-02
    8.5232896518E-02    8.0454038402E-02    7.5880172330E-02    7.1506329178E-02
    6.7327449533E-02    6.3338396763E-02    5.9533969862E-02    5.5908916073E-02
    5.2457943236E-02    4.9175731855E-02    4.6056946850E-02    4.3096248962E-02
    4.0288305801E-02    3.7627802496E-02    3.5109451938E-02    3.2728004583E-02
    3.0478257810E-02    2.8355064809E-02    2.6353342979E-02    2.4468081839E-02
    2.2694350430E-02    2.1027304197E-02    1.9462191358E-02    1.7994358743E-02
    1.6619257105E-02    1.5332445908E-02    1.4129597586E-02    1.3006501283E-02
    1.1959066081E-02    1.0983323715E-02    1.0075430806E-02    9.2316706009E-03
    8.4484542545E-03    7.7223216579E-03    7.0499418403E-03    6.4281129615E-03
    5.8537619177E-03    5.3239435849E-03    4.8358397239E-03    4.3867575712E-03
    3.9741281407E-03    3.5955042609E-03    3.2485583706E-03    2.9310800964E-03
    2.6409736337E-03    2.3762549505E-03    2.1350488353E-03    1.9155858055E-03
    1.7161988940E-03    1.5353203305E-03    1.3714781331E-03    1.2232926258E-03
    1.0894728956E-03    9.6881320574E-04    8.6018937810E-04    7.6255516053E-04
    6.7493859230E-04    5.9643838246E-04    5.2622031468E-04    4.6351369172E-04
    4.0760783237E-04    3.5784863268E-04    3.1363520279E-04    2.7441658931E-04
    2.3968859262E-04    2.0899068698E-04    1.8190305046E-04    1.5804371041E-04
    1.3706580908E-04    1.1865499289E-04    1.0252692771E-04    8.8424941435E-05
    7.6117794359E-05    6.5397576614E-05    5.6077731455E-05    4.7991202201E-05
    4.0988700098E-05    3.4937089765E-05    2.9717888414E-05    2.5225874643E-05
    2.1367802276E-05    1.8061214482E-05    1.5233353242E-05    1.2820159118E-05
    1.0765356218E-05    9.0196172736E-06    7.5398037673E-06    6.2882761467E-06
    5.2322692685E-06    4.3433283647E-06    3.5968009844E-06    2.9713805483E-06
    2.4486973497E-06    2.0129530382E-06    1.6505948368E-06    1.3500259553E-06
    1.1013488804E-06    8.9613843783E-07    7.2724173095E-07    5.8860227197E-07
    4.7510581987E-07    3.8244563615E-07    3.0700505604E-07    2.4575545206E-07
    1.9616783692E-07    1.5613651362E-07    1.2391333198E-07    9.8051252810E-08
    7.7356052868E-08    6.0845126491E-08    4.7712452877E-08    3.7298902053E-08
    2.9067147678E-08    2.2580541495E-08    1.7485382769E-08    1.3496086923E-08
    1.0382821254E-08    7.9612325388E-09    6.0839420540E-09    4.6335284299E-09
    3.5167584507E-09    2.6598607129E-09    2.0046675396E-09    1.5054770690E-09
    1.1265104395E-09    8.3985884196E-10    6.2383226852E-10    4.6163638040E-10
    3.4031634383E-10    2.4991702356E-10    1.8281781800E-10    1.3320789647E-10
    9.6673852842E-11    6.9876999385E-11    5.0301842557E-11    3.6060847074E-11
    2.5743522303E-11    1.8300268959E-11
   </PP_CHI.2>
   <PP_CHI.3
       type="real"
       size="1078"
       columns="4"
       index="3"
       occupation=" 3.000"
       pseudo_energy="   -0.3810135121E+00"
       label="3D"
       l="2" >
    0.0000000000E+00    4.9430985803E-14    5.1319842491E-14    5.3280876167E-14
    5.5316844857E-14    5.7430611976E-14    5.9625150359E-14    6.1903546436E-14
    6.4269004577E-14    6.6724851598E-14    6.9274541439E-14    7.1921660020E-14
    7.4669930289E-14    7.7523217453E-14    8.0485534419E-14    8.3561047432E-14
    8.6754081939E-14    9.0069128672E-14    9.3510849961E-14    9.7084086294E-14
    1.0079386312E-13    1.0464539793E-13    1.0864410758E-13    1.1279561591E-13
    1.1710576167E-13    1.2158060670E-13    1.2622644449E-13    1.3104980903E-13
    1.3605748396E-13    1.4125651215E-13    1.4665420559E-13    1.5225815567E-13
    1.5807624388E-13    1.6411665286E-13    1.7038787793E-13    1.7689873904E-13
    1.8365839315E-13    1.9067634714E-13    1.9796247117E-13    2.0552701255E-13
    2.1338061017E-13    2.2153430943E-13    2.2999957783E-13    2.3878832103E-13
    2.4791289967E-13    2.5738614668E-13    2.6722138538E-13    2.7743244819E-13
    2.8803369610E-13    2.9904003886E-13    3.1046695597E-13    3.2233051839E-13
    3.3464741123E-13    3.4743495714E-13    3.6071114072E-13    3.7449463378E-13
    3.8880482165E-13    4.0366183036E-13    4.1908655506E-13    4.3510068928E-13
    4.5172675556E-13    4.6898813703E-13    4.8690911036E-13    5.0551487986E-13
    5.2483161298E-13    5.4488647705E-13    5.6570767752E-13    5.8732449764E-13
    6.0976733962E-13    6.3306776742E-13    6.5725855109E-13    6.8237371292E-13
    7.0844857524E-13    7.3551981011E-13    7.6362549093E-13    7.9280514594E-13
    8.2309981384E-13    8.5455210150E-13    8.8720624387E-13    9.2110816624E-13
    9.5630554876E-13    9.9284789355E-13    1.0307865943E-12    1.0701750086E-12
    1.1110685328E-12    1.1535246803E-12    1.1976031619E-12    1.2433659704E-12
    1.2908774671E-12    1.3402044730E-12    1.3914163623E-12    1.4445851601E-12
    1.4997856439E-12    1.5570954484E-12    1.6165951750E-12    1.6783685049E-12
    1.7425023171E-12    1.8090868104E-12    1.8782156300E-12    1.9499860000E-12
    2.0244988590E-12    2.1018590032E-12    2.1821752330E-12    2.2655605063E-12
    2.3521320973E-12    2.4420117618E-12    2.5353259076E-12    2.6322057733E-12
    2.7327876122E-12    2.8372128839E-12    2.9456284537E-12    3.0581867989E-12
    3.1750462233E-12    3.2963710795E-12    3.4223320008E-12    3.5531061403E-12
    3.6888774209E-12    3.8298367931E-12    3.9761825044E-12    4.1281203775E-12
    4.2858641000E-12    4.4496355252E-12    4.6196649834E-12    4.7961916068E-12
    4.9794636648E-12    5.1697389140E-12    5.3672849604E-12    5.5723796356E-12
    5.7853113878E-12    6.0063796873E-12    6.2358954479E-12    6.4741814639E-12
    6.7215728642E-12    6.9784175838E-12    7.2450768528E-12    7.5219257048E-12
    7.8093535041E-12    8.1077644934E-12    8.4175783622E-12    8.7392308374E-12
    9.0731742957E-12    9.4198784001E-12    9.7798307604E-12    1.0153537619E-11
    1.0541524562E-11    1.0944337261E-11    1.1362542237E-11    1.1796727660E-11
    1.2247504175E-11    1.2715505759E-11    1.3201390619E-11    1.3705842108E-11
    1.4229569696E-11    1.4773309960E-11    1.5337827624E-11    1.5923916635E-11
    1.6532401277E-11    1.7164137331E-11    1.7820013280E-11    1.8500951558E-11
    1.9207909847E-11    1.9941882422E-11    2.0703901554E-11    2.1495038957E-11
    2.2316407299E-11    2.3169161764E-11    2.4054501678E-11    2.4973672197E-11
    2.5927966055E-11    2.6918725385E-11    2.7947343605E-11    2.9015267379E-11
    3.0123998651E-11    3.1275096757E-11    3.2470180617E-11    3.3710931015E-11
    3.4999092961E-11    3.6336478143E-11    3.7724967480E-11    3.9166513764E-11
    4.0663144407E-11    4.2216964290E-11    4.3830158730E-11    4.5504996545E-11
    4.7243833253E-11    4.9049114379E-11    5.0923378896E-11    5.2869262796E-11
    5.4889502799E-11    5.6986940200E-11    5.9164524865E-11    6.1425319380E-11
    6.3772503360E-11    6.6209377918E-11    6.8739370309E-11    7.1366038751E-11
    7.4093077428E-11    7.6924321688E-11    7.9863753431E-11    8.2915506718E-11
    8.6083873577E-11    8.9373310047E-11    9.2788442436E-11    9.6334073836E-11
    1.0001519087E-10    1.0383697072E-10    1.0780478839E-10    1.1192422428E-10
    1.1620107201E-10    1.2064134661E-10    1.2525129294E-10    1.3003739449E-10
    1.3500638252E-10    1.4016524546E-10    1.4552123883E-10    1.5108189536E-10
    1.5685503564E-10    1.6284877910E-10    1.6907155542E-10    1.7553211640E-10
    1.8223954827E-10    1.8920328444E-10    1.9643311883E-10    2.0393921956E-10
    2.1173214333E-10    2.1982285020E-10    2.2822271907E-10    2.3694356361E-10
    2.4599764896E-10    2.5539770890E-10    2.6515696381E-10    2.7528913923E-10
    2.8580848520E-10    2.9672979626E-10    3.0806843231E-10    3.1984034015E-10
    3.3206207596E-10    3.4475082855E-10    3.5792444356E-10    3.7160144853E-10
    3.8580107899E-10    4.0054330550E-10    4.1584886171E-10    4.3173927357E-10
    4.4823688957E-10    4.6536491218E-10    4.8314743047E-10    5.0160945401E-10
    5.2077694803E-10    5.4067686997E-10    5.6133720731E-10    5.8278701705E-10
    6.0505646646E-10    6.2817687560E-10    6.5218076130E-10    6.7710188295E-10
    7.0297528992E-10    7.2983737092E-10    7.5772590511E-10    7.8668011528E-10
    8.1674072301E-10    8.4795000591E-10    8.8035185712E-10    9.1399184699E-10
    9.4891728724E-10    9.8517729743E-10    1.0228228741E-09    1.0619069624E-09
    1.1024845308E-09    1.1446126479E-09    1.1883505634E-09    1.2337597906E-09
    1.2809041938E-09    1.3298500773E-09    1.3806662792E-09    1.4334242681E-09
    1.4881982433E-09    1.5450652397E-09    1.6041052355E-09    1.6654012655E-09
    1.7290395368E-09    1.7951095513E-09    1.8637042304E-09    1.9349200465E-09
    2.0088571583E-09    2.0856195517E-09    2.1653151862E-09    2.2480561466E-09
    2.3339588006E-09    2.4231439626E-09    2.5157370637E-09    2.6118683275E-09
    2.7116729542E-09    2.8152913100E-09    2.9228691246E-09    3.0345576967E-09
    3.1505141061E-09    3.2709014350E-09    3.3958889973E-09    3.5256525765E-09
    3.6603746734E-09    3.8002447624E-09    3.9454595579E-09    4.0962232914E-09
    4.2527479981E-09    4.4152538158E-09    4.5839692939E-09    4.7591317152E-09
    4.9409874296E-09    5.1297922002E-09    5.3258115636E-09    5.5293212027E-09
    5.7406073350E-09    5.9599671148E-09    6.1877090510E-09    6.4241534414E-09
    6.6696328229E-09    6.9244924391E-09    7.1890907261E-09    7.4637998164E-09
    7.7490060623E-09    8.0451105794E-09    8.3525298104E-09    8.6716961112E-09
    9.0030583587E-09    9.3470825820E-09    9.7042526182E-09    1.0075070792E-08
    1.0460058625E-08    1.0859757563E-08    1.1274729744E-08    1.1705558787E-08
    1.2152850610E-08    1.2617234286E-08    1.3099362924E-08    1.3599914589E-08
    1.4119593260E-08    1.4659129811E-08    1.5219283047E-08    1.5800840767E-08
    1.6404620873E-08    1.7031472522E-08    1.7682277315E-08    1.8357950545E-08
    1.9059442475E-08    1.9787739683E-08    2.0543866442E-08    2.1328886167E-08
    2.2143902906E-08    2.2990062895E-08    2.3868556168E-08    2.4780618234E-08
    2.5727531811E-08    2.6710628632E-08    2.7731291316E-08    2.8790955317E-08
    2.9891110935E-08    3.1033305420E-08    3.2219145144E-08    3.3450297859E-08
    3.4728495044E-08    3.6055534342E-08    3.7433282084E-08    3.8863675916E-08
    4.0348727526E-08    4.1890525468E-08    4.3491238103E-08    4.5153116649E-08
    4.6878498344E-08    4.8669809734E-08    5.0529570087E-08    5.2460394934E-08
    5.4464999749E-08    5.6546203767E-08    5.8706933947E-08    6.0950229091E-08
    6.3279244116E-08    6.5697254493E-08    6.8207660849E-08    7.0813993752E-08
    7.3519918677E-08    7.6329241159E-08    7.9245912145E-08    8.2274033552E-08
    8.5417864031E-08    8.8681824961E-08    9.2070506664E-08    9.5588674860E-08
    9.9241277372E-08    1.0303345108E-07    1.0697052914E-07    1.1105804851E-07
    1.1530175769E-07    1.1970762485E-07    1.2428184620E-07    1.2903085472E-07
    1.3396132917E-07    1.3908020353E-07    1.4439467672E-07    1.4991222274E-07
    1.5564060114E-07    1.6158786800E-07    1.6776238720E-07    1.7417284221E-07
    1.8082824830E-07    1.8773796519E-07    1.9491171026E-07    2.0235957216E-07
    2.1009202505E-07    2.1811994328E-07    2.2645461670E-07    2.3510776657E-07
    2.4409156198E-07    2.5341863701E-07    2.6310210845E-07    2.7315559431E-07
    2.8359323290E-07    2.9442970276E-07    3.0568024327E-07    3.1736067608E-07
    3.2948742738E-07    3.4207755098E-07    3.5514875228E-07    3.6871941320E-07
    3.8280861797E-07    3.9743618001E-07    4.1262266980E-07    4.2838944373E-07
    4.4475867422E-07    4.6175338082E-07    4.7939746262E-07    4.9771573183E-07
    5.1673394869E-07    5.3647885765E-07    5.5697822501E-07    5.7826087795E-07
    6.0035674503E-07    6.2329689831E-07    6.4711359700E-07    6.7184033283E-07
    6.9751187716E-07    7.2416432980E-07    7.5183516982E-07    7.8056330823E-07
    8.1038914265E-07    8.4135461416E-07    8.7350326619E-07    9.0688030580E-07
    9.4153266719E-07    9.7750907768E-07    1.0148601262E-06    1.0536383346E-06
    1.0938982310E-06    1.1356964269E-06    1.1790916968E-06    1.2241450602E-06
    1.2709198681E-06    1.3194818917E-06    1.3698994149E-06    1.4222433301E-06
    1.4765872381E-06    1.5330075516E-06    1.5915836023E-06    1.6523977526E-06
    1.7155355114E-06    1.7810856539E-06    1.8491403472E-06    1.9197952787E-06
    1.9931497916E-06    2.0693070239E-06    2.1483740535E-06    2.2304620489E-06
    2.3156864250E-06    2.4041670056E-06    2.4960281917E-06    2.5913991362E-06
    2.6904139257E-06    2.7932117685E-06    2.8999371902E-06    3.0107402374E-06
    3.1257766876E-06    3.2452082689E-06    3.3692028865E-06    3.4979348592E-06
    3.6315851638E-06    3.7703416899E-06    3.9143995031E-06    4.0639611196E-06
    4.2192367907E-06    4.3804447977E-06    4.5478117588E-06    4.7215729473E-06
    4.9019726221E-06    5.0892643708E-06    5.2837114657E-06    5.4855872337E-06
    5.6951754399E-06    5.9127706864E-06    6.1386788258E-06    6.3732173906E-06
    6.6167160392E-06    6.8695170187E-06    7.1319756453E-06    7.4044608033E-06
    7.6873554629E-06    7.9810572178E-06    8.2859788435E-06    8.6025488761E-06
    8.9312122145E-06    9.2724307446E-06    9.6266839872E-06    9.9944697714E-06
    1.0376304933E-05    1.0772726040E-05    1.1184290144E-05    1.1611575564E-05
    1.2055182698E-05    1.2515734861E-05    1.2993879165E-05    1.3490287423E-05
    1.4005657093E-05    1.4540712254E-05    1.5096204625E-05    1.5672914616E-05
    1.6271652424E-05    1.6893259168E-05    1.7538608070E-05    1.8208605675E-05
    1.8904193127E-05    1.9626347486E-05    2.0376083095E-05    2.1154453005E-05
    2.1962550448E-05    2.2801510372E-05    2.3672511028E-05    2.4576775620E-05
    2.5515574022E-05    2.6490224554E-05    2.7502095828E-05    2.8552608667E-05
    2.9643238090E-05    3.0775515381E-05    3.1951030230E-05    3.3171432961E-05
    3.4438436838E-05    3.5753820463E-05    3.7119430267E-05    3.8537183091E-05
    4.0009068866E-05    4.1537153400E-05    4.3123581262E-05    4.4770578784E-05
    4.6480457170E-05    4.8255615731E-05    5.0098545233E-05    5.2011831379E-05
    5.3998158425E-05    5.6060312922E-05    5.8201187615E-05    6.0423785476E-05
    6.2731223901E-05    6.5126739059E-05    6.7613690407E-05    7.0195565381E-05
    7.2875984256E-05    7.5658705199E-05    7.8547629506E-05    8.1546807044E-05
    8.4660441893E-05    8.7892898205E-05    9.1248706283E-05    9.4732568891E-05
    9.8349367802E-05    1.0210417060E-04    1.0600223771E-04    1.1004902975E-04
    1.1425021510E-04    1.1861167780E-04    1.2313952573E-04    1.2784009907E-04
    1.3271997914E-04    1.3778599754E-04    1.4304524562E-04    1.4850508432E-04
    1.5417315440E-04    1.6005738703E-04    1.6616601478E-04    1.7250758304E-04
    1.7909096186E-04    1.8592535823E-04    1.9302032882E-04    2.0038579321E-04
    2.0803204763E-04    2.1596977918E-04    2.2421008058E-04    2.3276446554E-04
    2.4164488463E-04    2.5086374176E-04    2.6043391134E-04    2.7036875598E-04
    2.8068214495E-04    2.9138847325E-04    3.0250268143E-04    3.1404027619E-04
    3.2601735164E-04    3.3845061147E-04    3.5135739189E-04    3.6475568538E-04
    3.7866416543E-04    3.9310221212E-04    4.0808993868E-04    4.2364821899E-04
    4.3979871621E-04    4.5656391234E-04    4.7396713896E-04    4.9203260908E-04
    5.1078545019E-04    5.3025173847E-04    5.5045853436E-04    5.7143391933E-04
    5.9320703410E-04    6.1580811825E-04    6.3926855120E-04    6.6362089483E-04
    6.8889893753E-04    7.1513774001E-04    7.4237368265E-04    7.7064451465E-04
    7.9998940498E-04    8.3044899518E-04    8.6206545406E-04    8.9488253443E-04
    9.2894563187E-04    9.6430184562E-04    1.0010000417E-03    1.0390909184E-03
    1.0786270739E-03    1.1196630765E-03    1.1622555376E-03    1.2064631865E-03
    1.2523469493E-03    1.2999700289E-03    1.3493979893E-03    1.4006988424E-03
    1.4539431374E-03    1.5092040541E-03    1.5665574993E-03    1.6260822067E-03
    1.6878598398E-03    1.7519750991E-03    1.8185158328E-03    1.8875731513E-03
    1.9592415459E-03    2.0336190118E-03    2.1108071745E-03    2.1909114220E-03
    2.2740410403E-03    2.3603093547E-03    2.4498338746E-03    2.5427364450E-03
    2.6391434015E-03    2.7391857321E-03    2.8429992432E-03    2.9507247322E-03
    3.0625081655E-03    3.1785008626E-03    3.2988596863E-03    3.4237472395E-03
    3.5533320683E-03    3.6877888719E-03    3.8272987196E-03    3.9720492748E-03
    4.1222350264E-03    4.2780575277E-03    4.4397256429E-03    4.6074558021E-03
    4.7814722638E-03    4.9620073862E-03    5.1493019070E-03    5.3436052319E-03
    5.5451757328E-03    5.7542810541E-03    5.9711984296E-03    6.1962150086E-03
    6.4296281921E-03    6.6717459790E-03    6.9228873230E-03    7.1833824997E-03
    7.4535734853E-03    7.7338143454E-03    8.0244716359E-03    8.3259248149E-03
    8.6385666666E-03    8.9628037367E-03    9.2990567809E-03    9.6477612240E-03
    1.0009367633E-02    1.0384342203E-02    1.0773167254E-02    1.1176341742E-02
    1.1594381783E-02    1.2027821190E-02    1.2477212027E-02    1.2943125165E-02
    1.3426150867E-02    1.3926899374E-02    1.4446001510E-02    1.4984109301E-02
    1.5541896603E-02    1.6120059747E-02    1.6719318199E-02    1.7340415226E-02
    1.7984118579E-02    1.8651221190E-02    1.9342541880E-02    2.0058926075E-02
    2.0801246540E-02    2.1570404116E-02    2.2367328476E-02    2.3192978883E-02
    2.4048344962E-02    2.4934447477E-02    2.5852339117E-02    2.6803105287E-02
    2.7787864907E-02    2.8807771211E-02    2.9864012548E-02    3.0957813193E-02
    3.2090434145E-02    3.3263173932E-02    3.4477369410E-02    3.5734396552E-02
    3.7035671234E-02    3.8382650011E-02    3.9776830869E-02    4.1219753980E-02
    4.2713002419E-02    4.4258202870E-02    4.5857026307E-02    4.7511188640E-02
    4.9222451332E-02    5.0992621974E-02    5.2823554831E-02    5.4717151323E-02
    5.6675360470E-02    5.8700179272E-02    6.0793653033E-02    6.2957875606E-02
    6.5194989573E-02    6.7507186339E-02    6.9896706139E-02    7.2365837944E-02
    7.4916919265E-02    7.7552335848E-02    8.0274521239E-02    8.3085956226E-02
    8.5989168131E-02    8.8986729962E-02    9.2081259391E-02    9.5275417566E-02
    9.8571907738E-02    1.0197347369E-01    1.0548289795E-01    1.0910299978E-01
    1.1283663296E-01    1.1668668327E-01    1.2065606572E-01    1.2474772156E-01
    1.2896461486E-01    1.3330972895E-01    1.3778606237E-01    1.4239662458E-01
    1.4714443124E-01    1.5203249916E-01    1.5706384083E-01    1.6224145849E-01
    1.6756833785E-01    1.7304744128E-01    1.7868170058E-01    1.8447400920E-01
    1.9042721401E-01    1.9654410651E-01    2.0282741352E-01    2.0927978725E-01
    2.1590379491E-01    2.2270190756E-01    2.2967648853E-01    2.3682978108E-01
    2.4416389553E-01    2.5168079566E-01    2.5938228454E-01    2.6726998969E-01
    2.7534534751E-01    2.8360958716E-01    2.9206371372E-01    3.0070849073E-01
    3.0954442205E-01    3.1857173317E-01    3.2779035186E-01    3.3719988826E-01
    3.4679961441E-01    3.5658844327E-01    3.6656490733E-01    3.7672713666E-01
    3.8707283674E-01    3.9759926592E-01    4.0830321262E-01    4.1918097249E-01
    4.3022832540E-01    4.4144051254E-01    4.5281221371E-01    4.6433752479E-01
    4.7600993573E-01    4.8782230905E-01    4.9976685907E-01    5.1183513202E-01
    5.2401798724E-01    5.3630557966E-01    5.4868734370E-01    5.6115197892E-01
    5.7368743757E-01    5.8628091435E-01    5.9891883851E-01    6.1158686877E-01
    6.2426989109E-01    6.3695201980E-01    6.4961660217E-01    6.6224622693E-01
    6.7482273689E-01    6.8732724595E-01    6.9974016099E-01    7.1204120871E-01
    7.2420946783E-01    7.3622340692E-01    7.4806092813E-01    7.5969941703E-01
    7.7111579880E-01    7.8228660100E-01    7.9318802302E-01    8.0379601240E-01
    8.1408634800E-01    8.2403473018E-01    8.3361687782E-01    8.4280863216E-01
    8.5158606726E-01    8.5992560687E-01    8.6780414728E-01    8.7519918588E-01
    8.8208895471E-01    8.8845255860E-01    8.9427011690E-01    8.9952290823E-01
    9.0419351707E-01    9.0826598123E-01    9.1172593895E-01    9.1456077434E-01
    9.1675975969E-01    9.1831419324E-01    9.1921753053E-01    9.1946550791E-01
    9.1905625612E-01    9.1799040224E-01    9.1627115805E-01    9.1390439288E-01
    9.1089868894E-01    9.0726537734E-01    9.0301855290E-01    8.9817506595E-01
    8.9275448969E-01    8.8677906141E-01    8.8027359663E-01    8.7326537493E-01
    8.6578399703E-01    8.5786121264E-01    8.4953071918E-01    8.4082793193E-01
    8.3178972645E-01    8.2245415473E-01    8.1286013713E-01    8.0304713248E-01
    7.9305478938E-01    7.8292258246E-01    7.7268943752E-01    7.6239335034E-01
    7.5207100423E-01    7.4175739192E-01    7.3148544777E-01    7.2128569640E-01
    7.1118592443E-01    7.0121088165E-01    6.9138201846E-01    6.8171726578E-01
    6.7223086386E-01    6.6293324576E-01    6.5383098078E-01    6.4492678271E-01
    6.3621958670E-01    6.2770469793E-01    6.1937401406E-01    6.1121632258E-01
    6.0321767264E-01    5.9536181997E-01    5.8763074193E-01    5.8000521822E-01
    5.7246547127E-01    5.6499185851E-01    5.5756560678E-01    5.5016957713E-01
    5.4278904568E-01    5.3541248335E-01    5.2803231519E-01    5.2064562914E-01
    5.1325414058E-01    5.0586124875E-01    4.9847028307E-01    4.9108445284E-01
    4.8370683846E-01    4.7634038556E-01    4.6898790068E-01    4.6165204870E-01
    4.5433535223E-01    4.4704019314E-01    4.3976881624E-01    4.3252333502E-01
    4.2530573920E-01    4.1811790371E-01    4.1096159883E-01    4.0383850088E-01
    3.9675020314E-01    3.8969822650E-01    3.8268402955E-01    3.7570901783E-01
    3.6877455196E-01    3.6188195476E-01    3.5503251707E-01    3.4822750252E-01
    3.4146815129E-01    3.3475568285E-01    3.2809129799E-01    3.2147618013E-01
    3.1491149615E-01    3.0839839676E-01    3.0193801659E-01    2.9553147403E-01
    2.8917987096E-01    2.8288429234E-01    2.7664580577E-01    2.7046546107E-01
    2.6434428983E-01    2.5828330498E-01    2.5228350045E-01    2.4634585088E-01
    2.4047131135E-01    2.3466081721E-01    2.2891528402E-01    2.2323560746E-01
    2.1762266347E-01    2.1207730831E-01    2.0660037886E-01    2.0119269286E-01
    1.9585504930E-01    1.9058822887E-01    1.8539299445E-01    1.8027009157E-01
    1.7522024904E-01    1.7024417935E-01    1.6534257919E-01    1.6051612974E-01
    1.5576549693E-01    1.5109133132E-01    1.4649426789E-01    1.4197492542E-01
    1.3753390543E-01    1.3317179075E-01    1.2888914357E-01    1.2468650299E-01
    1.2056438192E-01    1.1652326357E-01    1.1256359735E-01    1.0868579426E-01
    1.0489022199E-01    1.0117719966E-01    9.7546992349E-02    9.3999805679E-02
    9.0535780421E-02    8.7154987389E-02    8.3857422712E-02    8.0643003648E-02
    7.7511565027E-02    7.4462856442E-02    7.1496540254E-02    6.8612190451E-02
    6.5809292392E-02    6.3087243424E-02    6.0445354350E-02    5.7882851695E-02
    5.5398880720E-02    5.2992509084E-02    5.0662731088E-02    4.8408472401E-02
    4.6228595162E-02    4.4121903380E-02    4.2087148516E-02    4.0123035168E-02
    3.8228226779E-02    3.6401351265E-02    3.4641006520E-02    3.2945765710E-02
    3.1314182324E-02    2.9744794914E-02    2.8236131509E-02    2.6786713666E-02
    2.5395060140E-02    2.4059690176E-02    2.2779126411E-02    2.1551897410E-02
    2.0376539837E-02    1.9251600301E-02    1.8175636891E-02    1.7147220446E-02
    1.6164935577E-02    1.5227381507E-02    1.4333172734E-02    1.3480939578E-02
    1.2669328635E-02    1.1897003167E-02    1.1162643473E-02    1.0464947235E-02
    9.8026298918E-03    9.1744250267E-03    8.5790847997E-03    8.0153804162E-03
    7.4821026432E-03    6.9780623667E-03    6.5020911893E-03    6.0530420590E-03
    5.6297899234E-03    5.2312323979E-03    4.8562904386E-03    4.5039090105E-03
    4.1730577375E-03    3.8627315283E-03    3.5719511645E-03    3.2997638464E-03
    3.0452436846E-03    2.8074921357E-03    2.5856383713E-03    2.3788395812E-03
    2.1862812033E-03    2.0071770807E-03    1.8407695441E-03    1.6863294184E-03
    1.5431559567E-03    1.4105766993E-03    1.2879472644E-03    1.1746510686E-03
    1.0700989848E-03    9.7372893783E-04    8.8500544354E-04    8.0341909523E-04
    7.2848600196E-04    6.5974718312E-04    5.9676792426E-04    5.3913709864E-04
    4.8646645921E-04    4.3838990578E-04    3.9456273155E-04    3.5466085368E-04
    3.1838003179E-04    2.8543507861E-04    2.5555906634E-04    2.2850253248E-04
    2.0403268834E-04    1.8193263332E-04    1.6200057788E-04    1.4404907787E-04
    1.2790428036E-04    1.1340523156E-04
   </PP_CHI.3>
   <PP_CHI.4
       type="real"
       size="1078"
       columns="4"
       index="4"
       occupation=" 2.000"
       pseudo_energy="   -0.3466221351E+00"
       label="4S"
       l="0" >
    0.0000000000E+00   -1.0876469082E-05   -1.1013278221E-05   -1.1151808208E-05
   -1.1292080688E-05   -1.1434117578E-05   -1.1577941072E-05   -1.1723573643E-05
   -1.1871038046E-05   -1.2020357323E-05   -1.2171554806E-05   -1.2324654118E-05
   -1.2479679183E-05   -1.2636654223E-05   -1.2795603766E-05   -1.2956552648E-05
   -1.3119526018E-05   -1.3284549341E-05   -1.3451648401E-05   -1.3620849309E-05
   -1.3792178503E-05   -1.3965662752E-05   -1.4141329164E-05   -1.4319205188E-05
   -1.4499318617E-05   -1.4681697594E-05   -1.4866370616E-05   -1.5053366539E-05
   -1.5242714580E-05   -1.5434444327E-05   -1.5628585738E-05   -1.5825169146E-05
   -1.6024225270E-05   -1.6225785211E-05   -1.6429880465E-05   -1.6636542920E-05
   -1.6845804869E-05   -1.7057699010E-05   -1.7272258451E-05   -1.7489516717E-05
   -1.7709507755E-05   -1.7932265941E-05   -1.8157826079E-05   -1.8386223415E-05
   -1.8617493636E-05   -1.8851672877E-05   -1.9088797731E-05   -1.9328905249E-05
   -1.9572032947E-05   -1.9818218815E-05   -2.0067501321E-05   -2.0319919414E-05
   -2.0575512536E-05   -2.0834320623E-05   -2.1096384116E-05   -2.1361743961E-05
   -2.1630441623E-05   -2.1902519085E-05   -2.2178018860E-05   -2.2456983996E-05
   -2.2739458081E-05   -2.3025485253E-05   -2.3315110203E-05   -2.3608378187E-05
   -2.3905335029E-05   -2.4206027127E-05   -2.4510501466E-05   -2.4818805622E-05
   -2.5130987766E-05   -2.5447096678E-05   -2.5767181750E-05   -2.6091292997E-05
   -2.6419481062E-05   -2.6751797224E-05   -2.7088293410E-05   -2.7429022196E-05
   -2.7774036822E-05   -2.8123391199E-05   -2.8477139912E-05   -2.8835338237E-05
   -2.9198042142E-05   -2.9565308300E-05   -2.9937194098E-05   -3.0313757643E-05
   -3.0695057775E-05   -3.1081154071E-05   -3.1472106862E-05   -3.1867977233E-05
   -3.2268827040E-05   -3.2674718917E-05   -3.3085716286E-05   -3.3501883365E-05
   -3.3923285181E-05   -3.4349987580E-05   -3.4782057234E-05   -3.5219561655E-05
   -3.5662569205E-05   -3.6111149103E-05   -3.6565371442E-05   -3.7025307195E-05
   -3.7491028227E-05   -3.7962607309E-05   -3.8440118125E-05   -3.8923635288E-05
   -3.9413234348E-05   -3.9908991806E-05   -4.0410985125E-05   -4.0919292743E-05
   -4.1433994084E-05   -4.1955169570E-05   -4.2482900637E-05   -4.3017269744E-05
   -4.3558360386E-05   -4.4106257111E-05   -4.4661045528E-05   -4.5222812325E-05
   -4.5791645277E-05   -4.6367633268E-05   -4.6950866295E-05   -4.7541435491E-05
   -4.8139433133E-05   -4.8744952659E-05   -4.9358088683E-05   -4.9978937009E-05
   -5.0607594646E-05   -5.1244159822E-05   -5.1888732002E-05   -5.2541411902E-05
   -5.3202301504E-05   -5.3871504074E-05   -5.4549124177E-05   -5.5235267690E-05
   -5.5930041827E-05   -5.6633555147E-05   -5.7345917574E-05   -5.8067240418E-05
   -5.8797636386E-05   -5.9537219605E-05   -6.0286105635E-05   -6.1044411491E-05
   -6.1812255661E-05   -6.2589758122E-05   -6.3377040359E-05   -6.4174225388E-05
   -6.4981437770E-05   -6.5798803634E-05   -6.6626450695E-05   -6.7464508274E-05
   -6.8313107319E-05   -6.9172380426E-05   -7.0042461859E-05   -7.0923487568E-05
   -7.1815595217E-05   -7.2718924198E-05   -7.3633615659E-05   -7.4559812521E-05
   -7.5497659507E-05   -7.6447303154E-05   -7.7408891849E-05   -7.8382575840E-05
   -7.9368507267E-05   -8.0366840185E-05   -8.1377730585E-05   -8.2401336421E-05
   -8.3437817633E-05   -8.4487336174E-05   -8.5550056033E-05   -8.6626143261E-05
   -8.7715766001E-05   -8.8819094506E-05   -8.9936301176E-05   -9.1067560576E-05
   -9.2213049467E-05   -9.3372946834E-05   -9.4547433913E-05   -9.5736694221E-05
   -9.6940913582E-05   -9.8160280158E-05   -9.9394984477E-05   -1.0064521946E-04
   -1.0191118047E-04   -1.0319306531E-04   -1.0449107427E-04   -1.0580541017E-04
   -1.0713627838E-04   -1.0848388686E-04   -1.0984844616E-04   -1.1123016950E-04
   -1.1262927279E-04   -1.1404597463E-04   -1.1548049638E-04   -1.1693306219E-04
   -1.1840389903E-04   -1.1989323672E-04   -1.2140130798E-04   -1.2292834843E-04
   -1.2447459668E-04   -1.2604029435E-04   -1.2762568607E-04   -1.2923101955E-04
   -1.3085654565E-04   -1.3250251835E-04   -1.3416919483E-04   -1.3585683552E-04
   -1.3756570412E-04   -1.3929606764E-04   -1.4104819645E-04   -1.4282236433E-04
   -1.4461884849E-04   -1.4643792964E-04   -1.4827989201E-04   -1.5014502342E-04
   -1.5203361529E-04   -1.5394596272E-04   -1.5588236452E-04   -1.5784312325E-04
   -1.5982854529E-04   -1.6183894086E-04   -1.6387462410E-04   -1.6593591307E-04
   -1.6802312987E-04   -1.7013660063E-04   -1.7227665557E-04   -1.7444362908E-04
   -1.7663785977E-04   -1.7885969047E-04   -1.8110946837E-04   -1.8338754498E-04
   -1.8569427627E-04   -1.8803002267E-04   -1.9039514914E-04   -1.9279002523E-04
   -1.9521502515E-04   -1.9767052781E-04   -2.0015691690E-04   -2.0267458090E-04
   -2.0522391322E-04   -2.0780531218E-04   -2.1041918115E-04   -2.1306592853E-04
   -2.1574596790E-04   -2.1845971800E-04   -2.2120760288E-04   -2.2399005189E-04
   -2.2680749980E-04   -2.2966038684E-04   -2.3254915877E-04   -2.3547426697E-04
   -2.3843616851E-04   -2.4143532617E-04   -2.4447220859E-04   -2.4754729028E-04
   -2.5066105173E-04   -2.5381397947E-04   -2.5700656616E-04   -2.6023931064E-04
   -2.6351271803E-04   -2.6682729981E-04   -2.7018357389E-04   -2.7358206469E-04
   -2.7702330324E-04   -2.8050782724E-04   -2.8403618114E-04   -2.8760891626E-04
   -2.9122659086E-04   -2.9488977018E-04   -2.9859902662E-04   -3.0235493976E-04
   -3.0615809645E-04   -3.1000909096E-04   -3.1390852501E-04   -3.1785700789E-04
   -3.2185515655E-04   -3.2590359573E-04   -3.3000295798E-04   -3.3415388386E-04
   -3.3835702194E-04   -3.4261302898E-04   -3.4692256998E-04   -3.5128631832E-04
   -3.5570495584E-04   -3.6017917296E-04   -3.6470966880E-04   -3.6929715123E-04
   -3.7394233707E-04   -3.7864595215E-04   -3.8340873139E-04   -3.8823141901E-04
   -3.9311476854E-04   -3.9805954303E-04   -4.0306651511E-04   -4.0813646712E-04
   -4.1327019124E-04   -4.1846848965E-04   -4.2373217457E-04   -4.2906206848E-04
   -4.3445900417E-04   -4.3992382492E-04   -4.4545738463E-04   -4.5106054791E-04
   -4.5673419029E-04   -4.6247919826E-04   -4.6829646951E-04   -4.7418691299E-04
   -4.8015144908E-04   -4.8619100977E-04   -4.9230653874E-04   -4.9849899155E-04
   -5.0476933578E-04   -5.1111855119E-04   -5.1754762985E-04   -5.2405757632E-04
   -5.3064940779E-04   -5.3732415423E-04   -5.4408285860E-04   -5.5092657694E-04
   -5.5785637861E-04   -5.6487334639E-04   -5.7197857669E-04   -5.7917317973E-04
   -5.8645827966E-04   -5.9383501480E-04   -6.0130453777E-04   -6.0886801570E-04
   -6.1652663039E-04   -6.2428157851E-04   -6.3213407179E-04   -6.4008533719E-04
   -6.4813661710E-04   -6.5628916955E-04   -6.6454426838E-04   -6.7290320348E-04
   -6.8136728093E-04   -6.8993782325E-04   -6.9861616961E-04   -7.0740367602E-04
   -7.1630171552E-04   -7.2531167845E-04   -7.3443497264E-04   -7.4367302359E-04
   -7.5302727478E-04   -7.6249918782E-04   -7.7209024270E-04   -7.8180193804E-04
   -7.9163579131E-04   -8.0159333904E-04   -8.1167613713E-04   -8.2188576102E-04
   -8.3222380597E-04   -8.4269188732E-04   -8.5329164072E-04   -8.6402472238E-04
   -8.7489280937E-04   -8.8589759982E-04   -8.9704081326E-04   -9.0832419082E-04
   -9.1974949553E-04   -9.3131851261E-04   -9.4303304973E-04   -9.5489493730E-04
   -9.6690602874E-04   -9.7906820080E-04   -9.9138335382E-04   -1.0038534121E-03
   -1.0164803240E-03   -1.0292660625E-03   -1.0422126255E-03   -1.0553220357E-03
   -1.0685963417E-03   -1.0820376174E-03   -1.0956479631E-03   -1.1094295055E-03
   -1.1233843978E-03   -1.1375148206E-03   -1.1518229816E-03   -1.1663111167E-03
   -1.1809814895E-03   -1.1958363924E-03   -1.2108781462E-03   -1.2261091015E-03
   -1.2415316379E-03   -1.2571481653E-03   -1.2729611238E-03   -1.2889729840E-03
   -1.3051862479E-03   -1.3216034488E-03   -1.3382271519E-03   -1.3550599545E-03
   -1.3721044869E-03   -1.3893634122E-03   -1.4068394271E-03   -1.4245352623E-03
   -1.4424536826E-03   -1.4605974879E-03   -1.4789695131E-03   -1.4975726288E-03
   -1.5164097416E-03   -1.5354837950E-03   -1.5547977692E-03   -1.5743546820E-03
   -1.5941575890E-03   -1.6142095846E-03   -1.6345138017E-03   -1.6550734130E-03
   -1.6758916307E-03   -1.6969717077E-03   -1.7183169377E-03   -1.7399306559E-03
   -1.7618162394E-03   -1.7839771077E-03   -1.8064167235E-03   -1.8291385928E-03
   -1.8521462659E-03   -1.8754433377E-03   -1.8990334483E-03   -1.9229202835E-03
   -1.9471075756E-03   -1.9715991039E-03   -1.9963986950E-03   -2.0215102237E-03
   -2.0469376138E-03   -2.0726848380E-03   -2.0987559193E-03   -2.1251549312E-03
   -2.1518859985E-03   -2.1789532977E-03   -2.2063610580E-03   -2.2341135617E-03
   -2.2622151451E-03   -2.2906701988E-03   -2.3194831689E-03   -2.3486585571E-03
   -2.3782009220E-03   -2.4081148794E-03   -2.4384051032E-03   -2.4690763260E-03
   -2.5001333401E-03   -2.5315809978E-03   -2.5634242128E-03   -2.5956679601E-03
   -2.6283172778E-03   -2.6613772669E-03   -2.6948530930E-03   -2.7287499863E-03
   -2.7630732429E-03   -2.7978282255E-03   -2.8330203643E-03   -2.8686551578E-03
   -2.9047381736E-03   -2.9412750492E-03   -2.9782714933E-03   -3.0157332861E-03
   -3.0536662807E-03   -3.0920764036E-03   -3.1309696561E-03   -3.1703521147E-03
   -3.2102299325E-03   -3.2506093399E-03   -3.2914966457E-03   -3.3328982381E-03
   -3.3748205854E-03   -3.4172702374E-03   -3.4602538264E-03   -3.5037780678E-03
   -3.5478497618E-03   -3.5924757938E-03   -3.6376631359E-03   -3.6834188479E-03
   -3.7297500785E-03   -3.7766640660E-03   -3.8241681399E-03   -3.8722697220E-03
   -3.9209763271E-03   -3.9702955647E-03   -4.0202351401E-03   -4.0708028552E-03
   -4.1220066102E-03   -4.1738544046E-03   -4.2263543384E-03   -4.2795146137E-03
   -4.3333435354E-03   -4.3878495130E-03   -4.4430410618E-03   -4.4989268040E-03
   -4.5555154703E-03   -4.6128159013E-03   -4.6708370484E-03   -4.7295879760E-03
   -4.7890778621E-03   -4.8493160003E-03   -4.9103118009E-03   -4.9720747926E-03
   -5.0346146239E-03   -5.0979410646E-03   -5.1620640072E-03   -5.2269934688E-03
   -5.2927395923E-03   -5.3593126480E-03   -5.4267230355E-03   -5.4949812850E-03
   -5.5640980592E-03   -5.6340841547E-03   -5.7049505039E-03   -5.7767081766E-03
   -5.8493683819E-03   -5.9229424694E-03   -5.9974419318E-03   -6.0728784059E-03
   -6.1492636751E-03   -6.2266096706E-03   -6.3049284738E-03   -6.3842323177E-03
   -6.4645335893E-03   -6.5458448311E-03   -6.6281787433E-03   -6.7115481856E-03
   -6.7959661796E-03   -6.8814459101E-03   -6.9680007280E-03   -7.0556441516E-03
   -7.1443898695E-03   -7.2342517418E-03   -7.3252438032E-03   -7.4173802644E-03
   -7.5106755149E-03   -7.6051441248E-03   -7.7008008475E-03   -7.7976606213E-03
   -7.8957385727E-03   -7.9950500179E-03   -8.0956104655E-03   -8.1974356190E-03
   -8.3005413792E-03   -8.4049438466E-03   -8.5106593237E-03   -8.6177043180E-03
   -8.7260955443E-03   -8.8358499273E-03   -8.9469846040E-03   -9.0595169270E-03
   -9.1734644665E-03   -9.2888450134E-03   -9.4056765820E-03   -9.5239774128E-03
   -9.6437659751E-03   -9.7650609704E-03   -9.8878813346E-03   -1.0012246242E-02
   -1.0138175106E-02   -1.0265687585E-02   -1.0394803585E-02   -1.0525543259E-02
   -1.0657927015E-02   -1.0791975517E-02   -1.0927709688E-02   -1.1065150713E-02
   -1.1204320043E-02   -1.1345239398E-02   -1.1487930771E-02   -1.1632416431E-02
   -1.1778718925E-02   -1.1926861083E-02   -1.2076866024E-02   -1.2228757152E-02
   -1.2382558169E-02   -1.2538293071E-02   -1.2695986158E-02   -1.2855662030E-02
   -1.3017345599E-02   -1.3181062088E-02   -1.3346837036E-02   -1.3514696302E-02
   -1.3684666069E-02   -1.3856772848E-02   -1.4031043482E-02   -1.4207505149E-02
   -1.4386185370E-02   -1.4567112007E-02   -1.4750313273E-02   -1.4935817735E-02
   -1.5123654315E-02   -1.5313852298E-02   -1.5506441335E-02   -1.5701451450E-02
   -1.5898913038E-02   -1.6098856879E-02   -1.6301314133E-02   -1.6506316355E-02
   -1.6713895488E-02   -1.6924083880E-02   -1.7136914279E-02   -1.7352419843E-02
   -1.7570634145E-02   -1.7791591177E-02   -1.8015325354E-02   -1.8241871520E-02
   -1.8471264957E-02   -1.8703541382E-02   -1.8938736962E-02   -1.9176888313E-02
   -1.9418032505E-02   -1.9662207073E-02   -1.9909450019E-02   -2.0159799815E-02
   -2.0413295416E-02   -2.0669976259E-02   -2.0929882272E-02   -2.1193053879E-02
   -2.1459532008E-02   -2.1729358093E-02   -2.2002574085E-02   -2.2279222452E-02
   -2.2559346193E-02   -2.2842988838E-02   -2.3130194457E-02   -2.3421007666E-02
   -2.3715473632E-02   -2.4013638084E-02   -2.4315547314E-02   -2.4621248187E-02
   -2.4930788147E-02   -2.5244215224E-02   -2.5561578041E-02   -2.5882925819E-02
   -2.6208308387E-02   -2.6537776188E-02   -2.6871380283E-02   -2.7209172364E-02
   -2.7551204755E-02   -2.7897530424E-02   -2.8248202990E-02   -2.8603276725E-02
   -2.8962806569E-02   -2.9326848132E-02   -2.9695457703E-02   -3.0068692259E-02
   -3.0446609471E-02   -3.0829267712E-02   -3.1216726065E-02   -3.1609044332E-02
   -3.2006283036E-02   -3.2408503439E-02   -3.2815767539E-02   -3.3228138085E-02
   -3.3645678583E-02   -3.4068453301E-02   -3.4496527283E-02   -3.4929966350E-02
   -3.5368837113E-02   -3.5813206979E-02   -3.6263144158E-02   -3.6718717672E-02
   -3.7179997364E-02   -3.7647053902E-02   -3.8119958791E-02   -3.8598784380E-02
   -3.9083603865E-02   -3.9574491304E-02   -4.0071521618E-02   -4.0574770603E-02
   -4.1084314936E-02   -4.1600232180E-02   -4.2122600793E-02   -4.2651500137E-02
   -4.3187010481E-02   -4.3729213010E-02   -4.4278189831E-02   -4.4834023980E-02
   -4.5396799426E-02   -4.5966601079E-02   -4.6543514794E-02   -4.7127627380E-02
   -4.7719026597E-02   -4.8317801171E-02   -4.8924040790E-02   -4.9537836112E-02
   -5.0159278767E-02   -5.0788461361E-02   -5.1425477479E-02   -5.2070421685E-02
   -5.2723389527E-02   -5.3384477532E-02   -5.4053783213E-02   -5.4731405065E-02
   -5.5417442565E-02   -5.6111996168E-02   -5.6815167307E-02   -5.7527058388E-02
   -5.8247772786E-02   -5.8977414837E-02   -5.9716089835E-02   -6.0463904022E-02
   -6.1220964578E-02   -6.1987379613E-02   -6.2763258153E-02   -6.3548710127E-02
   -6.4343846354E-02   -6.5148778522E-02   -6.5963619175E-02   -6.6788481688E-02
   -6.7623480245E-02   -6.8468729820E-02   -6.9324346141E-02   -7.0190445667E-02
   -7.1067145555E-02   -7.1954563623E-02   -7.2852818314E-02   -7.3762028656E-02
   -7.4682314215E-02   -7.5613795049E-02   -7.6556591658E-02   -7.7510824925E-02
   -7.8476616060E-02   -7.9454086536E-02   -8.0443358017E-02   -8.1444552286E-02
   -8.2457791170E-02   -8.3483196449E-02   -8.4520889771E-02   -8.5570992553E-02
   -8.6633625878E-02   -8.7708910386E-02   -8.8796966156E-02   -8.9897912580E-02
   -9.1011868232E-02   -9.2138950724E-02   -9.3279276554E-02   -9.4432960948E-02
   -9.5600117686E-02   -9.6780858923E-02   -9.7975294992E-02   -9.9183534203E-02
   -1.0040568262E-01   -1.0164184384E-01   -1.0289211873E-01   -1.0415660519E-01
   -1.0543539786E-01   -1.0672858783E-01   -1.0803626233E-01   -1.0935850443E-01
   -1.1069539264E-01   -1.1204700060E-01   -1.1341339665E-01   -1.1479464345E-01
   -1.1619079753E-01   -1.1760190884E-01   -1.1902802026E-01   -1.2046916710E-01
   -1.2192537656E-01   -1.2339666716E-01   -1.2488304815E-01   -1.2638451886E-01
   -1.2790106807E-01   -1.2943267328E-01   -1.3097929999E-01   -1.3254090092E-01
   -1.3411741520E-01   -1.3570876752E-01   -1.3731486722E-01   -1.3893560735E-01
   -1.4057086368E-01   -1.4222049364E-01   -1.4388433526E-01   -1.4556220602E-01
   -1.4725390163E-01   -1.4895919478E-01   -1.5067783384E-01   -1.5240954147E-01
   -1.5415401319E-01   -1.5591091588E-01   -1.5767988619E-01   -1.5946052892E-01
   -1.6125241534E-01   -1.6305508133E-01   -1.6486802562E-01   -1.6669070777E-01
   -1.6852254625E-01   -1.7036291630E-01   -1.7221114777E-01   -1.7406652289E-01
   -1.7592827395E-01   -1.7779558086E-01   -1.7966756869E-01   -1.8154330508E-01
   -1.8342179759E-01   -1.8530199097E-01   -1.8718276430E-01   -1.8906292815E-01
   -1.9094122158E-01   -1.9281630907E-01   -1.9468677741E-01   -1.9655113252E-01
   -1.9840779620E-01   -2.0025510279E-01   -2.0209129580E-01   -2.0391452454E-01
   -2.0572284062E-01   -2.0751419449E-01   -2.0928643195E-01   -2.1103729060E-01
   -2.1276439637E-01   -2.1446526000E-01   -2.1613727359E-01   -2.1777770719E-01
   -2.1938370542E-01   -2.2095228427E-01   -2.2248032785E-01   -2.2396458542E-01
   -2.2540166849E-01   -2.2678804811E-01   -2.2812005239E-01   -2.2939386422E-01
   -2.3060551930E-01   -2.3175090443E-01   -2.3282575619E-01   -2.3382565995E-01
   -2.3474604931E-01   -2.3558220605E-01   -2.3632926052E-01   -2.3698219258E-01
   -2.3753583322E-01   -2.3798486673E-01   -2.3832383364E-01   -2.3854713438E-01
   -2.3864903374E-01   -2.3862366624E-01   -2.3846504233E-01   -2.3816705568E-01
   -2.3772349133E-01   -2.3712803512E-01   -2.3637428406E-01   -2.3545575801E-01
   -2.3436591254E-01   -2.3309815307E-01   -2.3164585033E-01   -2.3000235716E-01
   -2.2816102670E-01   -2.2611523201E-01   -2.2385838703E-01   -2.2138396907E-01
   -2.1868554263E-01   -2.1575678471E-01   -2.1259151138E-01   -2.0918370583E-01
   -2.0552754758E-01   -2.0161744293E-01   -1.9744805656E-01   -1.9301434407E-01
   -1.8831158542E-01   -1.8333541907E-01   -1.7808187666E-01   -1.7254741804E-01
   -1.6672896639E-01   -1.6062394323E-01   -1.5423030300E-01   -1.4754656698E-01
   -1.4057185611E-01   -1.3330592256E-01   -1.2574917950E-01   -1.1790272874E-01
   -1.0976838602E-01   -1.0134870323E-01   -9.2646987460E-02   -8.3667316255E-02
   -7.4414548817E-02   -6.4894332661E-02   -5.5113105424E-02   -4.5078091458E-02
   -3.4797292929E-02   -2.4279475172E-02   -1.3534146108E-02   -2.5715296419E-03
    8.5974670195E-03    1.9961292025E-02    3.1507793358E-02    4.3224268833E-02
    5.5097521205E-02    6.7113917841E-02    7.9259454293E-02    9.1519820959E-02
    1.0388047193E-01    1.1632669499E-01    1.2884368159E-01    1.4141659570E-01
    1.5403064021E-01    1.6667111969E-01    1.7932349828E-01    1.9197345169E-01
    2.0460691221E-01    2.1721010621E-01    2.2976958358E-01    2.4227223905E-01
    2.5470532583E-01    2.6705646250E-01    2.7931363456E-01    2.9146519278E-01
    3.0349985141E-01    3.1540669117E-01    3.2717516793E-01    3.3879512881E-01
    3.5025684151E-01    3.6155095848E-01    3.7266840145E-01    3.8360034878E-01
    3.9433824124E-01    4.0487378734E-01    4.1519896748E-01    4.2530603689E-01
    4.3518752717E-01    4.4483624647E-01    4.5424527806E-01    4.6340797745E-01
    4.7231796784E-01    4.8096913426E-01    4.8935561633E-01    4.9747180008E-01
    5.0531230917E-01    5.1287199587E-01    5.2014593254E-01    5.2712940395E-01
    5.3381790115E-01    5.4020711727E-01    5.4629294579E-01    5.5207148134E-01
    5.5753902316E-01    5.6269208130E-01    5.6752738492E-01    5.7204189265E-01
    5.7623280431E-01    5.8009757347E-01    5.8363392042E-01    5.8683984486E-01
    5.8971363808E-01    5.9225389415E-01    5.9445951999E-01    5.9632974405E-01
    5.9786412369E-01    5.9906255114E-01    5.9992525814E-01    6.0045281940E-01
    6.0064615489E-01    6.0050653120E-01    6.0003556197E-01    5.9923520760E-01
    5.9810777427E-01    5.9665591237E-01    5.9488261450E-01    5.9279121296E-01
    5.9038537687E-01    5.8766910897E-01    5.8464674211E-01    5.8132293548E-01
    5.7770267059E-01    5.7379124705E-01    5.6959427817E-01    5.6511768645E-01
    5.6036769886E-01    5.5535084208E-01    5.5007393764E-01    5.4454409700E-01
    5.3876871652E-01    5.3275547244E-01    5.2651231566E-01    5.2004746648E-01
    5.1336940910E-01    5.0648688588E-01    4.9940889116E-01    4.9214466464E-01
    4.8470368390E-01    4.7709565622E-01    4.6933050902E-01    4.6141837909E-01
    4.5336960004E-01    4.4519468785E-01    4.3690432420E-01    4.2850933739E-01
    4.2002068068E-01    4.1144940785E-01    4.0280664609E-01    3.9410356621E-01
    3.8535135032E-01    3.7656115737E-01    3.6774408683E-01    3.5891114110E-01
    3.5007318714E-01    3.4124091795E-01    3.3242481463E-01    3.2363510953E-01
    3.1488175123E-01    3.0617437193E-01    2.9752225761E-01    2.8893432159E-01
    2.8041908163E-01    2.7198464095E-01    2.6363867314E-01    2.5538841116E-01
    2.4724064016E-01    2.3920169420E-01    2.3127745649E-01    2.2347336299E-01
    2.1579440892E-01    2.0824515807E-01    2.0082975430E-01    1.9355193491E-01
    1.8641504566E-01    1.7942205682E-01    1.7257558002E-01    1.6587788550E-01
    1.5933091948E-01    1.5293632131E-01    1.4669544008E-01    1.4060935061E-01
    1.3467886846E-01    1.2890456400E-01    1.2328677519E-01    1.1782561932E-01
    1.1252100340E-01    1.0737263346E-01    1.0238002266E-01    9.7542498433E-02
    9.2859208654E-02    8.8329127138E-02    8.3951058477E-02    7.9723642488E-02
    7.5645358373E-02    7.1714528807E-02    6.7929324052E-02    6.4287766280E-02
    6.0787734181E-02    5.7426967974E-02    5.4203074886E-02    5.1113535144E-02
    4.8155708501E-02    4.5326841318E-02    4.2624074157E-02    4.0044449888E-02
    3.7584922235E-02    3.5242364715E-02    3.3013579907E-02    3.0895308970E-02
    2.8884241338E-02    2.6977024520E-02    2.5170273909E-02    2.3460582548E-02
    2.1844530765E-02    2.0318695615E-02    1.8879660062E-02    1.7524021858E-02
    1.6248402047E-02    1.5049453075E-02    1.3923866447E-02    1.2868379918E-02
    1.1879784176E-02    1.0954929024E-02    1.0090729016E-02    9.2841685715E-03
    8.5323065413E-03    7.8322802456E-03    7.1813089776E-03    6.5766969906E-03
    6.0158359776E-03    5.4962070635E-03    5.0153823240E-03    4.5710258565E-03
    4.1608944222E-03    3.7828376844E-03    3.4347980679E-03    3.1148102654E-03
    2.8210004157E-03    2.5515849818E-03    2.3048693538E-03    2.0792462035E-03
    1.8731936163E-03    1.6852730260E-03    1.5141269764E-03    1.3584767354E-03
    1.2171197630E-03    1.0889275176E-03
   </PP_CHI.4>
 </PP_PSWFC>
 <PP_NLCC type="real"  size="1078" columns="4">
    0.0000000000E+00    7.7548402434E+00    7.7548402427E+00    7.7548402420E+00
    7.7548402412E+00    7.7548402405E+00    7.7548402397E+00    7.7548402389E+00
    7.7548402381E+00    7.7548402373E+00    7.7548402365E+00    7.7548402356E+00
    7.7548402347E+00    7.7548402338E+00    7.7548402329E+00    7.7548402319E+00
    7.7548402309E+00    7.7548402299E+00    7.7548402289E+00    7.7548402278E+00
    7.7548402267E+00    7.7548402256E+00    7.7548402245E+00    7.7548402233E+00
    7.7548402221E+00    7.7548402209E+00    7.7548402196E+00    7.7548402183E+00
    7.7548402170E+00    7.7548402156E+00    7.7548402142E+00    7.7548402128E+00
    7.7548402113E+00    7.7548402098E+00    7.7548402083E+00    7.7548402067E+00
    7.7548402050E+00    7.7548402034E+00    7.7548402017E+00    7.7548401999E+00
    7.7548401981E+00    7.7548401963E+00    7.7548401944E+00    7.7548401925E+00
    7.7548401905E+00    7.7548401885E+00    7.7548401864E+00    7.7548401842E+00
    7.7548401821E+00    7.7548401798E+00    7.7548401775E+00    7.7548401751E+00
    7.7548401727E+00    7.7548401702E+00    7.7548401677E+00    7.7548401651E+00
    7.7548401624E+00    7.7548401597E+00    7.7548401569E+00    7.7548401540E+00
    7.7548401510E+00    7.7548401480E+00    7.7548401449E+00    7.7548401417E+00
    7.7548401384E+00    7.7548401351E+00    7.7548401316E+00    7.7548401281E+00
    7.7548401245E+00    7.7548401208E+00    7.7548401170E+00    7.7548401131E+00
    7.7548401091E+00    7.7548401050E+00    7.7548401008E+00    7.7548400965E+00
    7.7548400921E+00    7.7548400876E+00    7.7548400829E+00    7.7548400782E+00
    7.7548400733E+00    7.7548400683E+00    7.7548400632E+00    7.7548400579E+00
    7.7548400526E+00    7.7548400470E+00    7.7548400414E+00    7.7548400356E+00
    7.7548400296E+00    7.7548400235E+00    7.7548400172E+00    7.7548400108E+00
    7.7548400042E+00    7.7548399975E+00    7.7548399906E+00    7.7548399835E+00
    7.7548399762E+00    7.7548399687E+00    7.7548399611E+00    7.7548399533E+00
    7.7548399452E+00    7.7548399370E+00    7.7548399285E+00    7.7548399199E+00
    7.7548399110E+00    7.7548399019E+00    7.7548398925E+00    7.7548398830E+00
    7.7548398731E+00    7.7548398631E+00    7.7548398528E+00    7.7548398422E+00
    7.7548398313E+00    7.7548398202E+00    7.7548398088E+00    7.7548397971E+00
    7.7548397851E+00    7.7548397728E+00    7.7548397602E+00    7.7548397473E+00
    7.7548397340E+00    7.7548397204E+00    7.7548397065E+00    7.7548396922E+00
    7.7548396776E+00    7.7548396626E+00    7.7548396472E+00    7.7548396314E+00
    7.7548396152E+00    7.7548395986E+00    7.7548395816E+00    7.7548395641E+00
    7.7548395462E+00    7.7548395279E+00    7.7548395091E+00    7.7548394898E+00
    7.7548394700E+00    7.7548394498E+00    7.7548394290E+00    7.7548394077E+00
    7.7548393858E+00    7.7548393634E+00    7.7548393405E+00    7.7548393169E+00
    7.7548392928E+00    7.7548392680E+00    7.7548392426E+00    7.7548392166E+00
    7.7548391899E+00    7.7548391625E+00    7.7548391345E+00    7.7548391057E+00
    7.7548390762E+00    7.7548390460E+00    7.7548390150E+00    7.7548389832E+00
    7.7548389506E+00    7.7548389172E+00    7.7548388829E+00    7.7548388478E+00
    7.7548388117E+00    7.7548387748E+00    7.7548387369E+00    7.7548386981E+00
    7.7548386583E+00    7.7548386175E+00    7.7548385756E+00    7.7548385327E+00
    7.7548384887E+00    7.7548384436E+00    7.7548383973E+00    7.7548383499E+00
    7.7548383013E+00    7.7548382514E+00    7.7548382003E+00    7.7548381479E+00
    7.7548380941E+00    7.7548380390E+00    7.7548379825E+00    7.7548379246E+00
    7.7548378652E+00    7.7548378043E+00    7.7548377419E+00    7.7548376779E+00
    7.7548376122E+00    7.7548375449E+00    7.7548374759E+00    7.7548374052E+00
    7.7548373326E+00    7.7548372583E+00    7.7548371820E+00    7.7548371038E+00
    7.7548370236E+00    7.7548369414E+00    7.7548368571E+00    7.7548367707E+00
    7.7548366821E+00    7.7548365913E+00    7.7548364981E+00    7.7548364026E+00
    7.7548363047E+00    7.7548362043E+00    7.7548361013E+00    7.7548359958E+00
    7.7548358876E+00    7.7548357766E+00    7.7548356628E+00    7.7548355462E+00
    7.7548354266E+00    7.7548353040E+00    7.7548351782E+00    7.7548350493E+00
    7.7548349171E+00    7.7548347816E+00    7.7548346426E+00    7.7548345002E+00
    7.7548343541E+00    7.7548342043E+00    7.7548340507E+00    7.7548338933E+00
    7.7548337318E+00    7.7548335663E+00    7.7548333966E+00    7.7548332225E+00
    7.7548330441E+00    7.7548328612E+00    7.7548326736E+00    7.7548324813E+00
    7.7548322841E+00    7.7548320819E+00    7.7548318746E+00    7.7548316620E+00
    7.7548314441E+00    7.7548312207E+00    7.7548309915E+00    7.7548307566E+00
    7.7548305158E+00    7.7548302688E+00    7.7548300156E+00    7.7548297560E+00
    7.7548294898E+00    7.7548292169E+00    7.7548289371E+00    7.7548286502E+00
    7.7548283560E+00    7.7548280544E+00    7.7548277451E+00    7.7548274280E+00
    7.7548271029E+00    7.7548267696E+00    7.7548264278E+00    7.7548260774E+00
    7.7548257181E+00    7.7548253496E+00    7.7548249719E+00    7.7548245846E+00
    7.7548241875E+00    7.7548237804E+00    7.7548233629E+00    7.7548229349E+00
    7.7548224960E+00    7.7548220461E+00    7.7548215847E+00    7.7548211117E+00
    7.7548206267E+00    7.7548201294E+00    7.7548196195E+00    7.7548190967E+00
    7.7548185607E+00    7.7548180111E+00    7.7548174476E+00    7.7548168698E+00
    7.7548162774E+00    7.7548156700E+00    7.7548150472E+00    7.7548144087E+00
    7.7548137540E+00    7.7548130827E+00    7.7548123945E+00    7.7548116888E+00
    7.7548109652E+00    7.7548102233E+00    7.7548094627E+00    7.7548086828E+00
    7.7548078831E+00    7.7548070632E+00    7.7548062226E+00    7.7548053606E+00
    7.7548044769E+00    7.7548035708E+00    7.7548026417E+00    7.7548016891E+00
    7.7548007124E+00    7.7547997110E+00    7.7547986842E+00    7.7547976315E+00
    7.7547965520E+00    7.7547954453E+00    7.7547943105E+00    7.7547931471E+00
    7.7547919541E+00    7.7547907310E+00    7.7547894769E+00    7.7547881910E+00
    7.7547868726E+00    7.7547855209E+00    7.7547841349E+00    7.7547827138E+00
    7.7547812567E+00    7.7547797628E+00    7.7547782310E+00    7.7547766605E+00
    7.7547750502E+00    7.7547733991E+00    7.7547717063E+00    7.7547699705E+00
    7.7547681909E+00    7.7547663662E+00    7.7547644953E+00    7.7547625770E+00
    7.7547606102E+00    7.7547585936E+00    7.7547565260E+00    7.7547544060E+00
    7.7547522323E+00    7.7547500036E+00    7.7547477185E+00    7.7547453755E+00
    7.7547429733E+00    7.7547405102E+00    7.7547379847E+00    7.7547353954E+00
    7.7547327405E+00    7.7547300183E+00    7.7547272273E+00    7.7547243656E+00
    7.7547214315E+00    7.7547184231E+00    7.7547153385E+00    7.7547121759E+00
    7.7547089331E+00    7.7547056083E+00    7.7547021994E+00    7.7546987041E+00
    7.7546951204E+00    7.7546914459E+00    7.7546876784E+00    7.7546838155E+00
    7.7546798549E+00    7.7546757940E+00    7.7546716303E+00    7.7546673612E+00
    7.7546629840E+00    7.7546584960E+00    7.7546538944E+00    7.7546491763E+00
    7.7546443388E+00    7.7546393788E+00    7.7546342933E+00    7.7546290790E+00
    7.7546237327E+00    7.7546182511E+00    7.7546126307E+00    7.7546068681E+00
    7.7546009596E+00    7.7545949015E+00    7.7545886900E+00    7.7545823213E+00
    7.7545757914E+00    7.7545690962E+00    7.7545622315E+00    7.7545551930E+00
    7.7545479763E+00    7.7545405770E+00    7.7545329903E+00    7.7545252117E+00
    7.7545172360E+00    7.7545090585E+00    7.7545006740E+00    7.7544920773E+00
    7.7544832629E+00    7.7544742254E+00    7.7544649592E+00    7.7544554583E+00
    7.7544457170E+00    7.7544357290E+00    7.7544254883E+00    7.7544149883E+00
    7.7544042225E+00    7.7543931842E+00    7.7543818664E+00    7.7543702622E+00
    7.7543583642E+00    7.7543461651E+00    7.7543336571E+00    7.7543208325E+00
    7.7543076833E+00    7.7542942012E+00    7.7542803779E+00    7.7542662046E+00
    7.7542516726E+00    7.7542367727E+00    7.7542214956E+00    7.7542058318E+00
    7.7541897716E+00    7.7541733048E+00    7.7541564211E+00    7.7541391101E+00
    7.7541213610E+00    7.7541031625E+00    7.7540845033E+00    7.7540653719E+00
    7.7540457562E+00    7.7540256439E+00    7.7540050226E+00    7.7539838793E+00
    7.7539622008E+00    7.7539399735E+00    7.7539171837E+00    7.7538938169E+00
    7.7538698588E+00    7.7538452941E+00    7.7538201077E+00    7.7537942838E+00
    7.7537678062E+00    7.7537406585E+00    7.7537128236E+00    7.7536842841E+00
    7.7536550222E+00    7.7536250197E+00    7.7535942578E+00    7.7535627173E+00
    7.7535303784E+00    7.7534972210E+00    7.7534632244E+00    7.7534283673E+00
    7.7533926279E+00    7.7533559839E+00    7.7533184125E+00    7.7532798901E+00
    7.7532403926E+00    7.7531998956E+00    7.7531583735E+00    7.7531158005E+00
    7.7530721500E+00    7.7530273947E+00    7.7529815066E+00    7.7529344572E+00
    7.7528862170E+00    7.7528367559E+00    7.7527860430E+00    7.7527340466E+00
    7.7526807342E+00    7.7526260726E+00    7.7525700276E+00    7.7525125642E+00
    7.7524536465E+00    7.7523932377E+00    7.7523313002E+00    7.7522677951E+00
    7.7522026830E+00    7.7521359230E+00    7.7520674736E+00    7.7519972920E+00
    7.7519253343E+00    7.7518515556E+00    7.7517759099E+00    7.7516983500E+00
    7.7516188274E+00    7.7515372924E+00    7.7514536942E+00    7.7513679806E+00
    7.7512800980E+00    7.7511899917E+00    7.7510976053E+00    7.7510028813E+00
    7.7509057604E+00    7.7508061820E+00    7.7507040841E+00    7.7505994028E+00
    7.7504920730E+00    7.7503820274E+00    7.7502691976E+00    7.7501535131E+00
    7.7500349017E+00    7.7499132894E+00    7.7497886003E+00    7.7496607567E+00
    7.7495296787E+00    7.7493952847E+00    7.7492574906E+00    7.7491162108E+00
    7.7489713568E+00    7.7488228386E+00    7.7486705633E+00    7.7485144361E+00
    7.7483543596E+00    7.7481902339E+00    7.7480219567E+00    7.7478494232E+00
    7.7476725256E+00    7.7474911538E+00    7.7473051947E+00    7.7471145324E+00
    7.7469190479E+00    7.7467186196E+00    7.7465131224E+00    7.7463024284E+00
    7.7460864062E+00    7.7458649212E+00    7.7456378354E+00    7.7454050074E+00
    7.7451662922E+00    7.7449215410E+00    7.7446706014E+00    7.7444133171E+00
    7.7441495280E+00    7.7438790697E+00    7.7436017740E+00    7.7433174681E+00
    7.7430259752E+00    7.7427271137E+00    7.7424206978E+00    7.7421065367E+00
    7.7417844349E+00    7.7414541921E+00    7.7411156029E+00    7.7407684567E+00
    7.7404125375E+00    7.7400476242E+00    7.7396734897E+00    7.7392899016E+00
    7.7388966213E+00    7.7384934046E+00    7.7380800008E+00    7.7376561531E+00
    7.7372215982E+00    7.7367760662E+00    7.7363192805E+00    7.7358509574E+00
    7.7353708063E+00    7.7348785290E+00    7.7343738201E+00    7.7338563665E+00
    7.7333258472E+00    7.7327819330E+00    7.7322242869E+00    7.7316525629E+00
    7.7310664068E+00    7.7304654552E+00    7.7298493360E+00    7.7292176673E+00
    7.7285700581E+00    7.7279061073E+00    7.7272254039E+00    7.7265275268E+00
    7.7258120441E+00    7.7250785134E+00    7.7243264809E+00    7.7235554818E+00
    7.7227650395E+00    7.7219546658E+00    7.7211238601E+00    7.7202721094E+00
    7.7193988878E+00    7.7185036565E+00    7.7175858633E+00    7.7166449422E+00
    7.7156803130E+00    7.7146913814E+00    7.7136775382E+00    7.7126381589E+00
    7.7115726037E+00    7.7104802171E+00    7.7093603270E+00    7.7082122448E+00
    7.7070352651E+00    7.7058286648E+00    7.7045917028E+00    7.7033236201E+00
    7.7020236386E+00    7.7006909613E+00    7.6993247713E+00    7.6979242316E+00
    7.6964884849E+00    7.6950166523E+00    7.6935078339E+00    7.6919611071E+00
    7.6903755272E+00    7.6887501258E+00    7.6870839112E+00    7.6853758673E+00
    7.6836249530E+00    7.6818301020E+00    7.6799902217E+00    7.6781041931E+00
    7.6761708698E+00    7.6741890775E+00    7.6721576133E+00    7.6700752452E+00
    7.6679407112E+00    7.6657527188E+00    7.6635099440E+00    7.6612110312E+00
    7.6588545916E+00    7.6564392031E+00    7.6539634094E+00    7.6514257190E+00
    7.6488246047E+00    7.6461585026E+00    7.6434258113E+00    7.6406248911E+00
    7.6377540632E+00    7.6348116087E+00    7.6317957677E+00    7.6287047385E+00
    7.6255366768E+00    7.6222896943E+00    7.6189618582E+00    7.6155511901E+00
    7.6120556649E+00    7.6084732099E+00    7.6048017039E+00    7.6010389757E+00
    7.5971828036E+00    7.5932309140E+00    7.5891809804E+00    7.5850306223E+00
    7.5807774041E+00    7.5764188337E+00    7.5719523620E+00    7.5673753808E+00
    7.5626852225E+00    7.5578791584E+00    7.5529543975E+00    7.5479080854E+00
    7.5427373031E+00    7.5374390656E+00    7.5320103206E+00    7.5264479475E+00
    7.5207487557E+00    7.5149094837E+00    7.5089267973E+00    7.5027972887E+00
    7.4965174751E+00    7.4900837970E+00    7.4834926173E+00    7.4767402197E+00
    7.4698228074E+00    7.4627365015E+00    7.4554773400E+00    7.4480412763E+00
    7.4404241776E+00    7.4326218240E+00    7.4246299065E+00    7.4164440263E+00
    7.4080596929E+00    7.3994723231E+00    7.3906772396E+00    7.3816696696E+00
    7.3724447436E+00    7.3629974939E+00    7.3533228537E+00    7.3434156557E+00
    7.3332706308E+00    7.3228824071E+00    7.3122455086E+00    7.3013543543E+00
    7.2902032570E+00    7.2787864225E+00    7.2670979484E+00    7.2551318233E+00
    7.2428819261E+00    7.2303420252E+00    7.2175057776E+00    7.2043667287E+00
    7.1909183114E+00    7.1771538459E+00    7.1630665392E+00    7.1486494852E+00
    7.1338956641E+00    7.1187979428E+00    7.1033490750E+00    7.0875417014E+00
    7.0713683498E+00    7.0548214364E+00    7.0378932659E+00    7.0205760327E+00
    7.0028618218E+00    6.9847426104E+00    6.9662102692E+00    6.9472565639E+00
    6.9278731576E+00    6.9080516128E+00    6.8877833935E+00    6.8670598684E+00
    6.8458723137E+00    6.8242119163E+00    6.8020697774E+00    6.7794369166E+00
    6.7563042759E+00    6.7326627246E+00    6.7085030640E+00    6.6838160331E+00
    6.6585923141E+00    6.6328225387E+00    6.6064972951E+00    6.5796071344E+00
    6.5521425789E+00    6.5240941301E+00    6.4954522770E+00    6.4662075054E+00
    6.4363503080E+00    6.4058711942E+00    6.3747607013E+00    6.3430094063E+00
    6.3106079375E+00    6.2775469877E+00    6.2438173281E+00    6.2094098217E+00
    6.1743154392E+00    6.1385252742E+00    6.1020305598E+00    6.0648226859E+00
    6.0268932175E+00    5.9882339133E+00    5.9488367457E+00    5.9086939213E+00
    5.8677979025E+00    5.8261414297E+00    5.7837175449E+00    5.7405196155E+00
    5.6965413594E+00    5.6517768716E+00    5.6062206501E+00    5.5598676248E+00
    5.5127131855E+00    5.4647532121E+00    5.4159841048E+00    5.3664028157E+00
    5.3160068812E+00    5.2647944552E+00    5.2127643430E+00    5.1599160362E+00
    5.1062497482E+00    5.0517664505E+00    4.9964679096E+00    4.9403567245E+00
    4.8834363649E+00    4.8257112095E+00    4.7671865852E+00    4.7078688058E+00
    4.6477652123E+00    4.5868842113E+00    4.5252353154E+00    4.4628291820E+00
    4.3996776527E+00    4.3357937914E+00    4.2711919231E+00    4.2058876703E+00
    4.1398979900E+00    4.0732412085E+00    4.0059370553E+00    3.9380066955E+00
    3.8694727601E+00    3.8003593746E+00    3.7306921850E+00    3.6604983815E+00
    3.5898067193E+00    3.5186475359E+00    3.4470527660E+00    3.3750559511E+00
    3.3026922465E+00    3.2299984233E+00    3.1570128654E+00    3.0837755621E+00
    3.0103280949E+00    2.9367136184E+00    2.8629768358E+00    2.7891639672E+00
    2.7153227114E+00    2.6415022011E+00    2.5677529500E+00    2.4941267926E+00
    2.4206768158E+00    2.3474572823E+00    2.2745235460E+00    2.2019319576E+00
    2.1297397625E+00    2.0580049890E+00    1.9867863276E+00    1.9161430012E+00
    1.8461346262E+00    1.7768210644E+00    1.7082622661E+00    1.6405181049E+00
    1.5736482031E+00    1.5077117504E+00    1.4427673138E+00    1.3788726414E+00
    1.3160844593E+00    1.2544582627E+00    1.1940481034E+00    1.1349063715E+00
    1.0770835764E+00    1.0206281245E+00    9.6558609740E-01    9.1200103128E-01
    8.5991369800E-01    8.0936189091E-01    7.6038021611E-01    7.1299989119E-01
    6.6724855321E-01    6.2315007782E-01    5.8072441135E-01    5.3998741784E-01
    5.0095074302E-01    4.6362169702E-01    4.2800315776E-01    3.9409349690E-01
    3.6188653006E-01    3.3137149278E-01    3.0253304397E-01    2.7535129786E-01
    2.4980188576E-01    2.2585604832E-01    2.0348075895E-01    1.8263887858E-01
    1.6328934184E-01    1.4538737411E-01    1.2888473869E-01    1.1373001293E-01
    9.9868891686E-02    8.7244516060E-02    7.5797825009E-02    6.5467926958E-02
    5.6192488142E-02    4.7908134038E-02    4.0550859892E-02    3.4056446049E-02
    2.8360873515E-02    2.3400735002E-02    1.9113636574E-02    1.5438584944E-02
    1.2316355535E-02    9.6898365099E-03    7.5043442272E-03    5.7079058690E-03
    4.2515054319E-03    3.0892897690E-03    2.1787319869E-03    1.4807501903E-03
    9.5978033287E-04    5.8380275538E-04    3.2432286027E-04    1.5630725754E-04
    5.8077607334E-05    1.1165247707E-05    1.3051104430E-07    1.2351371927E-05
    3.7786707557E-05    6.8719965143E-05    9.9489397264E-05    1.2621122800E-04
    1.4650213612E-04    1.5920727918E-04    1.6413973198E-04    1.6183668167E-04
    1.5333702115E-04    1.3998413524E-04    1.2325670750E-04    1.0462932452E-04
    8.5463559719E-05    6.6929124073E-05    4.9953623458E-05    3.5198506655E-05
    2.3057968992E-05    1.3676931205E-05    6.9837723496E-06    2.7332798207E-06
    5.5529723195E-07    4.7980302223E-09    6.0957121894E-07    1.9123447439E-06
    3.5049493369E-06    5.0529889804E-06    6.3103755627E-06    7.1239442639E-06
    7.4291345064E-06    7.2383472264E-06    6.6240320856E-06    5.6987919617E-06
    4.5948078437E-06    3.4446948288E-06    2.3655271671E-06    1.4472611056E-06
    7.4619474538E-07    2.8349718259E-07    4.8278504857E-08    4.2152358371E-09
    9.8437704045E-08    2.7125400147E-07    4.6533608002E-07    6.3321141012E-07
    7.4225241480E-07    7.7678353611E-07    7.3737096119E-07    6.3776040132E-07
    5.0022926148E-07    3.5028211537E-07    2.1162526086E-07    1.0221429784E-07
    3.1910254649E-08    1.9250541385E-09    1.5432226138E-11   -2.7021244760E-13
    0.0000000000E+00    0.0000000000E+00    0.0000000000E+00    0.0000000000E+00
    0.0000000000E+00    0.0000000000E+00    0.0000000000E+00    0.0000000000E+00
    0.0000000000E+00    0.0000000000E+00    0.0000000000E+00    0.0000000000E+00
    0.0000000000E+00    0.0000000000E+00    0.0000000000E+00    0.0000000000E+00
    0.0000000000E+00    0.0000000000E+00    0.0000000000E+00    0.0000000000E+00
    0.0000000000E+00    0.0000000000E+00    0.0000000000E+00    0.0000000000E+00
    0.0000000000E+00    0.0000000000E+00    0.0000000000E+00    0.0000000000E+00
    0.0000000000E+00    0.0000000000E+00    0.0000000000E+00    0.0000000000E+00
    0.0000000000E+00    0.0000000000E+00    0.0000000000E+00    0.0000000000E+00
    0.0000000000E+00    0.0000000000E+00    0.0000000000E+00    0.0000000000E+00
    0.0000000000E+00    0.0000000000E+00    0.0000000000E+00    0.0000000000E+00
    0.0000000000E+00    0.0000000000E+00    0.0000000000E+00    0.0000000000E+00
    0.0000000000E+00    0.0000000000E+00    0.0000000000E+00    0.0000000000E+00
    0.0000000000E+00    0.0000000000E+00    0.0000000000E+00    0.0000000000E+00
    0.0000000000E+00    0.0000000000E+00    0.0000000000E+00    0.0000000000E+00
    0.0000000000E+00    0.0000000000E+00    0.0000000000E+00    0.0000000000E+00
    0.0000000000E+00    0.0000000000E+00    0.0000000000E+00    0.0000000000E+00
    0.0000000000E+00    0.0000000000E+00    0.0000000000E+00    0.0000000000E+00
    0.0000000000E+00    0.0000000000E+00    0.0000000000E+00    0.0000000000E+00
    0.0000000000E+00    0.0000000000E+00    0.0000000000E+00    0.0000000000E+00
    0.0000000000E+00    0.0000000000E+00    0.0000000000E+00    0.0000000000E+00
    0.0000000000E+00    0.0000000000E+00    0.0000000000E+00    0.0000000000E+00
    0.0000000000E+00    0.0000000000E+00    0.0000000000E+00    0.0000000000E+00
    0.0000000000E+00    0.0000000000E+00    0.0000000000E+00    0.0000000000E+00
    0.0000000000E+00    0.0000000000E+00    0.0000000000E+00    0.0000000000E+00
    0.0000000000E+00    0.0000000000E+00    0.0000000000E+00    0.0000000000E+00
    0.0000000000E+00    0.0000000000E+00    0.0000000000E+00    0.0000000000E+00
    0.0000000000E+00    0.0000000000E+00    0.0000000000E+00    0.0000000000E+00
    0.0000000000E+00    0.0000000000E+00    0.0000000000E+00    0.0000000000E+00
    0.0000000000E+00    0.0000000000E+00    0.0000000000E+00    0.0000000000E+00
    0.0000000000E+00    0.0000000000E+00    0.0000000000E+00    0.0000000000E+00
    0.0000000000E+00    0.0000000000E+00    0.0000000000E+00    0.0000000000E+00
    0.0000000000E+00    0.0000000000E+00    0.0000000000E+00    0.0000000000E+00
    0.0000000000E+00    0.0000000000E+00    0.0000000000E+00    0.0000000000E+00
    0.0000000000E+00    0.0000000000E+00    0.0000000000E+00    0.0000000000E+00
    0.0000000000E+00    0.0000000000E+00    0.0000000000E+00    0.0000000000E+00
    0.0000000000E+00    0.0000000000E+00    0.0000000000E+00    0.0000000000E+00
    0.0000000000E+00    0.0000000000E+00    0.0000000000E+00    0.0000000000E+00
    0.0000000000E+00    0.0000000000E+00    0.0000000000E+00    0.0000000000E+00
    0.0000000000E+00    0.0000000000E+00    0.0000000000E+00    0.0000000000E+00
    0.0000000000E+00    0.0000000000E+00
 </PP_NLCC>
 <PP_RHOATOM type="real"  size="1078" columns="4">
    0.0000000000E+00    3.3958692470E-09    3.4818360870E-09    3.5699791878E-09
    3.6603536420E-09    3.7530159363E-09    3.8480239878E-09    3.9454371797E-09
    4.0453163982E-09    4.1477240713E-09    4.2527242070E-09    4.3603824338E-09
    4.4707660416E-09    4.5839440239E-09    4.6999871204E-09    4.8189678619E-09
    4.9409606154E-09    5.0660416301E-09    5.1942890859E-09    5.3257831415E-09
    5.4606059850E-09    5.5988418851E-09    5.7405772438E-09    5.8859006503E-09
    6.0349029363E-09    6.1876772333E-09    6.3443190301E-09    6.5049262330E-09
    6.6695992266E-09    6.8384409371E-09    7.0115568958E-09    7.1890553061E-09
    7.3710471101E-09    7.5576460587E-09    7.7489687823E-09    7.9451348638E-09
    8.1462669135E-09    8.3524906453E-09    8.5639349560E-09    8.7807320050E-09
    9.0030172976E-09    9.2309297694E-09    9.4646118731E-09    9.7042096675E-09
    9.9498729092E-09    1.0201755146E-08    1.0460013812E-08    1.0724810327E-08
    1.0996310198E-08    1.1274683122E-08    1.1560103090E-08    1.1852748499E-08
    1.2152802262E-08    1.2460451923E-08    1.2775889772E-08    1.3099312969E-08
    1.3430923664E-08    1.3770929123E-08    1.4119541862E-08    1.4476979775E-08
    1.4843466273E-08    1.5219230420E-08    1.5604507083E-08    1.5999537072E-08
    1.6404567293E-08    1.6819850903E-08    1.7245647468E-08    1.7682223126E-08
    1.8129850750E-08    1.8588810121E-08    1.9059388105E-08    1.9541878829E-08
    2.0036583864E-08    2.0543812417E-08    2.1063881523E-08    2.1597116243E-08
    2.2143849864E-08    2.2704424114E-08    2.3279189370E-08    2.3868504879E-08
    2.4472738982E-08    2.5092269346E-08    2.5727483196E-08    2.6378777564E-08
    2.7046559528E-08    2.7731246475E-08    2.8433266356E-08    2.9153057956E-08
    2.9891071170E-08    3.0647767279E-08    3.1423619243E-08    3.2219111995E-08
    3.3034742745E-08    3.3871021287E-08    3.4728470324E-08    3.5607625790E-08
    3.6509037184E-08    3.7433267920E-08    3.8380895671E-08    3.9352512736E-08
    4.0348726407E-08    4.1370159351E-08    4.2417449997E-08    4.3491252935E-08
    4.4592239329E-08    4.5721097330E-08    4.6878532511E-08    4.8065268309E-08
    4.9282046471E-08    5.0529627525E-08    5.1808791248E-08    5.3120337161E-08
    5.4465085023E-08    5.5843875346E-08    5.7257569918E-08    5.8707052346E-08
    6.0193228604E-08    6.1717027601E-08    6.3279401761E-08    6.4881327619E-08
    6.6523806433E-08    6.8207864806E-08    6.9934555329E-08    7.1704957241E-08
    7.3520177103E-08    7.5381349485E-08    7.7289637683E-08    7.9246234439E-08
    8.1252362691E-08    8.3309276336E-08    8.5418261013E-08    8.7580634907E-08
    8.9797749572E-08    9.2070990780E-08    9.4401779382E-08    9.6791572197E-08
    9.9241862925E-08    1.0175418308E-07    1.0433010294E-07    1.0697123255E-07
    1.0967922270E-07    1.1245576597E-07    1.1530259780E-07    1.1822149754E-07
    1.2121428961E-07    1.2428284461E-07    1.2742908048E-07    1.3065496372E-07
    1.3396251063E-07    1.3735378852E-07    1.4083091706E-07    1.4439606957E-07
    1.4805147439E-07    1.5179941627E-07    1.5564223780E-07    1.5958234088E-07
    1.6362218819E-07    1.6776430478E-07    1.7201127961E-07    1.7636576719E-07
    1.8083048921E-07    1.8540823627E-07    1.9010186963E-07    1.9491432296E-07
    1.9984860421E-07    2.0490779746E-07    2.1009506490E-07    2.1541364873E-07
    2.2086687324E-07    2.2645814690E-07    2.3219096444E-07    2.3806890906E-07
    2.4409565467E-07    2.5027496821E-07    2.5661071194E-07    2.6310684593E-07
    2.6976743049E-07    2.7659662870E-07    2.8359870906E-07    2.9077804809E-07
    2.9813913314E-07    3.0568656513E-07    3.1342506147E-07    3.2135945899E-07
    3.2949471696E-07    3.3783592020E-07    3.4638828225E-07    3.5515714863E-07
    3.6414800020E-07    3.7336645653E-07    3.8281827950E-07    3.9250937682E-07
    4.0244580577E-07    4.1263377696E-07    4.2307965823E-07    4.3378997863E-07
    4.4477143249E-07    4.5603088359E-07    4.6757536950E-07    4.7941210594E-07
    4.9154849127E-07    5.0399211118E-07    5.1675074337E-07    5.2983236245E-07
    5.4324514489E-07    5.5699747416E-07    5.7109794597E-07    5.8555537363E-07
    6.0037879354E-07    6.1557747089E-07    6.3116090539E-07    6.4713883727E-07
    6.6352125332E-07    6.8031839315E-07    6.9754075559E-07    7.1519910525E-07
    7.3330447926E-07    7.5186819414E-07    7.7090185292E-07    7.9041735233E-07
    8.1042689030E-07    8.3094297354E-07    8.5197842538E-07    8.7354639377E-07
    8.9566035951E-07    9.1833414468E-07    9.4158192126E-07    9.6541822001E-07
    9.8985793952E-07    1.0149163556E-06    1.0406091307E-06    1.0669523238E-06
    1.0939624004E-06    1.1216562430E-06    1.1500511612E-06    1.1791649030E-06
    1.2090156657E-06    1.2396221072E-06    1.2710033577E-06    1.3031790318E-06
    1.3361692406E-06    1.3699946044E-06    1.4046762653E-06    1.4402359009E-06
    1.4766957373E-06    1.5140785636E-06    1.5524077456E-06    1.5917072406E-06
    1.6320016125E-06    1.6733160469E-06    1.7156763672E-06    1.7591090505E-06
    1.8036412440E-06    1.8493007823E-06    1.8961162046E-06    1.9441167727E-06
    1.9933324890E-06    2.0437941157E-06    2.0955331934E-06    2.1485820615E-06
    2.2029738781E-06    2.2587426403E-06    2.3159232065E-06    2.3745513171E-06
    2.4346636174E-06    2.4962976805E-06    2.5594920308E-06    2.6242861676E-06
    2.6907205906E-06    2.7588368244E-06    2.8286774453E-06    2.9002861070E-06
    2.9737075687E-06    3.0489877224E-06    3.1261736222E-06    3.2053135132E-06
    3.2864568622E-06    3.3696543879E-06    3.4549580934E-06    3.5424212979E-06
    3.6320986709E-06    3.7240462657E-06    3.8183215546E-06    3.9149834650E-06
    4.0140924161E-06    4.1157103568E-06    4.2199008042E-06    4.3267288834E-06
    4.4362613684E-06    4.5485667236E-06    4.6637151467E-06    4.7817786126E-06
    4.9028309183E-06    5.0269477292E-06    5.1542066262E-06    5.2846871544E-06
    5.4184708726E-06    5.5556414048E-06    5.6962844915E-06    5.8404880444E-06
    5.9883422007E-06    6.1399393795E-06    6.2953743399E-06    6.4547442399E-06
    6.6181486973E-06    6.7856898520E-06    6.9574724299E-06    7.1336038080E-06
    7.3141940822E-06    7.4993561354E-06    7.6892057088E-06    7.8838614736E-06
    8.0834451056E-06    8.2880813612E-06    8.4978981553E-06    8.7130266415E-06
    8.9336012938E-06    9.1597599908E-06    9.3916441022E-06    9.6293985766E-06
    9.8731720327E-06    1.0123116852E-05    1.0379389274E-05    1.0642149494E-05
    1.0911561763E-05    1.1187794490E-05    1.1471020351E-05    1.1761416390E-05
    1.2059164136E-05    1.2364449714E-05    1.2677463960E-05    1.2998402543E-05
    1.3327466087E-05    1.3664860295E-05    1.4010796077E-05    1.4365489686E-05
    1.4729162848E-05    1.5102042904E-05    1.5484362953E-05    1.5876361992E-05
    1.6278285074E-05    1.6690383455E-05    1.7112914753E-05    1.7546143108E-05
    1.7990339350E-05    1.8445781167E-05    1.8912753276E-05    1.9391547606E-05
    1.9882463478E-05    2.0385807791E-05    2.0901895215E-05    2.1431048390E-05
    2.1973598124E-05    2.2529883604E-05    2.3100252605E-05    2.3685061708E-05
    2.4284676525E-05    2.4899471926E-05    2.5529832274E-05    2.6176151666E-05
    2.6838834177E-05    2.7518294119E-05    2.8214956292E-05    2.8929256255E-05
    2.9661640601E-05    3.0412567228E-05    3.1182505633E-05    3.1971937203E-05
    3.2781355516E-05    3.3611266653E-05    3.4462189508E-05    3.5334656120E-05
    3.6229212003E-05    3.7146416485E-05    3.8086843064E-05    3.9051079759E-05
    4.0039729488E-05    4.1053410436E-05    4.2092756446E-05    4.3158417420E-05
    4.4251059716E-05    4.5371366576E-05    4.6520038545E-05    4.7697793917E-05
    4.8905369178E-05    5.0143519471E-05    5.1413019071E-05    5.2714661865E-05
    5.4049261851E-05    5.5417653650E-05    5.6820693027E-05    5.8259257425E-05
    5.9734246519E-05    6.1246582778E-05    6.2797212041E-05    6.4387104112E-05
    6.6017253366E-05    6.7688679374E-05    6.9402427539E-05    7.1159569755E-05
    7.2961205077E-05    7.4808460409E-05    7.6702491210E-05    7.8644482221E-05
    8.0635648207E-05    8.2677234716E-05    8.4770518864E-05    8.6916810133E-05
    8.9117451192E-05    9.1373818743E-05    9.3687324380E-05    9.6059415476E-05
    9.8491576092E-05    1.0098532791E-04    1.0354223118E-04    1.0616388571E-04
    1.0885193186E-04    1.1160805157E-04    1.1443396945E-04    1.1733145381E-04
    1.2030231779E-04    1.2334842052E-04    1.2647166827E-04    1.2967401563E-04
    1.3295746680E-04    1.3632407675E-04    1.3977595260E-04    1.4331525491E-04
    1.4694419904E-04    1.5066505653E-04    1.5448015654E-04    1.5839188733E-04
    1.6240269774E-04    1.6651509872E-04    1.7073166496E-04    1.7505503644E-04
    1.7948792016E-04    1.8403309178E-04    1.8869339743E-04    1.9347175545E-04
    1.9837115826E-04    2.0339467422E-04    2.0854544959E-04    2.1382671049E-04
    2.1924176496E-04    2.2479400500E-04    2.3048690875E-04    2.3632404268E-04
    2.4230906381E-04    2.4844572206E-04    2.5473786256E-04    2.6118942815E-04
    2.6780446179E-04    2.7458710919E-04    2.8154162137E-04    2.8867235737E-04
    2.9598378701E-04    3.0348049371E-04    3.1116717737E-04    3.1904865740E-04
    3.2712987568E-04    3.3541589979E-04    3.4391192612E-04    3.5262328325E-04
    3.6155543526E-04    3.7071398523E-04    3.8010467877E-04    3.8973340769E-04
    3.9960621371E-04    4.0972929231E-04    4.2010899668E-04    4.3075184172E-04
    4.4166450820E-04    4.5285384700E-04    4.6432688350E-04    4.7609082200E-04
    4.8815305033E-04    5.0052114456E-04    5.1320287383E-04    5.2620620526E-04
    5.3953930911E-04    5.5321056393E-04    5.6722856191E-04    5.8160211441E-04
    5.9634025757E-04    6.1145225806E-04    6.2694761907E-04    6.4283608632E-04
    6.5912765437E-04    6.7583257300E-04    6.9296135376E-04    7.1052477676E-04
    7.2853389755E-04    7.4700005426E-04    7.6593487487E-04    7.8535028471E-04
    8.0525851411E-04    8.2567210632E-04    8.4660392556E-04    8.6806716536E-04
    8.9007535706E-04    9.1264237857E-04    9.3578246332E-04    9.5951020952E-04
    9.8384058958E-04    1.0087889599E-03    1.0343710707E-03    1.0606030763E-03
    1.0875015459E-03    1.1150834739E-03    1.1433662912E-03    1.1723678768E-03
    1.2021065692E-03    1.2326011782E-03    1.2638709977E-03    1.2959358181E-03
    1.3288159393E-03    1.3625321838E-03    1.3971059110E-03    1.4325590304E-03
    1.4689140170E-03    1.5061939254E-03    1.5444224052E-03    1.5836237169E-03
    1.6238227478E-03    1.6650450286E-03    1.7073167502E-03    1.7506647811E-03
    1.7951166859E-03    1.8407007427E-03    1.8874459629E-03    1.9353821101E-03
    1.9845397206E-03    2.0349501231E-03    2.0866454605E-03    2.1396587113E-03
    2.1940237120E-03    2.2497751797E-03    2.3069487359E-03    2.3655809309E-03
    2.4257092679E-03    2.4873722295E-03    2.5506093035E-03    2.6154610100E-03
    2.6819689290E-03    2.7501757296E-03    2.8201251987E-03    2.8918622718E-03
    2.9654330638E-03    3.0408849010E-03    3.1182663542E-03    3.1976272724E-03
    3.2790188179E-03    3.3624935017E-03    3.4481052210E-03    3.5359092967E-03
    3.6259625125E-03    3.7183231554E-03    3.8130510571E-03    3.9102076362E-03
    4.0098559426E-03    4.1120607025E-03    4.2168883647E-03    4.3244071489E-03
    4.4346870947E-03    4.5478001126E-03    4.6638200364E-03    4.7828226771E-03
    4.9048858784E-03    5.0300895738E-03    5.1585158460E-03    5.2902489875E-03
    5.4253755631E-03    5.5639844747E-03    5.7061670278E-03    5.8520170002E-03
    6.0016307128E-03    6.1551071026E-03    6.3125477977E-03    6.4740571954E-03
    6.6397425420E-03    6.8097140155E-03    6.9840848108E-03    7.1629712279E-03
    7.3464927624E-03    7.5347721992E-03    7.7279357095E-03    7.9261129505E-03
    8.1294371683E-03    8.3380453047E-03    8.5520781069E-03    8.7716802413E-03
    8.9970004106E-03    9.2281914749E-03    9.4654105771E-03    9.7088192724E-03
    9.9585836617E-03    1.0214874530E-02    1.0477867490E-02    1.0747743127E-02
    1.1024687158E-02    1.1308890580E-02    1.1600549843E-02    1.1899867015E-02
    1.2207049953E-02    1.2522312493E-02    1.2845874628E-02    1.3177962707E-02
    1.3518809636E-02    1.3868655083E-02    1.4227745693E-02    1.4596335315E-02
    1.4974685226E-02    1.5363064377E-02    1.5761749635E-02    1.6171026040E-02
    1.6591187076E-02    1.7022534940E-02    1.7465380830E-02    1.7920045240E-02
    1.8386858271E-02    1.8866159943E-02    1.9358300528E-02    1.9863640892E-02
    2.0382552850E-02    2.0915419535E-02    2.1462635776E-02    2.2024608501E-02
    2.2601757144E-02    2.3194514072E-02    2.3803325032E-02    2.4428649606E-02
    2.5070961695E-02    2.5730750011E-02    2.6408518595E-02    2.7104787351E-02
    2.7820092603E-02    2.8554987673E-02    2.9310043485E-02    3.0085849181E-02
    3.0883012780E-02    3.1702161843E-02    3.2543944182E-02    3.3409028583E-02
    3.4298105567E-02    3.5211888176E-02    3.6151112795E-02    3.7116540002E-02
    3.8108955456E-02    3.9129170817E-02    4.0178024710E-02    4.1256383718E-02
    4.2365143423E-02    4.3505229488E-02    4.4677598780E-02    4.5883240540E-02
    4.7123177604E-02    4.8398467667E-02    4.9710204609E-02    5.1059519863E-02
    5.2447583849E-02    5.3875607463E-02    5.5344843627E-02    5.6856588907E-02
    5.8412185187E-02    6.0013021429E-02    6.1660535488E-02    6.3356216016E-02
    6.5101604437E-02    6.6898297007E-02    6.8747946957E-02    7.0652266727E-02
    7.2613030293E-02    7.4632075589E-02    7.6711307028E-02    7.8852698131E-02
    8.1058294264E-02    8.3330215488E-02    8.5670659522E-02    8.8081904842E-02
    9.0566313892E-02    9.3126336440E-02    9.5764513066E-02    9.8483478795E-02
    1.0128596688E-01    1.0417481276E-01    1.0715295810E-01    1.1022345515E-01
    1.1338947112E-01    1.1665429282E-01    1.2002133148E-01    1.2349412777E-01
    1.2707635696E-01    1.3077183442E-01    1.3458452118E-01    1.3851852985E-01
    1.4257813070E-01    1.4676775797E-01    1.5109201654E-01    1.5555568870E-01
    1.6016374132E-01    1.6492133323E-01    1.6983382293E-01    1.7490677655E-01
    1.8014597614E-01    1.8555742829E-01    1.9114737306E-01    1.9692229325E-01
    2.0288892399E-01    2.0905426275E-01    2.1542557964E-01    2.2201042813E-01
    2.2881665615E-01    2.3585241759E-01    2.4312618418E-01    2.5064675779E-01
    2.5842328319E-01    2.6646526120E-01    2.7478256229E-01    2.8338544061E-01
    2.9228454856E-01    3.0149095168E-01    3.1101614412E-01    3.2087206455E-01
    3.3107111252E-01    3.4162616533E-01    3.5255059536E-01    3.6385828788E-01
    3.7556365936E-01    3.8768167619E-01    4.0022787397E-01    4.1321837716E-01
    4.2666991923E-01    4.4059986326E-01    4.5502622288E-01    4.6996768375E-01
    4.8544362526E-01    5.0147414269E-01    5.1808006968E-01    5.3528300094E-01
    5.5310531520E-01    5.7157019847E-01    5.9070166726E-01    6.1052459209E-01
    6.3106472086E-01    6.5234870227E-01    6.7440410909E-01    6.9725946118E-01
    7.2094424821E-01    7.4548895202E-01    7.7092506834E-01    7.9728512788E-01
    8.2460271665E-01    8.5291249527E-01    8.8225021714E-01    9.1265274533E-01
    9.4415806795E-01    9.7680531176E-01    1.0106347539E+00    1.0456878314E+00
    1.0820071480E+00    1.1196364787E+00    1.1586207709E+00    1.1990061420E+00
    1.2408398738E+00    1.2841704022E+00    1.3290473027E+00    1.3755212712E+00
    1.4236440989E+00    1.4734686416E+00    1.5250487827E+00    1.5784393892E+00
    1.6336962605E+00    1.6908760687E+00    1.7500362907E+00    1.8112351312E+00
    1.8745314348E+00    1.9399845886E+00    2.0076544130E+00    2.0776010401E+00
    2.1498847799E+00    2.2245659722E+00    2.3017048249E+00    2.3813612359E+00
    2.4635946007E+00    2.5484636011E+00    2.6360259779E+00    2.7263382843E+00
    2.8194556202E+00    2.9154313463E+00    3.0143167780E+00    3.1161608567E+00
    3.2210098003E+00    3.3289067299E+00    3.4398912739E+00    3.5539991482E+00
    3.6712617124E+00    3.7917055023E+00    3.9153517378E+00    4.0422158070E+00
    4.1723067267E+00    4.3056265795E+00    4.4421699290E+00    4.5819232127E+00
    4.7248641161E+00    4.8709609269E+00    5.0201718744E+00    5.1724444527E+00
    5.3277147345E+00    5.4859066746E+00    5.6469314102E+00    5.8106865596E+00
    5.9770555248E+00    6.1459068032E+00    6.3170933140E+00    6.4904517446E+00
    6.6658019252E+00    6.8429462375E+00    7.0216690664E+00    7.2017363022E+00
    7.3828949040E+00    7.5648725310E+00    7.7473772548E+00    7.9300973611E+00
    8.1127012519E+00    8.2948374604E+00    8.4761347889E+00    8.6562025807E+00
    8.8346311398E+00    9.0109923065E+00    9.1848402021E+00    9.3557121526E+00
    9.5231298011E+00    9.6866004170E+00    9.8456184121E+00    9.9996670669E+00
    1.0148220474E+01    1.0290745703E+01    1.0426705181E+01    1.0555559296E+01
    1.0676769213E+01    1.0789799897E+01    1.0894123332E+01    1.0989221924E+01
    1.1074592065E+01    1.1149747845E+01    1.1214224881E+01    1.1267584232E+01
    1.1309416374E+01    1.1339345194E+01    1.1357031956E+01    1.1362179210E+01
    1.1354534580E+01    1.1333894395E+01    1.1300107104E+01    1.1253076419E+01
    1.1192764141E+01    1.1119192607E+01    1.1032446710E+01    1.0932675441E+01
    1.0820092900E+01    1.0694978748E+01    1.0557678045E+01    1.0408600453E+01
    1.0248218786E+01    1.0077066880E+01    9.8957367947E+00    9.7048753379E+00
    9.5051799430E+00    9.2973939229E+00    9.0823011405E+00    8.8607201514E+00
    8.6334978796E+00    8.4015029011E+00    8.1656184182E+00    7.9267350150E+00
    7.6857432922E+00    7.4435264817E+00    7.2009531465E+00    6.9588700693E+00
    6.7180954318E+00    6.4794123843E+00    6.2435630945E+00    6.0112433612E+00
    5.7830978626E+00    5.5597161021E+00    5.3416290976E+00    5.1293068486E+00
    4.9231566007E+00    4.7235219135E+00    4.5306825238E+00    4.3448549846E+00
    4.1661940489E+00    3.9947947570E+00    3.8306951799E+00    3.6738797622E+00
    3.5242832082E+00    3.3817948496E+00    3.2462634316E+00    3.1175022497E+00
    2.9952946204E+00    2.8794004026E+00    2.7695631316E+00    2.6655158014E+00
    2.5669863096E+00    2.4737027319E+00    2.3853983233E+00    2.3018161427E+00
    2.2227131874E+00    2.1478639271E+00    2.0770631423E+00    2.0101279237E+00
    1.9468957284E+00    1.8872095873E+00    1.8309103991E+00    1.7778374979E+00
    1.7278293759E+00    1.6807243778E+00    1.6363613563E+00    1.5945802916E+00
    1.5552228722E+00    1.5181330415E+00    1.4831575059E+00    1.4501462084E+00
    1.4189527637E+00    1.3894348569E+00    1.3614546034E+00    1.3348788695E+00
    1.3095795546E+00    1.2854338324E+00    1.2623243538E+00    1.2401394105E+00
    1.2187730611E+00    1.1981252211E+00    1.1781017188E+00    1.1586143196E+00
    1.1395807196E+00    1.1209245131E+00    1.1025751343E+00    1.0844677771E+00
    1.0665432948E+00    1.0487480809E+00    1.0310339352E+00    1.0133579145E+00
    9.9568217179E-01    9.7797378448E-01    9.6020457301E-01    9.4235091190E-01
    9.2439353403E-01    9.0631732938E-01    8.8811113949E-01    8.6976754844E-01
    8.5128267146E-01    8.3265594203E-01    8.1388989818E-01    7.9498996890E-01
    7.7596426124E-01    7.5682334891E-01    7.3758006275E-01    7.1824928378E-01
    6.9884773925E-01    6.7939380203E-01    6.5990729372E-01    6.4040929182E-01
    6.2092194097E-01    6.0146826864E-01    5.8207200519E-01    5.6275740832E-01
    5.4354909209E-01    5.2447186028E-01    5.0555054415E-01    4.8680984470E-01
    4.6827417927E-01    4.4996753285E-01    4.3191331419E-01    4.1413421717E-01
    3.9665208790E-01    3.7948779832E-01    3.6266112702E-01    3.4619064845E-01
    3.3009363138E-01    3.1438594800E-01    2.9908199456E-01    2.8419462492E-01
    2.6973509771E-01    2.5571303810E-01    2.4213641461E-01    2.2901153122E-01
    2.1634303478E-01    2.0413393734E-01    1.9238565270E-01    1.8109804624E-01
    1.7026949685E-01    1.5989696953E-01    1.4997609711E-01    1.4050126945E-01
    1.3146572849E-01    1.2286166740E-01    1.1468033231E-01    1.0691212496E-01
    9.9546705058E-02    9.2573090961E-02    8.5979757580E-02    7.9754730654E-02
    7.3885676564E-02    6.8359987121E-02    6.3164858863E-02    5.8287366583E-02
    5.3714530913E-02    4.9433379936E-02    4.5431004883E-02    4.1694610069E-02
    3.8211557301E-02    3.4969405028E-02    3.1955942579E-02    2.9159219825E-02
    2.6567572637E-02    2.4169644509E-02    2.1954404717E-02    1.9911163331E-02
    1.8029583433E-02    1.6299690804E-02    1.4711881354E-02    1.3256926526E-02
    1.1925976847E-02    1.0710563825E-02    9.6026003016E-03    8.5943793860E-03
    7.6785720764E-03    6.8482236382E-03    6.0967488199E-03    5.4179259724E-03
    4.8058901384E-03    4.2551251752E-03    3.7604549813E-03    3.3170338992E-03
    2.9203363699E-03    2.5661459235E-03    2.2505435902E-03    1.9698958239E-03
    1.7208420294E-03    1.5002817894E-03    1.3053618832E-03    1.1334631917E-03
    9.8218757625E-04    8.4934481940E-04    7.3293970558E-04    6.3115931745E-04
    5.4236061469E-04    4.6505835523E-04    3.9791341125E-04    3.3972152414E-04
    2.8940253507E-04    2.4599011972E-04    2.0862204863E-04    1.7653098753E-04
    1.4903584534E-04    1.2553367182E-04    1.0549210117E-04    8.8442333339E-05
    7.3972640585E-05    6.1722383206E-05    5.1376515577E-05    4.2660561195E-05
    3.5336033633E-05    2.9196279021E-05    2.4062714781E-05    1.9781438941E-05
    1.6220184224E-05    1.3265591390E-05    1.0820776785E-05    8.8031697712E-06
    7.1425966621E-06    5.7795887935E-06    4.6638935627E-06    3.7531684900E-06
    3.0118395496E-06    2.4101085166E-06
 </PP_RHOATOM>
 <PP_GIPAW gipaw_data_format="2">
   <PP_GIPAW_CORE_ORBITALS number_of_core_orbitals="3">
     <PP_GIPAW_CORE_ORBITAL.1 size="1078" index="1" label="1S" n="1" l="0">
   0.0000000000000000E+00   5.3057533349619773E-03   5.3715387694284848E-03
   5.4381386659511140E-03   5.5055630425088669E-03   5.5738220922160412E-03
   5.6429261451273749E-03   5.7128856592067968E-03   5.7837112214369213E-03
   5.8554135493787771E-03   5.9280034927798233E-03   6.0014920351978245E-03
   6.0758902956440548E-03   6.1512095302463533E-03   6.2274611339324095E-03
   6.3046566421334754E-03   6.3828077325087645E-03   6.4619262266907545E-03
   6.5420240920516827E-03   6.6231134434914640E-03   6.7052065452472866E-03
   6.7883158127251229E-03   6.8724538143535140E-03   6.9576332734597431E-03
   7.0438670701687628E-03   7.1311682433251554E-03   7.2195499924383325E-03
   7.3090256796513181E-03   7.3996088317333413E-03   7.4913131420965571E-03
   7.5841524728371594E-03   7.6781408568012150E-03   7.7732924996754601E-03
   7.8696217821033476E-03   7.9671432618267698E-03   8.0658716758535455E-03
   8.1658219426511917E-03   8.2670091643671732E-03   8.3694486290759144E-03
   8.4731558130530255E-03   8.5781463830769001E-03   8.6844361987581786E-03
   8.7920413148971765E-03   8.9009779838699430E-03   9.0112626580428744E-03
   9.1229119922165997E-03   9.2359428460992397E-03   9.3503722868094712E-03
   9.4662175914097309E-03   9.5834962494699763E-03   9.7022259656621718E-03
   9.8224246623861578E-03   9.9441104824269551E-03   1.0067301791644121E-02
   1.0192017181693333E-02   1.0318275472780808E-02   1.0446095716450630E-02
   1.0575497198405677E-02   1.0706499441362330E-02   1.0839122207939436E-02
   1.0973385503581914E-02   1.1109309579519434E-02   1.1246914935760445E-02
   1.1386222324122137E-02   1.1527252751296641E-02   1.1670027481953891E-02
   1.1814568041881569E-02   1.1960896221162625E-02   1.2109034077390699E-02
   1.2259003938923914E-02   1.2410828408177522E-02   1.2564530364955780E-02
   1.2720132969823527E-02   1.2877659667517926E-02   1.3037134190400769E-02
   1.3198580561951884E-02   1.3362023100304028E-02   1.3527486421819756E-02
   1.3694995444710794E-02   1.3864575392700248E-02   1.4036251798728316E-02
   1.4210050508701796E-02   1.4385997685288027E-02   1.4564119811753633E-02
   1.4744443695848717E-02   1.4926996473736786E-02   1.5111805613971135E-02
   1.5298898921518082E-02   1.5488304541827516E-02   1.5680050964951415E-02
   1.5874167029710808E-02   1.6070681927911588E-02   1.6269625208609848E-02
   1.6471026782427310E-02   1.6674916925917157E-02   1.6881326285981092E-02
   1.7090285884338037E-02   1.7301827122044922E-02   1.7515981784070423E-02
   1.7732782043921889E-02   1.7952260468326250E-02   1.8174450021965365E-02
   1.8399384072266420E-02   1.8627096394248061E-02   1.8857621175422643E-02
   1.9090993020755415E-02   1.9327246957681066E-02   1.9566418441178332E-02
   1.9808543358903332E-02   2.0053658036382045E-02   2.0301799242262802E-02
   2.0553004193629199E-02   2.0807310561374311E-02   2.1064756475636513E-02
   2.1325380531297934E-02   2.1589221793545853E-02   2.1856319803497965E-02
   2.2126714583891965E-02   2.2400446644840307E-02   2.2677556989650603E-02
   2.2958087120712522E-02   2.3242079045451867E-02   2.3529575282352291E-02
   2.3820618867045673E-02   2.4115253358471558E-02   2.4413522845106717E-02
   2.4715471951265010E-02   2.5021145843468894E-02   2.5330590236892749E-02
   2.5643851401879213E-02   2.5960976170528758E-02   2.6282011943363846E-02
   2.6607006696067751E-02   2.6936008986299449E-02   2.7269067960584689E-02
   2.7606233361284569E-02   2.7947555533642046E-02   2.8293085432907178E-02
   2.8642874631541963E-02   2.8996975326505588E-02   2.9355440346620670E-02
   2.9718323160021435E-02   3.0085677881684619E-02   3.0457559281043909E-02
   3.0834022789688446E-02   3.1215124509146635E-02   3.1600921218755747E-02
   3.1991470383618263E-02   3.2386830162645562E-02   3.2787059416690190E-02
   3.3192217716767058E-02   3.3602365352364730E-02   3.4017563339847366E-02
   3.4437873430948410E-02   3.4863358121356700E-02   3.5294080659395724E-02
   3.5730105054797227E-02   3.6171496087569456E-02   3.6618319316961419E-02
   3.7070641090523826E-02   3.7528528553267215E-02   3.7992049656918638E-02
   3.8461273169277360E-02   3.8936268683670734E-02   3.9417106628510577E-02
   3.9903858276951726E-02   4.0396595756652685E-02   4.0895392059639955E-02
   4.1400321052276402E-02   4.1911457485334848E-02   4.2428877004177468E-02
   4.2952656159042042E-02   4.3482872415435879E-02   4.4019604164637911E-02
   4.4562930734310467E-02   4.5112932399220811E-02   4.5669690392073893E-02
   4.6233286914456939E-02   4.6803805147896366E-02   4.7381329265028291E-02
   4.7965944440883597E-02   4.8557736864287639E-02   4.9156793749376183E-02
   4.9763203347227759E-02   5.0377054957613902E-02   5.0998438940867447E-02
   5.1627446729869832E-02   5.2264170842158598E-02   5.2908704892155448E-02
   5.3561143603515320E-02   5.4221582821598384E-02   5.4890119526064457E-02
   5.5566851843591107E-02   5.6251879060716443E-02   5.6945301636806923E-02
   5.7647221217150831E-02   5.8357740646178644E-02   5.9076963980810332E-02
   5.9804996503930570E-02   6.0541944737992980E-02   6.1287916458752922E-02
   6.2043020709130481E-02   6.2807367813204187E-02   6.3581069390335088E-02
   6.4364238369423163E-02   6.5156989003295626E-02   6.5959436883228056E-02
   6.6771698953598690E-02   6.7593893526676760E-02   6.8426140297544860E-02
   6.9268560359156239E-02   7.0121276217527090E-02   7.0984411807064760E-02
   7.1858092506031326E-02   7.2742445152144258E-02   7.3637598058313491E-02
   7.4543681028515163E-02   7.5460825373802970E-02   7.6389163928457099E-02
   7.7328831066270712E-02   7.8279962716974516E-02   7.9242696382798974E-02
   8.0217171155175682E-02   8.1203527731575589E-02   8.2201908432487078E-02
   8.3212457218531044E-02   8.4235319707715209E-02   8.5270643192825832E-02
   8.6318576658958229E-02   8.7379270801184475E-02   8.8452878042359268E-02
   8.9539552551063106E-02   9.0639450259682439E-02   9.1752728882626339E-02
   9.2879547934680007E-02   9.4020068749493688E-02   9.5174454498206967E-02
   9.6342870208207546E-02   9.7525482782024525E-02   9.8722461016354471E-02
   9.9933975621220555E-02   1.0116019923926260E-01   1.0240130646515860E-01
   1.0365747386517590E-01   1.0492887999685048E-01   1.0621570542879431E-01
   1.0751813276062937E-01   1.0883634664304544E-01   1.1017053379798314E-01
   1.1152088303893787E-01   1.1288758529138507E-01   1.1427083361332409E-01
   1.1567082321593934E-01   1.1708775148437707E-01   1.1852181799863522E-01
   1.1997322455456505E-01   1.2144217518498159E-01   1.2292887618088127E-01
   1.2443353611276453E-01   1.2595636585205974E-01   1.2749757859264754E-01
   1.2905738987248150E-01   1.3063601759530247E-01   1.3223368205244485E-01
   1.3385060594472972E-01   1.3548701440444316E-01   1.3714313501739572E-01
   1.3881919784505942E-01   1.4051543544677886E-01   1.4223208290205316E-01
   1.4396937783288241E-01   1.4572756042617865E-01   1.4750687345623217E-01
   1.4930756230723283E-01   1.5112987499583913E-01   1.5297406219379139E-01
   1.5484037725056374E-01   1.5672907621604901E-01   1.5864041786327351E-01
   1.6057466371113233E-01   1.6253207804714218E-01   1.6451292795020672E-01
   1.6651748331338292E-01   1.6854601686664913E-01   1.7059880419966267E-01
   1.7267612378450167E-01   1.7477825699838656E-01   1.7690548814636842E-01
   1.7905810448398310E-01   1.8123639623985710E-01   1.8344065663826201E-01
   1.8567118192160553E-01   1.8792827137285217E-01   1.9021222733786544E-01
   1.9252335524765932E-01   1.9486196364055233E-01   1.9722836418421372E-01
   1.9962287169759010E-01   2.0204580417270426E-01   2.0449748279631330E-01
   2.0697823197141624E-01   2.0948837933860037E-01   2.1202825579721074E-01
   2.1459819552633641E-01   2.1719853600559577E-01   2.1982961803570961E-01
   2.2249178575885192E-01   2.2518538667875837E-01   2.2791077168058282E-01
   2.3066829505048869E-01   2.3345831449495333E-01   2.3628119115978002E-01
   2.3913728964879108E-01   2.4202697804219500E-01   2.4495062791460456E-01
   2.4790861435269232E-01   2.5090131597246557E-01   2.5392911493613773E-01
   2.5699239696858683E-01   2.6009155137337259E-01   2.6322697104829734E-01
   2.6639905250049134E-01   2.6960819586099544E-01   2.7285480489883046E-01
   2.7613928703451840E-01   2.7946205335304658E-01   2.8282351861623756E-01
   2.8622410127451464E-01   2.8966422347802750E-01   2.9314431108712136E-01
   2.9666479368211884E-01   3.0022610457238896E-01   3.0382868080468006E-01
   3.0747296317068290E-01   3.1115939621380206E-01   3.1488842823510244E-01
   3.1866051129840040E-01   3.2247610123447434E-01   3.2633565764435790E-01
   3.3023964390168337E-01   3.3418852715405245E-01   3.3818277832338289E-01
   3.4222287210521712E-01   3.4630928696693958E-01   3.5044250514487885E-01
   3.5462301264025325E-01   3.5885129921391751E-01   3.6312785837988265E-01
   3.6745318739755883E-01   3.7182778726268523E-01   3.7625216269690887E-01
   3.8072682213595926E-01   3.8525227771638898E-01   3.8982904526082507E-01
   3.9445764426169033E-01   3.9913859786335076E-01   4.0387243284263297E-01
   4.0865967958767180E-01   4.1350087207503661E-01   4.1839654784507868E-01
   4.2334724797546097E-01   4.2835351705280167E-01   4.3341590314239042E-01
   4.3853495775591644E-01   4.4371123581715038E-01   4.4894529562552837E-01
   4.5423769881757131E-01   4.5958901032608612E-01   4.6499979833708710E-01
   4.7047063424436714E-01   4.7600209260167148E-01   4.8159475107238509E-01
   4.8724919037669123E-01   4.9296599423611887E-01   4.9874574931541366E-01
   5.0458904516166436E-01   5.1049647414060939E-01   5.1646863137005117E-01
   5.2250611465030894E-01   5.2860952439162578E-01   5.3477946353845951E-01
   5.4101653749057210E-01   5.4732135402084592E-01   5.5369452318973922E-01
   5.6013665725629669E-01   5.6664837058563511E-01   5.7323027955281791E-01
   5.7988300244302349E-01   5.8660715934793062E-01   5.9340337205821758E-01
   6.0027226395209587E-01   6.0721445987977407E-01   6.1423058604375669E-01
   6.2132126987489922E-01   6.2848713990409288E-01   6.3572882562950483E-01
   6.4304695737925821E-01   6.5044216616945050E-01   6.5791508355741790E-01
   6.6546634149011907E-01   6.7309657214755381E-01   6.8080640778109236E-01
   6.8859648054660505E-01   6.9646742233229753E-01   7.0441986458111228E-01
   7.1245443810760589E-01   7.2057177290917240E-01   7.2877249797149435E-01
   7.3705724106811632E-01   7.4542662855400110E-01   7.5388128515296116E-01
   7.6242183373884387E-01   7.7104889511032526E-01   7.7976308775921988E-01
   7.8856502763214664E-01   7.9745532788544682E-01   8.0643459863321754E-01
   8.1550344668831665E-01   8.2466247529623538E-01   8.3391228386167948E-01
   8.4325346766774412E-01   8.5268661758753894E-01   8.6221231978812729E-01
   8.7183115542665346E-01   8.8154370033850726E-01   8.9135052471740317E-01
   9.0125219278722801E-01   9.1124926246551463E-01   9.2134228501841786E-01
   9.3153180470703911E-01   9.4181835842496553E-01   9.5220247532689217E-01
   9.6268467644817046E-01   9.7326547431516464E-01   9.8394537254626335E-01
   9.9472486544340633E-01   1.0056044375740114E+00   1.0165845633431219E+00
   1.0276657065556856E+00   1.0388483199687943E+00   1.0501328448337697E+00
   1.0615197104279515E+00   1.0730093335760591E+00   1.0846021181610019E+00
   1.0962984546239996E+00   1.1080987194538958E+00   1.1200032746655411E+00
   1.1320124672671068E+00   1.1441266287162355E+00   1.1563460743648966E+00
   1.1686711028928340E+00   1.1811019957295006E+00   1.1936390164643711E+00
   1.2062824102455327E+00   1.2190324031664548E+00   1.2318892016408385E+00
   1.2448529917654723E+00   1.2579239386709786E+00   1.2711021858604159E+00
   1.2843878545356302E+00   1.2977810429112899E+00   1.3112818255165768E+00
   1.3248902524844222E+00   1.3386063488283055E+00   1.3524301137065202E+00
   1.3663615196739194E+00   1.3804005119210840E+00   1.3945470075009201E+00
   1.4088008945426691E+00   1.4231620314533526E+00   1.4376302461066301E+00
   1.4522053350191459E+00   1.4668870625143469E+00   1.4816751598738647E+00
   1.4965693244764910E+00   1.5115692189248331E+00   1.5266744701597370E+00
   1.5418846685625582E+00   1.5571993670454203E+00   1.5726180801295675E+00
   1.5881402830119697E+00   1.6037654106203350E+00   1.6194928566566917E+00
   1.6353219726297605E+00   1.6512520668763104E+00   1.6672824035717335E+00
   1.6834122017300859E+00   1.6996406341938692E+00   1.7159668266138353E+00
   1.7323898564191462E+00   1.7489087517781863E+00   1.7655224905504303E+00
   1.7822299992297088E+00   1.7990301518792879E+00   1.8159217690592231E+00
   1.8329036167463835E+00   1.8499744052476976E+00   1.8671327881070687E+00
   1.8843773610065562E+00   1.9017066606623472E+00   1.9191191637161396E+00
   1.9366132856225664E+00   1.9541873795333138E+00   1.9718397351786219E+00
   1.9895685777469276E+00   2.0073720667633639E+00   2.0252482949679620E+00
   2.0431952871943380E+00   2.0612109992497847E+00   2.0792933167976373E+00
   2.0974400542428766E+00   2.1156489536219647E+00   2.1339176834978990E+00
   2.1522438378616058E+00   2.1706249350407392E+00   2.1890584166170521E+00
   2.2075416463535378E+00   2.2260719091325671E+00   2.2446464099063115E+00
   2.2632622726607892E+00   2.2819165393948930E+00   2.3006061691158251E+00
   2.3193280368524167E+00   2.3380789326878357E+00   2.3568555608132664E+00
   2.3756545386041448E+00   2.3944723957206566E+00   2.4133055732341662E+00
   2.4321504227813668E+00   2.4510032057479680E+00   2.4698600924837630E+00
   2.4887171615510377E+00   2.5075703990082112E+00   2.5264156977308159E+00
   2.5452488567718246E+00   2.5640655807634611E+00   2.5828614793626841E+00
   2.6016320667425252E+00   2.6203727611316077E+00   2.6390788844041162E+00
   2.6577456617226214E+00   2.6763682212361593E+00   2.6949415938360404E+00
   2.7134607129719028E+00   2.7319204145305660E+00   2.7503154367802845E+00
   2.7686404203830497E+00   2.7868899084776357E+00   2.8050583468360966E+00
   2.8231400840965097E+00   2.8411293720747364E+00   2.8590203661580693E+00
   2.8768071257835968E+00   2.8944836150042210E+00   2.9120437031452262E+00
   2.9294811655543569E+00   2.9467896844483881E+00   2.9639628498591417E+00
   2.9809941606820001E+00   2.9978770258298741E+00   3.0146047654957004E+00
   3.0311706125264517E+00   3.0475677139117012E+00   3.0637891323897497E+00
   3.0798278481743222E+00   3.0956767608048361E+00   3.1113286911231750E+00
   3.1267763833799522E+00   3.1420125074731495E+00   3.1570296613219977E+00
   3.1718203733789450E+00   3.1863771052824732E+00   3.2006922546534868E+00
   3.2147581580379105E+00   3.2285670939981035E+00   3.2421112863555663E+00
   3.2553829075873426E+00   3.2683740823784686E+00   3.2810768913326251E+00
   3.2934833748431278E+00   3.3055855371262202E+00   3.3173753504184833E+00
   3.3288447593400852E+00   3.3399856854254084E+00   3.3507900318224353E+00
   3.3612496881620988E+00   3.3713565355986344E+00   3.3811024520217634E+00
   3.3904793174413270E+00   3.3994790195448035E+00   3.4080934594278758E+00
   3.4163145574980063E+00   3.4241342595506907E+00   3.4315445430178664E+00
   3.4385374233875678E+00   3.4451049607937705E+00   3.4512392667749090E+00
   3.4569325111994043E+00   3.4621769293560738E+00   3.4669648292070288E+00
   3.4712885988003426E+00   3.4751407138392940E+00   3.4785137454047725E+00
   3.4814003678269101E+00   3.4837933667016752E+00   3.4856856470477582E+00
   3.4870702415986066E+00   3.4879403192240757E+00   3.4882891934757181E+00
   3.4881103312492407E+00   3.4873973615572345E+00   3.4861440844047862E+00
   3.4843444797601100E+00   3.4819927166118072E+00   3.4790831621039287E+00
   3.4756103907394400E+00   3.4715691936422122E+00   3.4669545878671508E+00
   3.4617618257474865E+00   3.4559864042678505E+00   3.4496240744510636E+00
   3.4426708507462029E+00   3.4351230204048568E+00   3.4269771528320176E+00
   3.4182301088975118E+00   3.4088790501933688E+00   3.3989214482219836E+00
   3.3883550934994653E+00   3.3771781045580269E+00   3.3653889368308456E+00
   3.3529863914022551E+00   3.3399696236058278E+00   3.3263381514523203E+00
   3.3120918638691270E+00   3.2972310287324733E+00   3.2817563006732162E+00
   3.2656687286367378E+00   3.2489697631771834E+00   3.2316612634659001E+00
   3.2137455039937830E+00   3.1952251809469399E+00   3.1761034182349159E+00
   3.1563837731506119E+00   3.1360702416407991E+00   3.1151672631662102E+00
   3.0936797251300243E+00   3.0716129668535221E+00   3.0489727830779842E+00
   3.0257654269715091E+00   3.0019976126200776E+00   2.9776765169819126E+00
   2.9528097812845182E+00   2.9274055118441242E+00   2.9014722802872770E+00
   2.8750191231548370E+00   2.8480555408689585E+00   2.8205914960438143E+00
   2.7926374111217172E+00   2.7642041653163782E+00   2.7353030908459344E+00
   2.7059459684390763E+00   2.6761450220982197E+00   2.6459129131049504E+00
   2.6152627332538221E+00   2.5842079973020322E+00   2.5527626346245578E+00
   2.5209409800648155E+00   2.4887577639677212E+00   2.4562281014083243E+00
   2.4233674805917387E+00   2.3901917504369838E+00   2.3567171073452342E+00
   2.3229600811592976E+00   2.2889375203244620E+00   2.2546665762645435E+00
   2.2201646869907665E+00   2.1854495599647703E+00   2.1505391542408887E+00
   2.1154516619162846E+00   2.0802054889211332E+00   2.0448192351839758E+00
   2.0093116742102883E+00   1.9737017321148025E+00   1.9380084661498478E+00
   1.9022510427739407E+00   1.8664487153054570E+00   1.8306208012068854E+00
   1.7947866590451436E+00   1.7589656651723362E+00   1.7231771901704744E+00
   1.6874405751013364E+00   1.6517751076003229E+00   1.6161999978506496E+00
   1.5807343544707479E+00   1.5453971603456189E+00   1.5102072484301532E+00
   1.4751832775510072E+00   1.4403437082336037E+00   1.4057067785811574E+00
   1.3712904802355048E+00   1.3371125344528194E+00   1.3031903683319261E+00
   1.2695410912388325E+00   1.2361814714763530E+00   1.2031279132538015E+00
   1.1703964340167967E+00   1.1380026422013447E+00   1.1059617154799524E+00
   1.0742883795691556E+00   1.0429968876688807E+00   1.0121010006036490E+00
   9.8161396773420517E-01   9.5154850870620411E-01   9.2191679609965782E-01
   8.9273043903971661E-01   8.6400046782596429E-01   8.3573731963357467E-01
   8.0795082533613638E-01   7.8065019749608056E-01   7.5384401956493019E-01
   7.2754023633184128E-01   7.0174614565509019E-01   6.7646839150746096E-01
   6.5171295836249221E-01   6.2748516694481138E-01   6.0378967136357597E-01
   5.8063045764402232E-01   5.5801084366787101E-01   5.3593348052881828E-01
   5.1440035530508810E-01   4.9341279524615300E-01   4.7297147336617273E-01
   4.5307641543192112E-01   4.3372700832800765E-01   4.1492200977753302E-01
   3.9665955939128156E-01   3.7893719101378615E-01   3.6175184632991597E-01
   3.4509988969077215E-01   3.2897712411331331E-01   3.1337880840359406E-01
   2.9829967534923846E-01   2.8373395092289921E-01   2.6967537443439998E-01
   2.5611721956591282E-01   2.4305231622112919E-01   2.3047307311633283E-01
   2.1837150103878486E-01   2.0673923669525418E-01   1.9556756707168094E-01
   1.8484745422324955E-01   1.7456956041282523E-01   1.6472427351489463E-01
   1.5530173260154306E-01   1.4629185362689839E-01   1.3768435512677010E-01
   1.2946878385076854E-01   1.2163454024532083E-01   1.1417090370735448E-01
   1.0706705753022856E-01   1.0031211346567277E-01   9.3895135827958526E-02
   8.7805165069420404E-02   8.2031240759585303E-02   7.6562423903650645E-02
   7.1387818539809106E-02   6.6496592558918002E-02   6.1877997694269417E-02
   5.7521388633670699E-02   5.3416241210682724E-02   4.9552169636636896E-02
   4.5918942739999906E-02   4.2506499184613467E-02   3.9304961643433875E-02
   3.6304649909483490E-02   3.3496092930794592E-02   3.0870039761217948E-02
   2.8417469423925069E-02   2.6129599689338798E-02   2.3997894774001070E-02
   2.2014071971473884E-02   2.0170107230820491E-02   1.8458239702427111E-02
   1.6870975274908929E-02   1.5401089130616181E-02   1.4041627350708890E-02
   1.2785907604005090E-02   1.1627518956718009E-02   1.0560320842839111E-02
   9.5784412372916135E-03   8.6762740760406905E-03   7.8484759691662322E-03
   7.0899622544479072E-03   6.3959024403140640E-03   5.7617150880775146E-03
   5.1830621842091362E-03   4.6558430539913875E-03   4.1761878682210294E-03
   3.7404507946501371E-03   3.3452028455286486E-03   2.9872244718736336E-03
   2.6634979538981986E-03   2.3711996353521134E-03   2.1076920473562352E-03
   1.8705159646844008E-03   1.6573824344201734E-03   1.4661648135892978E-03
   1.2948908488638257E-03   1.1417348279346587E-03   1.0050098288744255E-03
   8.8316009102549456E-04   7.7475352886469985E-04   6.7847440898471576E-04
   5.9311620963654963E-04   5.1757468180657358E-04   4.5084113006646433E-04
   3.9199593003716579E-04   3.4020229709552554E-04   2.9470031805836817E-04
   2.5480125432873665E-04   2.1988212174203244E-04   1.8938054939257433E-04
   1.6278991719421873E-04   1.3965476985768329E-04   1.1956650329724969E-04
   1.0215931812833320E-04   8.7106433808246394E-05   7.4116556044622042E-05
   6.2930589312525017E-05   5.3318585658605752E-05   4.5076920419960125E-05
   3.8025685038365229E-05   3.2006286805782504E-05   2.6879245130497214E-05
   2.2522173761276647E-05   1.8827938344418518E-05   1.5702978709837491E-05
   1.3065785380562633E-05   1.0845519967911838E-05   8.9807693447421866E-06
   7.4184237730157046E-06   6.1126694927018335E-06   5.0240866477868888E-06
   4.1188438250530229E-06   3.3679809049042652E-06   2.7467723639252284E-06
   2.2341636198802438E-06   1.8122735051368872E-06   1.4620551315369832E-06
  -3.1915482925737018E-08  -1.6895974259461540E-09   0.0000000000000000E+00
   0.0000000000000000E+00   0.0000000000000000E+00   0.0000000000000000E+00
   0.0000000000000000E+00   0.0000000000000000E+00   0.0000000000000000E+00
   0.0000000000000000E+00   0.0000000000000000E+00   0.0000000000000000E+00
   0.0000000000000000E+00   0.0000000000000000E+00   0.0000000000000000E+00
   0.0000000000000000E+00   0.0000000000000000E+00   0.0000000000000000E+00
   0.0000000000000000E+00   0.0000000000000000E+00   0.0000000000000000E+00
   0.0000000000000000E+00   0.0000000000000000E+00   0.0000000000000000E+00
   0.0000000000000000E+00   0.0000000000000000E+00   0.0000000000000000E+00
   0.0000000000000000E+00   0.0000000000000000E+00   0.0000000000000000E+00
   0.0000000000000000E+00   0.0000000000000000E+00   0.0000000000000000E+00
   0.0000000000000000E+00   0.0000000000000000E+00   0.0000000000000000E+00
   0.0000000000000000E+00   0.0000000000000000E+00   0.0000000000000000E+00
   0.0000000000000000E+00   0.0000000000000000E+00   0.0000000000000000E+00
   0.0000000000000000E+00   0.0000000000000000E+00   0.0000000000000000E+00
   0.0000000000000000E+00   0.0000000000000000E+00   0.0000000000000000E+00
   0.0000000000000000E+00   0.0000000000000000E+00   0.0000000000000000E+00
   0.0000000000000000E+00   0.0000000000000000E+00   0.0000000000000000E+00
   0.0000000000000000E+00   0.0000000000000000E+00   0.0000000000000000E+00
   0.0000000000000000E+00   0.0000000000000000E+00   0.0000000000000000E+00
   0.0000000000000000E+00   0.0000000000000000E+00   0.0000000000000000E+00
   0.0000000000000000E+00   0.0000000000000000E+00   0.0000000000000000E+00
   0.0000000000000000E+00   0.0000000000000000E+00   0.0000000000000000E+00
   0.0000000000000000E+00   0.0000000000000000E+00   0.0000000000000000E+00
   0.0000000000000000E+00   0.0000000000000000E+00   0.0000000000000000E+00
   0.0000000000000000E+00   0.0000000000000000E+00   0.0000000000000000E+00
   0.0000000000000000E+00   0.0000000000000000E+00   0.0000000000000000E+00
   0.0000000000000000E+00   0.0000000000000000E+00   0.0000000000000000E+00
   0.0000000000000000E+00   0.0000000000000000E+00   0.0000000000000000E+00
   0.0000000000000000E+00   0.0000000000000000E+00   0.0000000000000000E+00
   0.0000000000000000E+00   0.0000000000000000E+00   0.0000000000000000E+00
   0.0000000000000000E+00   0.0000000000000000E+00   0.0000000000000000E+00
   0.0000000000000000E+00   0.0000000000000000E+00   0.0000000000000000E+00
   0.0000000000000000E+00   0.0000000000000000E+00   0.0000000000000000E+00
   0.0000000000000000E+00   0.0000000000000000E+00   0.0000000000000000E+00
   0.0000000000000000E+00   0.0000000000000000E+00   0.0000000000000000E+00
   0.0000000000000000E+00   0.0000000000000000E+00   0.0000000000000000E+00
   0.0000000000000000E+00   0.0000000000000000E+00   0.0000000000000000E+00
   0.0000000000000000E+00   0.0000000000000000E+00   0.0000000000000000E+00
   0.0000000000000000E+00   0.0000000000000000E+00   0.0000000000000000E+00
   0.0000000000000000E+00   0.0000000000000000E+00   0.0000000000000000E+00
   0.0000000000000000E+00   0.0000000000000000E+00   0.0000000000000000E+00
   0.0000000000000000E+00   0.0000000000000000E+00   0.0000000000000000E+00
   0.0000000000000000E+00   0.0000000000000000E+00   0.0000000000000000E+00
   0.0000000000000000E+00   0.0000000000000000E+00   0.0000000000000000E+00
   0.0000000000000000E+00   0.0000000000000000E+00   0.0000000000000000E+00
   0.0000000000000000E+00   0.0000000000000000E+00   0.0000000000000000E+00
   0.0000000000000000E+00   0.0000000000000000E+00   0.0000000000000000E+00
   0.0000000000000000E+00   0.0000000000000000E+00   0.0000000000000000E+00
   0.0000000000000000E+00   0.0000000000000000E+00   0.0000000000000000E+00
   0.0000000000000000E+00   0.0000000000000000E+00   0.0000000000000000E+00
   0.0000000000000000E+00   0.0000000000000000E+00   0.0000000000000000E+00
   0.0000000000000000E+00   0.0000000000000000E+00   0.0000000000000000E+00
   0.0000000000000000E+00   0.0000000000000000E+00   0.0000000000000000E+00
   0.0000000000000000E+00   0.0000000000000000E+00   0.0000000000000000E+00
   0.0000000000000000E+00   0.0000000000000000E+00   0.0000000000000000E+00
   0.0000000000000000E+00   0.0000000000000000E+00   0.0000000000000000E+00
   0.0000000000000000E+00   0.0000000000000000E+00   0.0000000000000000E+00
   0.0000000000000000E+00   0.0000000000000000E+00   0.0000000000000000E+00
   0.0000000000000000E+00   0.0000000000000000E+00   0.0000000000000000E+00
   0.0000000000000000E+00   0.0000000000000000E+00   0.0000000000000000E+00
   0.0000000000000000E+00   0.0000000000000000E+00   0.0000000000000000E+00
   0.0000000000000000E+00   0.0000000000000000E+00   0.0000000000000000E+00
   0.0000000000000000E+00   0.0000000000000000E+00   0.0000000000000000E+00
   0.0000000000000000E+00   0.0000000000000000E+00   0.0000000000000000E+00
   0.0000000000000000E+00   0.0000000000000000E+00   0.0000000000000000E+00
   0.0000000000000000E+00   0.0000000000000000E+00   0.0000000000000000E+00
   0.0000000000000000E+00   0.0000000000000000E+00   0.0000000000000000E+00
   0.0000000000000000E+00   0.0000000000000000E+00   0.0000000000000000E+00
   0.0000000000000000E+00   0.0000000000000000E+00   0.0000000000000000E+00
   0.0000000000000000E+00   0.0000000000000000E+00   0.0000000000000000E+00
   0.0000000000000000E+00   0.0000000000000000E+00   0.0000000000000000E+00
   0.0000000000000000E+00   0.0000000000000000E+00   0.0000000000000000E+00
   0.0000000000000000E+00   0.0000000000000000E+00   0.0000000000000000E+00
   0.0000000000000000E+00   0.0000000000000000E+00   0.0000000000000000E+00
   0.0000000000000000E+00   0.0000000000000000E+00   0.0000000000000000E+00
   0.0000000000000000E+00
     </PP_GIPAW_CORE_ORBITAL.1>
     <PP_GIPAW_CORE_ORBITAL.2 size="1078" index="2" label="2S" n="2" l="0">
   0.0000000000000000E+00  -1.5841492450623155E-03  -1.6037909316883329E-03
  -1.6236757910168098E-03  -1.6438068139331199E-03  -1.6641870437042563E-03
  -1.6848195645114414E-03  -1.7057074987241246E-03  -1.7268540072304837E-03
  -1.7482622899030441E-03  -1.7699355860787160E-03  -1.7918771750435789E-03
  -1.8140903765234055E-03  -1.8365785511801386E-03  -1.8593451011143884E-03
  -1.8823934703740427E-03  -1.9057271454690280E-03  -1.9293496558923388E-03
  -1.9532645746473658E-03  -1.9774755187816346E-03  -2.0019861499270077E-03
  -2.0268001748464290E-03  -2.0519213459873160E-03  -2.0773534620416325E-03
  -2.1031003685127521E-03  -2.1291659582892046E-03  -2.1555541722253443E-03
  -2.1822689997290658E-03  -2.2093144793566212E-03  -2.2366946994146503E-03
  -2.2644137985694695E-03  -2.2924759664637532E-03  -2.3208854443406662E-03
  -2.3496465256755265E-03  -2.3787635568151225E-03  -2.4082409376247459E-03
  -2.4380831221430350E-03  -2.4682946192447408E-03  -2.4988799933114824E-03
  -2.5298438649106109E-03  -2.5611909114822439E-03  -2.5929258680346232E-03
  -2.6250535278478236E-03  -2.6575787431859727E-03  -2.6905064260180417E-03
  -2.7238415487473235E-03  -2.7575891449497102E-03  -2.7917543101208470E-03
  -2.8263422024322931E-03  -2.8613580434967752E-03  -2.8968071191426505E-03
  -2.9326947801976929E-03  -2.9690264432822859E-03  -3.0058075916121730E-03
  -3.0430437758108197E-03  -3.0807406147315766E-03  -3.1189037962896615E-03
  -3.1575390783041739E-03  -3.1966522893501731E-03  -3.2362493296209959E-03
  -3.2763361718009007E-03  -3.3169188619481681E-03  -3.3580035203887694E-03
  -3.3995963426207464E-03  -3.4417036002293857E-03  -3.4843316418133709E-03
  -3.5274868939219640E-03  -3.5711758620034068E-03  -3.6154051313646378E-03
  -3.6601813681424542E-03  -3.7055113202862544E-03  -3.7514018185525067E-03
  -3.7978597775110410E-03  -3.8448921965633263E-03  -3.8925061609728705E-03
  -3.9407088429078418E-03  -3.9895075024961148E-03  -4.0389094888927972E-03
  -4.0889222413604594E-03  -4.1395532903621317E-03  -4.1908102586672895E-03
  -4.2427008624708910E-03  -4.2952329125256752E-03  -4.3484143152878263E-03
  -4.4022530740761854E-03  -4.4567572902451183E-03  -4.5119351643712231E-03
  -4.5677949974540361E-03  -4.6243451921308219E-03  -4.6815942539056889E-03
  -4.7395507923931506E-03  -4.7982235225762504E-03  -4.8576212660794765E-03
  -4.9177529524565755E-03  -4.9786276204934563E-03  -5.0402544195263140E-03
  -5.1026426107751875E-03  -5.1658015686930538E-03  -5.2297407823306856E-03
  -5.2944698567173962E-03  -5.3599985142578736E-03  -5.4263365961452455E-03
  -5.4934940637905560E-03  -5.5614810002688735E-03  -5.6303076117821182E-03
  -5.6999842291388797E-03  -5.7705213092513205E-03  -5.8419294366494146E-03
  -5.9142193250126592E-03  -5.9874018187194619E-03  -6.0614878944143854E-03
  -6.1364886625934374E-03  -6.2124153692075836E-03  -6.2892793972847017E-03
  -6.3670922685701301E-03  -6.4458656451860333E-03  -6.5256113313097823E-03
  -6.6063412748715014E-03  -6.6880675692710598E-03  -6.7708024551146233E-03
  -6.8545583219710073E-03  -6.9393477101480734E-03  -7.0251833124892801E-03
  -7.1120779761906852E-03  -7.2000447046385524E-03  -7.2890966592678011E-03
  -7.3792471614414924E-03  -7.4705096943515721E-03  -7.5628979049410811E-03
  -7.6564256058480893E-03  -7.7511067773714465E-03  -7.8469555694587606E-03
  -7.9439863037166370E-03  -8.0422134754435538E-03  -8.1416517556854411E-03
  -8.2423159933143701E-03  -8.3442212171303768E-03  -8.4473826379868715E-03
  -8.5518156509396311E-03  -8.6575358374197994E-03  -8.7645589674309916E-03
  -8.8729010017708238E-03  -8.9825780942770477E-03  -9.0936065940985557E-03
  -9.2060030479914467E-03  -9.3197842026405044E-03  -9.4349670070061446E-03
  -9.5515686146972374E-03  -9.6696063863699888E-03  -9.7890978921530199E-03
  -9.9100609140991246E-03  -1.0032513448663695E-02  -1.0156473709210165E-02
  -1.0281960128542806E-02  -1.0408991361466944E-02  -1.0537586287376969E-02
  -1.0667764012872350E-02  -1.0799543874401881E-02  -1.0932945440936440E-02
  -1.1067988516670490E-02  -1.1204693143752539E-02  -1.1343079605044919E-02
  -1.1483168426912950E-02  -1.1624980382043924E-02  -1.1768536492296046E-02
  -1.1913858031577608E-02  -1.2060966528756675E-02  -1.2209883770601442E-02
  -1.2360631804751670E-02  -1.2513232942721251E-02  -1.2667709762932336E-02
  -1.2824085113781141E-02  -1.2982382116735764E-02  -1.3142624169466172E-02
  -1.3304834949006710E-02  -1.3469038414951286E-02  -1.3635258812681524E-02
  -1.3803520676628137E-02  -1.3973848833565712E-02  -1.4146268405941161E-02
  -1.4320804815236170E-02  -1.4497483785363708E-02  -1.4676331346099048E-02
  -1.4857373836545286E-02  -1.5040637908633836E-02  -1.5226150530659973E-02
  -1.5413938990853708E-02  -1.5604030900986211E-02  -1.5796454200012033E-02
  -1.5991237157747216E-02  -1.6188408378583829E-02  -1.6387996805240775E-02
  -1.6590031722551218E-02  -1.6794542761287029E-02  -1.7001559902020152E-02
  -1.7211113479021271E-02  -1.7423234184196005E-02  -1.7637953071058639E-02
  -1.7855301558743819E-02  -1.8075311436056295E-02  -1.8298014865558727E-02
  -1.8523444387698110E-02  -1.8751632924970608E-02  -1.8982613786125133E-02
  -1.9216420670405947E-02  -1.9453087671834197E-02  -1.9692649283528749E-02
  -1.9935140402066238E-02  -2.0180596331880744E-02  -2.0429052789703035E-02
  -2.0680545909039574E-02  -2.0935112244691245E-02  -2.1192788777312285E-02
  -2.1453612918009044E-02  -2.1717622512979103E-02  -2.1984855848190467E-02
  -2.2255351654101162E-02  -2.2529149110419183E-02  -2.2806287850902902E-02
  -2.3086807968201947E-02  -2.3370750018738541E-02  -2.3658155027629427E-02
  -2.3949064493648416E-02  -2.4243520394229234E-02  -2.4541565190509273E-02
  -2.4843241832413543E-02  -2.5148593763779245E-02  -2.5457664927520749E-02
  -2.5770499770834909E-02  -2.6087143250446761E-02  -2.6407640837895235E-02
  -2.6732038524859100E-02  -2.7060382828522803E-02  -2.7392720796982132E-02
  -2.7729100014689534E-02  -2.8069568607938879E-02  -2.8414175250389591E-02
  -2.8762969168629787E-02  -2.9116000147778213E-02  -2.9473318537124857E-02
  -2.9834975255809928E-02  -3.0201021798540534E-02  -3.0571510241345471E-02
  -3.0946493247367209E-02  -3.1326024072690611E-02  -3.1710156572208853E-02
  -3.2098945205524879E-02  -3.2492445042889014E-02  -3.2890711771171921E-02
  -3.3293801699872047E-02  -3.3701771767157593E-02  -3.4114679545942182E-02
  -3.4532583249993538E-02  -3.4955541740074883E-02  -3.5383614530118138E-02
  -3.5816861793428481E-02  -3.6255344368919126E-02  -3.6699123767376121E-02
  -3.7148262177752203E-02  -3.7602822473488645E-02  -3.8062868218864364E-02
  -3.8528463675371834E-02  -3.8999673808118016E-02  -3.9476564292250264E-02
  -3.9959201519405414E-02  -4.0447652604181497E-02  -4.0941985390630715E-02
  -4.1442268458772656E-02  -4.1948571131126558E-02  -4.2460963479261211E-02
  -4.2979516330361282E-02  -4.3504301273809144E-02  -4.4035390667779638E-02
  -4.4572857645847952E-02  -4.5116776123607677E-02  -4.5667220805298114E-02
  -4.6224267190439379E-02  -4.6787991580472955E-02  -4.7358471085406792E-02
  -4.7935783630462428E-02  -4.8520007962722357E-02  -4.9111223657776454E-02
  -4.9709511126364056E-02  -5.0314951621011093E-02  -5.0927627242658945E-02
  -5.1547620947283643E-02  -5.2175016552502285E-02  -5.2809898744165022E-02
  -5.3452353082929865E-02  -5.4102466010817446E-02  -5.4760324857743563E-02
  -5.5426017848026761E-02  -5.6099634106867441E-02  -5.6781263666796637E-02
  -5.7470997474090679E-02  -5.8168927395148888E-02  -5.8875146222831271E-02
  -5.9589747682752464E-02  -6.0312826439529267E-02  -6.1044478102977244E-02
  -6.1784799234253750E-02  -6.2533887351943221E-02  -6.3291840938080476E-02
  -6.4058759444109173E-02  -6.4834743296769901E-02  -6.5619893903914914E-02
  -6.6414313660244736E-02  -6.7218105952961821E-02  -6.8031375167337080E-02
  -6.8854226692184800E-02  -6.9686766925240132E-02  -7.0529103278435409E-02
  -7.1381344183068629E-02  -7.2243599094860639E-02  -7.3115978498893425E-02
  -7.3998593914426106E-02  -7.4891557899580893E-02  -7.5794984055894202E-02
  -7.6708987032726592E-02  -7.7633682531525347E-02  -7.8569187309932551E-02
  -7.9515619185733202E-02  -8.0473097040635086E-02  -8.1441740823874995E-02
  -8.2421671555642631E-02  -8.3413011330316311E-02  -8.4415883319500520E-02
  -8.5430411774860410E-02  -8.6456722030743532E-02  -8.7494940506579702E-02
  -8.8545194709053712E-02  -8.9607613234037792E-02  -9.0682325768279656E-02
  -9.1769463090832545E-02  -9.2869157074221526E-02  -9.3981540685334167E-02
  -9.5106747986026210E-02  -9.6244914133432946E-02  -9.7396175379974984E-02
  -9.8560669073047349E-02  -9.9738533654383135E-02  -1.0092990865907740E-01
  -1.0213493471426265E-01  -1.0335375353742225E-01  -1.0458650793433047E-01
  -1.0583334179660740E-01  -1.0709440009887351E-01  -1.0836982889549454E-01
  -1.0965977531690063E-01  -1.1096438756546663E-01  -1.1228381491094122E-01
  -1.1361820768540702E-01  -1.1496771727776123E-01  -1.1633249612769860E-01
  -1.1771269771918291E-01  -1.1910847657339092E-01  -1.2051998824111172E-01
  -1.2194738929458669E-01  -1.2339083731877250E-01  -1.2485049090200785E-01
  -1.2632650962607062E-01  -1.2781905405560257E-01  -1.2932828572688665E-01
  -1.3085436713595563E-01  -1.3239746172601449E-01  -1.3395773387415585E-01
  -1.3553534887734695E-01  -1.3713047293767028E-01  -1.3874327314679494E-01
  -1.4037391746965594E-01  -1.4202257472732313E-01  -1.4368941457903162E-01
  -1.4537460750335610E-01  -1.4707832477850188E-01  -1.4880073846168970E-01
  -1.5054202136760983E-01  -1.5230234704592005E-01  -1.5408188975776077E-01
  -1.5588082445126433E-01  -1.5769932673602632E-01  -1.5953757285651812E-01
  -1.6139573966440571E-01  -1.6327400458975264E-01  -1.6517254561107406E-01
  -1.6709154122421255E-01  -1.6903117041000792E-01  -1.7099161260072729E-01
  -1.7297304764522456E-01  -1.7497565577279911E-01  -1.7699961755571819E-01
  -1.7904511387037206E-01  -1.8111232585702566E-01  -1.8320143487813334E-01
  -1.8531262247518196E-01  -1.8744607032402463E-01  -1.8960196018866948E-01
  -1.9178047387348710E-01  -1.9398179317379455E-01  -1.9620609982478363E-01
  -1.9845357544874728E-01  -2.0072440150056906E-01  -2.0301875921143264E-01
  -2.0533682953070831E-01  -2.0767879306597878E-01  -2.1004483002115465E-01
  -2.1243512013264335E-01  -2.1484984260352066E-01  -2.1728917603566228E-01
  -2.1975329835979199E-01  -2.2224238676339295E-01  -2.2475661761644219E-01
  -2.2729616639491718E-01  -2.2986120760202089E-01  -2.3245191468708556E-01
  -2.3506845996209519E-01  -2.3771101451578147E-01  -2.4037974812524002E-01
  -2.4307482916501039E-01  -2.4579642451357481E-01  -2.4854469945721189E-01
  -2.5131981759115762E-01  -2.5412194071801625E-01  -2.5695122874336113E-01
  -2.5980783956847475E-01  -2.6269192898016525E-01  -2.6560365053760310E-01
  -2.6854315545611951E-01  -2.7151059248790543E-01  -2.7450610779955020E-01
  -2.7752984484636284E-01  -2.8058194424340821E-01  -2.8366254363320131E-01
  -2.8677177754999295E-01  -2.8990977728058603E-01  -2.9307667072161747E-01
  -2.9627258223323888E-01  -2.9949763248913813E-01  -3.0275193832282415E-01
  -3.0603561257012329E-01  -3.0934876390780913E-01  -3.1269149668830459E-01
  -3.1606391077039153E-01  -3.1946610134584941E-01  -3.2289815876197137E-01
  -3.2636016833987525E-01  -3.2985221018854832E-01  -3.3337435901455947E-01
  -3.3692668392736175E-01  -3.4050924824012624E-01  -3.4412210926603309E-01
  -3.4776531810995132E-01  -3.5143891945544126E-01  -3.5514295134701057E-01
  -3.5887744496755386E-01  -3.6264242441091049E-01  -3.6643790644947216E-01
  -3.7026390029677447E-01  -3.7412040736500074E-01  -3.7800742101734086E-01
  -3.8192492631513270E-01  -3.8587289975972489E-01  -3.8985130902899773E-01
  -3.9386011270847399E-01  -3.9789926001696790E-01  -4.0196869052670309E-01
  -4.0606833387784352E-01  -4.1019810948738095E-01  -4.1435792625231849E-01
  -4.1854768224709982E-01  -4.2276726441522927E-01  -4.2701654825502899E-01
  -4.3129539749949036E-01  -4.3560366379016430E-01  -4.3994118634505280E-01
  -4.4430779162045692E-01  -4.4870329296673905E-01  -4.5312749027796778E-01
  -4.5758016963540443E-01  -4.6206110294480829E-01  -4.6657004756752563E-01
  -4.7110674594534369E-01  -4.7567092521908927E-01  -4.8026229684094640E-01
  -4.8488055618049430E-01  -4.8952538212444957E-01  -4.9419643667010776E-01
  -4.9889336451249133E-01  -5.0361579262520317E-01  -5.0836332983500376E-01
  -5.1313556639012603E-01  -5.1793207352234572E-01  -5.2275240300284986E-01
  -5.2759608669191727E-01  -5.3246263608247324E-01  -5.3735154183755796E-01
  -5.4226227332175503E-01  -5.4719427812666743E-01  -5.5214698159048015E-01
  -5.5711978631171721E-01  -5.6211207165726429E-01  -5.6712319326475447E-01
  -5.7215248253942930E-01  -5.7719924614558293E-01  -5.8226276549271616E-01
  -5.8734229621653711E-01  -5.9243706765495230E-01  -5.9754628231920404E-01
  -6.0266911536032419E-01  -6.0780471403107916E-01  -6.1295219714360483E-01
  -6.1811065452293035E-01  -6.2327914645661076E-01  -6.2845670314069946E-01
  -6.3364232412230415E-01  -6.3883497773898656E-01  -6.4403360055528225E-01
  -6.4923709679662689E-01  -6.5444433778099464E-01  -6.5965416134857424E-01
  -6.6486537128981738E-01  -6.7007673677221691E-01  -6.7528699176618900E-01
  -6.8049483447045012E-01  -6.8569892673729915E-01  -6.9089789349823771E-01
  -6.9609032219037636E-01  -7.0127476218409879E-01  -7.0644972421247221E-01
  -7.1161367980291634E-01  -7.1676506071167811E-01  -7.2190225836164823E-01
  -7.2702362328411918E-01  -7.3212746456507694E-01  -7.3721204929665984E-01
  -7.4227560203443721E-01  -7.4731630426118401E-01  -7.5233229385785483E-01
  -7.5732166458249106E-01  -7.6228246555781376E-01  -7.6721270076828962E-01
  -7.7211032856747897E-01  -7.7697326119650956E-01  -7.8179936431454145E-01
  -7.8658645654212400E-01  -7.9133230901837281E-01  -7.9603464497292331E-01
  -8.0069113931364888E-01  -8.0529941823116835E-01  -8.0985705882118630E-01
  -8.1436158872575659E-01  -8.1881048579457849E-01  -8.2320117776747814E-01
  -8.2753104197924643E-01  -8.3179740508805822E-01  -8.3599754282871075E-01
  -8.4012867979196371E-01  -8.4418798923129423E-01  -8.4817259289841274E-01
  -8.5207956090892245E-01  -8.5590591163953633E-01  -8.5964861165829742E-01
  -8.6330457568928765E-01  -8.6687066661333934E-01  -8.7034369550630020E-01
  -8.7372042171643016E-01  -8.7699755298255022E-01  -8.8017174559458600E-01
  -8.8323960459819384E-01  -8.8619768404516508E-01  -8.8904248729137392E-01
  -8.9177046734401866E-01  -8.9437802725997562E-01  -8.9686152059708679E-01
  -8.9921725192024360E-01  -9.0144147736415547E-01  -9.0353040525470751E-01
  -9.0548019679085012E-01  -9.0728696678897458E-01  -9.0894678449175681E-01
  -9.1045567444347042E-01  -9.1180961743378430E-01  -9.1300455151208448E-01
  -9.1403637307436425E-01  -9.1490093802474981E-01  -9.1559406301372792E-01
  -9.1611152675515772E-01  -9.1644907142415033E-01  -9.1660240413790295E-01
  -9.1656719852157043E-01  -9.1633909636126176E-01  -9.1591370934623073E-01
  -9.1528662090232904E-01  -9.1445338811876953E-01  -9.1340954377023542E-01
  -9.1215059843634094E-01  -9.1067204272043289E-01  -9.0896934956968356E-01
  -9.0703797669839437E-01  -9.0487336911638561E-01  -9.0247096176431341E-01
  -8.9982618225768440E-01  -8.9693445374130565E-01  -8.9379119785582661E-01
  -8.9039183781797460E-01  -8.8673180161600540E-01  -8.8280652532180792E-01
  -8.7861145652102746E-01  -8.7414205786245458E-01  -8.6939381072785549E-01
  -8.6436221902328547E-01  -8.5904281309281871E-01  -8.5343115375551992E-01
  -8.4752283646632154E-01  -8.4131349560135671E-01  -8.3479880886813562E-01
  -8.2797450184079857E-01  -8.2083635262051347E-01  -8.1338019662091710E-01
  -8.0560193147829573E-01  -7.9749752208604041E-01  -7.8906300575266608E-01
  -7.8029449748251734E-01  -7.7118819537802896E-01  -7.6174038616218231E-01
  -7.5194745081958392E-01  -7.4180587035429146E-01  -7.3131223166231296E-01
  -7.2046323351637775E-01  -7.0925569266032984E-01  -6.9768655001020230E-01
  -6.8575287695871101E-01  -6.7345188177961357E-01  -6.6078091612807310E-01
  -6.4773748163278633E-01  -6.3431923657536449E-01  -6.2052400265205487E-01
  -6.0634977181255634E-01  -5.9179471317032895E-01  -5.7685717997838815E-01
  -5.6153571666423874E-01  -5.4582906591716041E-01  -5.2973617582070853E-01
  -5.1325620702287411E-01  -4.9638853993587212E-01  -4.7913278195725101E-01
  -4.6148877470344024E-01  -4.4345660124647662E-01  -4.2503659334432331E-01
  -4.0622933865452182E-01  -3.8703568792076132E-01  -3.6745676212131861E-01
  -3.4749395956790369E-01  -3.2714896294318901E-01  -3.0642374626463287E-01
  -2.8532058176203134E-01  -2.6384204665575106E-01  -2.4199102982214712E-01
  -2.1977073833259525E-01  -1.9718470385196307E-01  -1.7423678888232708E-01
  -1.5093119283745882E-01  -1.2727245793334030E-01  -1.0326547488012157E-01
  -7.8915488360623787E-02  -5.4228102280701518E-02  -2.9209284776828437E-02
  -3.8653729663255766E-03   2.1796922573991771E-02   4.7770513614916792E-02
   7.4047930381459237E-02   1.0062131797259945E-01   1.2748243310751209E-01
   1.5462264121143454E-01   1.8203291385426687E-01   2.0970382655501488E-01
   2.3762555696528498E-01   2.6578788344544679E-01   2.9418018404745283E-01
   3.2279143591915993E-01   3.5161021514567642E-01   3.8062469704456492E-01
   4.0982265693288100E-01   4.3919147138543796E-01   4.6871812000550395E-01
   4.9838918773042179E-01   5.2819086769674561E-01   5.5810896469092242E-01
   5.8812889921303624E-01   6.1823571218269591E-01   6.4841407031661014E-01
   6.7864827220810575E-01   7.0892225513839047E-01   7.3921960264799835E-01
   7.6952355289522489E-01   7.9981700782482013E-01   8.3008254316661656E-01
   8.6030241927906437E-01   8.9045859284705420E-01   9.2053272943843811E-01
   9.5050621691779391E-01   9.8036017971125666E-01   1.0100754939120864E+00
   1.0396328032129418E+00   1.0690125356489635E+00   1.0981949211340909E+00
   1.1271600097726466E+00   1.1558876909284852E+00   1.1843577130342098E+00
   1.2125497041239182E+00   1.2404431930731867E+00   1.2680176315302401E+00
   1.2952524165220560E+00   1.3221269137181704E+00   1.3486204813337592E+00
   1.3747124946516800E+00   1.4003823711408012E+00   1.4256095961455093E+00
   1.4503737491182473E+00   1.4746545303640846E+00   1.4984317882632228E+00
   1.5216855469343209E+00   1.5443960342987049E+00   1.5665437105026359E+00
   1.5881092966523980E+00   1.6090738038143975E+00   1.6294185622304880E+00
   1.6491252506966456E+00   1.6681759260514022E+00   1.6865530527189523E+00
   1.7042395322503001E+00   1.7212187328047839E+00   1.7374745185130986E+00
   1.7529912786620490E+00   1.7677539566404930E+00   1.7817480785851234E+00
   1.7949597816642806E+00   1.8073758419374231E+00   1.8189837017274786E+00
   1.8297714964431062E+00   1.8397280807876035E+00   1.8488430542911658E+00
   1.8571067861032431E+00   1.8645104389817355E+00   1.8710459924161502E+00
   1.8767062648219903E+00   1.8814849347441833E+00   1.8853765610078523E+00
   1.8883766017553096E+00   1.8904814323089596E+00   1.8916883618005802E+00
   1.8919956485084000E+00   1.8914025138444499E+00   1.8899091549357681E+00
   1.8875167557443049E+00   1.8842274966717305E+00   1.8800445625967512E+00
   1.8749721492941238E+00   1.8690154681862301E+00   1.8621807493798195E+00
   1.8544752429424414E+00   1.8459072183751712E+00   1.8364859622403615E+00
   1.8262217739055804E+00   1.8151259593674263E+00   1.8032108231217574E+00
   1.7904896580499265E+00   1.7769767332940178E+00   1.7626872800978763E+00
   1.7476374755949649E+00   1.7318444245288054E+00   1.7153261388971164E+00
   1.6981015155168702E+00   1.6801903115141694E+00   1.6616131177506110E+00
   1.6423913302063917E+00   1.6225471193497683E+00   1.6021033975331733E+00
   1.5810837844674241E+00   1.5595125708375568E+00   1.5374146801363460E+00
   1.5148156288038936E+00   1.4917414847737607E+00   1.4682188245365650E+00
   1.4442746888399902E+00   1.4199365371490111E+00   1.3952322009891376E+00
   1.3701898362885603E+00   1.3448378748219987E+00   1.3192049748199577E+00
   1.2933199708021335E+00   1.2672118226112674E+00   1.2409095635885823E+00
   1.2144422477662455E+00   1.1878388958896806E+00   1.1611284400318813E+00
   1.1343396665331120E+00   1.1075011570085564E+00   1.0806412272299919E+00
   1.0537878638197766E+00   1.0269686589068079E+00   1.0002107431853042E+00
   9.7354071817788523E-01   9.4698458890942405E-01   9.2056769860711907E-01
   8.9431466739893295E-01   8.6824933721391762E-01   8.4239472510798530E-01
   8.1677298695613221E-01   7.9140539279748578E-01   7.6631231408395051E-01
   7.4151322176736068E-01   7.1702669279704934E-01   6.9287042151957690E-01
   6.6906123199949408E-01   6.4561508759156416E-01   6.2254709512618023E-01
   5.9987150252502108E-01   5.7760169013626828E-01   5.5575015721585330E-01
   5.3432850559856904E-01   5.1334742270660494E-01   4.9281666577179584E-01
   4.7274504868295647E-01   4.5314043236977075E-01   4.3400971919969233E-01
   4.1535885153668906E-01   3.9719281439315463E-01   3.7951564197828591E-01
   3.6233042788268988E-01   3.4563933861641621E-01   3.2944363021790901E-01
   3.1374366766386647E-01   2.9853894682699889E-01   2.8382811874701536E-01
   2.6960901599807513E-01   2.5587868095217314E-01   2.4263339575257517E-01
   2.2986871382391985E-01   2.1757949275582622E-01   2.0575992840511975E-01
   1.9440359006757699E-01   1.8350345657417669E-01   1.7305195316914496E-01
   1.6304098902799324E-01   1.5346199527390950E-01   1.4430596335031715E-01
   1.3556348360689091E-01   1.2722478395592218E-01   1.1927976845604710E-01
   1.1171805568119415E-01   1.0452901673428200E-01   9.7701812767866672E-02
   9.1225431877557078E-02   8.5088725238674071E-02   7.9280442362228878E-02
   7.3789265352778216E-02   6.8603842058055434E-02   6.3712818008298394E-02
   5.9104867051870728E-02   5.4768720602967155E-02   5.0693195426762379E-02
   4.6867219897312205E-02   4.3279858673572091E-02   3.9920335749138003E-02
   3.6778055841531460E-02   3.3842624096953974E-02   3.1103864096451203E-02
   2.8551834159112048E-02   2.6176841947355877E-02   2.3969457388401189E-02
   2.1920523934574498E-02   2.0021168193258543E-02   1.8262807964825573E-02
   1.6637158733910234E-02   1.5136238665794983E-02   1.3752372165433584E-02
   1.2478192061798520E-02   1.1306640484715162E-02   1.0230968505163775E-02
   9.2447346132249458E-03   8.3418021103447929E-03   7.5163354944982504E-03
   6.7627959180886731E-03   6.0759357990856381E-03   5.4507926660058957E-03
   4.8826823168790770E-03   4.3671913713842500E-03   3.9001692938991982E-03
   3.4777199633202016E-03   3.0961928632321670E-03   2.7521739633610473E-03
   2.4424763602809707E-03   2.1641307421081143E-03   1.9143757384384159E-03
   1.6906482131192355E-03   1.4905735536238816E-03   1.3119560068636784E-03
   1.1527691072660258E-03   1.0111462388986265E-03   8.8537136937155909E-04
   7.7386998922641384E-04   6.7520028655930551E-04   5.8804458274644780E-04
   5.1120105137390044E-04   4.4357573883811187E-04   3.8417490159985357E-04
   3.3209767176012523E-04   2.8652905949215826E-04   2.4673329792666946E-04
   2.1204753335163560E-04   1.8187586106258204E-04   1.5568370489029587E-04
   1.3299253634026790E-04   1.1337492740510156E-04   9.6449929455228803E-05
   8.1878769171759235E-05   6.9360851253984104E-05   5.8630056605867637E-05
   4.9451323872227456E-05   4.1617501547585538E-05   3.4946457405561974E-05
   2.9278431682323412E-05   2.4473620279825425E-05   2.0409974218829771E-05
   1.6981201653473486E-05   1.4094958943962195E-05   1.1671217558447651E-05
   9.6407939263136286E-06   7.9440297813606599E-06   6.5296110037051002E-06
   5.3535134837571792E-06   4.3780650812047180E-06   3.5711133272544709E-06
   2.9052891118564985E-06   2.3573572011734424E-06   1.9076450370816738E-06
   1.5395418734733265E-06   1.2390608976897273E-06   9.9445756444670673E-07
   7.9589792980354265E-07   6.3517131049522393E-07   5.0544210647591808E-07
   4.0103610991923580E-07   3.1725708041827489E-07   2.5022979321340776E-07
   1.9676616442009270E-07   1.5425142459562973E-07   1.2054765003353965E-07
   9.3912270685034297E-08   7.2929455601240847E-08   5.6452532485830953E-08
   4.3555828717429675E-08   3.3494528475207683E-08   2.5671326005971513E-08
   1.9608820051924846E-08   1.4926740701271542E-08   1.1323228931535900E-08
   8.5595024285041464E-09   6.4473403502289503E-09   4.8389059697875989E-09
   3.6185009012009014E-09   2.6959091361276399E-09   2.0010445560155376E-09
   1.4796629976402354E-09   1.0899403361961406E-09   7.9975228052037992E-10
   5.8452047297762985E-10   4.2551376729185126E-10   3.0851386895298407E-10
   2.2297270591287638E-10   1.6665819431205265E-10  -7.8454060587160511E-13
  -0.0000000000000000E+00  -0.0000000000000000E+00  -0.0000000000000000E+00
  -0.0000000000000000E+00  -0.0000000000000000E+00  -0.0000000000000000E+00
  -0.0000000000000000E+00  -0.0000000000000000E+00  -0.0000000000000000E+00
  -0.0000000000000000E+00  -0.0000000000000000E+00  -0.0000000000000000E+00
  -0.0000000000000000E+00  -0.0000000000000000E+00  -0.0000000000000000E+00
  -0.0000000000000000E+00  -0.0000000000000000E+00  -0.0000000000000000E+00
  -0.0000000000000000E+00  -0.0000000000000000E+00  -0.0000000000000000E+00
  -0.0000000000000000E+00  -0.0000000000000000E+00  -0.0000000000000000E+00
  -0.0000000000000000E+00  -0.0000000000000000E+00  -0.0000000000000000E+00
  -0.0000000000000000E+00  -0.0000000000000000E+00  -0.0000000000000000E+00
  -0.0000000000000000E+00  -0.0000000000000000E+00  -0.0000000000000000E+00
  -0.0000000000000000E+00  -0.0000000000000000E+00  -0.0000000000000000E+00
  -0.0000000000000000E+00  -0.0000000000000000E+00  -0.0000000000000000E+00
  -0.0000000000000000E+00  -0.0000000000000000E+00  -0.0000000000000000E+00
  -0.0000000000000000E+00  -0.0000000000000000E+00  -0.0000000000000000E+00
  -0.0000000000000000E+00  -0.0000000000000000E+00  -0.0000000000000000E+00
  -0.0000000000000000E+00  -0.0000000000000000E+00  -0.0000000000000000E+00
  -0.0000000000000000E+00  -0.0000000000000000E+00  -0.0000000000000000E+00
  -0.0000000000000000E+00  -0.0000000000000000E+00  -0.0000000000000000E+00
  -0.0000000000000000E+00  -0.0000000000000000E+00  -0.0000000000000000E+00
  -0.0000000000000000E+00  -0.0000000000000000E+00  -0.0000000000000000E+00
  -0.0000000000000000E+00  -0.0000000000000000E+00  -0.0000000000000000E+00
  -0.0000000000000000E+00  -0.0000000000000000E+00  -0.0000000000000000E+00
  -0.0000000000000000E+00  -0.0000000000000000E+00  -0.0000000000000000E+00
  -0.0000000000000000E+00  -0.0000000000000000E+00  -0.0000000000000000E+00
  -0.0000000000000000E+00  -0.0000000000000000E+00  -0.0000000000000000E+00
  -0.0000000000000000E+00  -0.0000000000000000E+00  -0.0000000000000000E+00
  -0.0000000000000000E+00  -0.0000000000000000E+00  -0.0000000000000000E+00
  -0.0000000000000000E+00  -0.0000000000000000E+00  -0.0000000000000000E+00
  -0.0000000000000000E+00  -0.0000000000000000E+00  -0.0000000000000000E+00
  -0.0000000000000000E+00  -0.0000000000000000E+00  -0.0000000000000000E+00
  -0.0000000000000000E+00  -0.0000000000000000E+00  -0.0000000000000000E+00
  -0.0000000000000000E+00  -0.0000000000000000E+00  -0.0000000000000000E+00
  -0.0000000000000000E+00  -0.0000000000000000E+00  -0.0000000000000000E+00
  -0.0000000000000000E+00  -0.0000000000000000E+00  -0.0000000000000000E+00
  -0.0000000000000000E+00
     </PP_GIPAW_CORE_ORBITAL.2>
     <PP_GIPAW_CORE_ORBITAL.3 size="1078" index="3" label="2P" n="2" l="1">
   0.0000000000000000E+00   5.6458496146979426E-07   5.7640540028584302E-07
   5.8849431774765522E-07   6.0085838144609196E-07   6.1350363476191162E-07
   6.2643603886593758E-07   6.3966168492903168E-07   6.5318680307441876E-07
   6.6701776549682664E-07   6.8116108950344073E-07   6.9562344064361869E-07
   7.1041163591328084E-07   7.2553264703339844E-07   7.4099360380408124E-07
   7.5680179753593591E-07   7.7296468456041209E-07   7.8948988982089550E-07
   8.0638521054634361E-07   8.2365862000930749E-07   8.4131827137021660E-07
   8.5937250160985638E-07   8.7782983555202577E-07   8.9669898997836124E-07
   9.1598887783742705E-07   9.3570861255016865E-07   9.5586751241389367E-07
   9.7647510510700429E-07   9.9754113229673968E-07   1.0190755543522496E-06
   1.0410885551653829E-06   1.0635905470816017E-06   1.0865921759435365E-06
   1.1101043262496962E-06   1.1341381264309656E-06   1.1587049542475418E-06
   1.1838164423090352E-06   1.2094844837205637E-06   1.2357212378576255E-06
   1.2625391362727783E-06   1.2899508887370225E-06   1.3179694894190241E-06
   1.3466082232052882E-06   1.3758806721644889E-06   1.4058007221592791E-06
   1.4363825696088936E-06   1.4676407284060609E-06   1.4995900369916914E-06
   1.5322456655909928E-06   1.5656231236147086E-06   1.5997382672292358E-06
   1.6346073070995646E-06   1.6702468163089410E-06   1.7066737384593677E-06
   1.7439053959570944E-06   1.7819594984873466E-06   1.8208541516826870E-06
   1.8606078659894711E-06   1.9012395657369608E-06   1.9427685984138206E-06
   1.9852147441567813E-06   2.0285982254563845E-06   2.0729397170848791E-06
   2.1182603562514031E-06   2.1645817529897549E-06   2.2119260007841960E-06
   2.2603156874387538E-06   2.3097739061958453E-06   2.3603242671099137E-06
   2.4119909086821220E-06   2.4647985097622052E-06   2.5187723017237377E-06
   2.5739380809192308E-06   2.6303222214216349E-06   2.6879516880590238E-06
   2.7468540497492794E-06   2.8070574931419446E-06   2.8685908365744024E-06
   2.9314835443499007E-06   2.9957657413449287E-06   3.0614682279538123E-06
   3.1286224953784716E-06   3.1972607412715694E-06   3.2674158857413675E-06
   3.3391215877269508E-06   3.4124122617525316E-06   3.4873230950699752E-06
   3.5638900651986489E-06   3.6421499578721311E-06   3.7221403854014773E-06
   3.8038998054649793E-06   3.8874675403345111E-06   3.9728837965490076E-06
   4.0601896850456884E-06   4.1494272417599356E-06   4.2406394487051317E-06
   4.3338702555437955E-06   4.4291646016619500E-06   4.5265684387585833E-06
   4.6261287539626801E-06   4.7278935934903864E-06   4.8319120868552791E-06
   4.9382344716449815E-06   5.0469121188777379E-06   5.1579975589527988E-06
   5.2715445082089066E-06   5.3876078961054392E-06   5.5062438930412274E-06
   5.6275099388262037E-06   5.7514647718216975E-06   5.8781684587653744E-06
   6.0076824252972283E-06   6.1400694872035181E-06   6.2753938823958546E-06
   6.4137213036430911E-06   6.5551189320741778E-06   6.6996554714703544E-06
   6.8474011833658645E-06   6.9984279229763715E-06   7.1528091759752766E-06
   7.3106200961379274E-06   7.4719375438751171E-06   7.6368401256766574E-06
   7.8054082344874953E-06   7.9777240910383512E-06   8.1538717861542472E-06
   8.3339373240640444E-06   8.5180086667355815E-06   8.7061757792606398E-06
   8.8985306763154811E-06   9.0951674697224600E-06   9.2961824171395996E-06
   9.5016739719051806E-06   9.7117428340652307E-06   9.9264920026124465E-06
   1.0146026828965875E-05   1.0370455071721317E-05   1.0599886952703021E-05
   1.0834435214348348E-05   1.1074215178457566E-05   1.1319344806341624E-05
   1.1569944760402108E-05   1.1826138467177797E-05   1.2088052181893355E-05
   1.2355815054546817E-05   1.2629559197572899E-05   1.2909419755120566E-05
   1.3195534973983959E-05   1.3488046276226878E-05   1.3787098333541932E-05
   1.4092839143386642E-05   1.4405420106939465E-05   1.4724996108920337E-05
   1.5051725599320893E-05   1.5385770677091008E-05   1.5727297175829155E-05
   1.6076474751525744E-05   1.6433476972409021E-05   1.6798481410945309E-05
   1.7171669738045918E-05   1.7553227819534565E-05   1.7943345814930600E-05
   1.8342218278604632E-05   1.8750044263364501E-05   1.9167027426531008E-05
   1.9593376138564275E-05   2.0029303594303269E-05   2.0475027926882208E-05
   2.0930772324389627E-05   2.1396765149337061E-05   2.1873240061006279E-05
   2.2360436140745602E-05   2.2858598020287465E-05   2.3367976013161271E-05
   2.3888826249277712E-05   2.4421410812761815E-05   2.4965997883114921E-05
   2.5522861879786857E-05   2.6092283610242198E-05   2.6674550421606194E-05
   2.7269956355978509E-05   2.7878802309504223E-05   2.8501396195295139E-05
   2.9138053110295145E-05   2.9789095506186895E-05   3.0454853364439104E-05
   3.1135664375595844E-05   3.1831874122912204E-05   3.2543836270443122E-05
   3.3271912755694425E-05   3.4016473986948927E-05   3.4777899045381317E-05
   3.5556575892080358E-05   3.6352901580098650E-05   3.7167282471653407E-05
   3.8000134460604708E-05   3.8851883200341269E-05   3.9722964337205958E-05
   4.0613823749597735E-05   4.1524917792889008E-05   4.2456713550301529E-05
   4.3409689089886969E-05   4.4384333727762216E-05   4.5381148297752867E-05
   4.6400645427602690E-05   4.7443349821909544E-05   4.8509798551953843E-05
   4.9600541352587533E-05   5.0716140926358359E-05   5.1857173255045796E-05
   5.3024227918791254E-05   5.4217908423008528E-05   5.5438832533265322E-05
   5.6687632618332219E-05   5.7964956001597997E-05   5.9271465321057899E-05
   6.0607838898084168E-05   6.1974771115194186E-05   6.3372972803037563E-05
   6.4803171636827346E-05   6.6266112542446342E-05   6.7762558112467543E-05
   6.9293289032328686E-05   7.0859104516911978E-05   7.2460822757782755E-05
   7.4099281381347459E-05   7.5775337918199985E-05   7.7489870283926768E-05
   7.9243777271655581E-05   8.1037979056630896E-05   8.2873417713111758E-05
   8.4751057743894575E-05   8.6671886622765424E-05   8.8636915350203237E-05
   9.0647179022651834E-05   9.2703737415696197E-05   9.4807675581480843E-05
   9.6960104460716234E-05   9.9162161509633003E-05   1.0141501134224399E-04
   1.0371984638829062E-04   1.0607788756725364E-04   1.0849038497882074E-04
   1.1095861861021220E-04   1.1348389906077288E-04   1.1606756828425231E-04
   1.1871100034920411E-04   1.2141560221794205E-04   1.2418281454450731E-04
   1.2701411249210634E-04   1.2991100657049393E-04   1.3287504349378419E-04
   1.3590780705918592E-04   1.3901091904717057E-04   1.4218604014359083E-04
   1.4543487088428353E-04   1.4875915262270022E-04   1.5216066852112296E-04
   1.5564124456603860E-04   1.5920275060825193E-04   1.6284710142833883E-04
   1.6657625782805230E-04   1.7039222774830343E-04   1.7429706741436748E-04
   1.7829288250896297E-04   1.8238182937388098E-04   1.8656611624085504E-04
   1.9084800449236788E-04   1.9522980995312686E-04   1.9971390421293658E-04
   2.0430271598172829E-04   2.0899873247752290E-04   2.1380450084810729E-04
   2.1872262962724866E-04   2.2375579022626283E-04   2.2890671846179108E-04
   2.3417821612065363E-04   2.3957315256266243E-04   2.4509446636231070E-04
   2.5074516699026024E-04   2.5652833653558299E-04   2.6244713146973361E-04
   2.6850478445323824E-04   2.7470460618613353E-04   2.8104998730318773E-04
   2.8754440031497397E-04   2.9419140159589300E-04   3.0099463342025056E-04
   3.0795782604754740E-04   3.1508479985813706E-04   3.2237946754045413E-04
   3.2984583633103925E-04   3.3748801030860211E-04   3.4531019274341388E-04
   3.5331668850333210E-04   3.6151190651779547E-04   3.6990036230116736E-04
   3.7848668053681682E-04   3.8727559772337933E-04   3.9627196488466160E-04
   4.0548075034467984E-04   4.1490704256938129E-04   4.2455605307659589E-04
   4.3443311941583797E-04   4.4454370821958767E-04   4.5489341832772559E-04
   4.6548798398684610E-04   4.7633327812618398E-04   4.8743531571195748E-04
   4.9880025718195887E-04   5.1043441196224994E-04   5.2234424206790164E-04
   5.3453636578970176E-04   5.4701756146885851E-04   5.5979477136172641E-04
   5.7287510559665016E-04   5.8626584622506158E-04   5.9997445136900334E-04
   6.1400855946732184E-04   6.2837599362280440E-04   6.4308476605257276E-04
   6.5814308264414763E-04   6.7355934761957061E-04   6.8934216831011315E-04
   7.0550036004407037E-04   7.2204295115027009E-04   7.3897918807990523E-04
   7.5631854064943480E-04   7.7407070740729297E-04   7.9224562112723690E-04
   8.1085345443122306E-04   8.2990462554473842E-04   8.4940980418762467E-04
   8.6937991760343029E-04   8.8982615673046522E-04   9.1075998251773744E-04
   9.3219313238903300E-04   9.5413762685851201E-04   9.7660577630120427E-04
   9.9961018788186952E-04   1.0231637726458361E-03   1.0472797527753517E-03
   1.0719716690152396E-03   1.0972533882715699E-03   1.1231391113872286E-03
   1.1496433810983320E-03   1.1767810901754426E-03   1.2045674897537555E-03
   1.2330181978563843E-03   1.2621492081150083E-03   1.2919768986922697E-03
   1.3225180414102838E-03   1.3537898110898637E-03   1.3858097951050096E-03
   1.4185960031574000E-03   1.4521668772756776E-03   1.4865413020443807E-03
   1.5217386150675738E-03   1.5577786176722004E-03   1.5946815858563538E-03
   1.6324682814877641E-03   1.6711599637578467E-03   1.7107784008968284E-03
   1.7513458821555206E-03   1.7928852300594172E-03   1.8354198129409592E-03
   1.8789735577558007E-03   1.9235709631891600E-03   1.9692371130583600E-03
   2.0159976900177459E-03   2.0638789895724434E-03   2.1129079344072584E-03
   2.1631120890374749E-03   2.2145196747881185E-03   2.2671595851085735E-03
   2.3210614012294552E-03   2.3762554081688024E-03   2.4327726110947674E-03
   2.4906447520521469E-03   2.5499043270600726E-03   2.6105846035885650E-03
   2.6727196384214663E-03   2.7363442959136971E-03   2.8014942666506849E-03
   2.8682060865180344E-03   2.9365171561896849E-03   3.0064657610428067E-03
   3.0780910915079291E-03   3.1514332638628928E-03   3.2265333414792934E-03
   3.3034333565303583E-03   3.3821763321691335E-03   3.4628063051861278E-03
   3.5453683491557652E-03   3.6299085980808607E-03   3.7164742705447498E-03
   3.8051136943807453E-03   3.8958763318685222E-03   3.9888128054676357E-03
   4.0839749240979229E-03   4.1814157099772072E-03   4.2811894260264905E-03
   4.3833516038530246E-03   4.4879590723220552E-03   4.5950699867276226E-03
   4.7047438585735447E-03   4.8170415859753284E-03   4.9320254846941013E-03
   5.0497593198139332E-03   5.1703083380735511E-03   5.2937393008641812E-03
   5.4201205179048861E-03   5.5495218816069732E-03   5.6820149021395081E-03
   5.8176727432075062E-03   5.9565702585548767E-03   6.0987840292043190E-03
   6.2443924014459213E-03   6.3934755255872075E-03   6.5461153954765412E-03
   6.7023958888124688E-03   6.8624028082515413E-03   7.0262239233268133E-03
   7.1939490131900661E-03   7.3656699101900171E-03   7.5414805442994030E-03
   7.7214769884036876E-03   7.9057575044638780E-03   8.0944225905666203E-03
   8.2875750288740578E-03   8.4853199344863493E-03   8.6877648052297047E-03
   8.8950195723824423E-03   9.1071966523522067E-03   9.3244109993166503E-03
   9.5467801588404351E-03   9.7744243224812226E-03   1.0007466383396640E-02
   1.0246031992965398E-02   1.0490249618434202E-02   1.0740250601602875E-02
   1.0996169218559920E-02   1.1258142740479820E-02   1.1526311495494452E-02
   1.1800818931649606E-02   1.2081811680958163E-02   1.2369439624560937E-02
   1.2663855959005746E-02   1.2965217263655631E-02   1.3273683569236186E-02
   1.3589418427531804E-02   1.3912588982240685E-02   1.4243366040997404E-02
   1.4581924148572152E-02   1.4928441661254718E-02   1.5283100822431154E-02
   1.5646087839360678E-02   1.6017592961159108E-02   1.6397810557995874E-02
   1.6786939201509823E-02   1.7185181746448782E-02   1.7592745413537957E-02
   1.8009841873579662E-02   1.8436687332788804E-02   1.8873502619365046E-02
   1.9320513271303748E-02   1.9777949625445778E-02   2.0246046907765890E-02
   2.0725045324898071E-02   2.1215190156895887E-02   2.1716731851223567E-02
   2.2229926117974037E-02   2.2755034026307346E-02   2.3292322102102969E-02
   2.3842062426817644E-02   2.4404532737538464E-02   2.4980016528221353E-02
   2.5568803152100635E-02   2.6171187925257570E-02   2.6787472231330465E-02
   2.7417963627349929E-02   2.8062975950680257E-02   2.8722829427044523E-02
   2.9397850779612683E-02   3.0088373339126267E-02   3.0794737155032958E-02
   3.1517289107602861E-02   3.2256383020993817E-02   3.3012379777233231E-02
   3.3785647431080194E-02   3.4576561325728589E-02   3.5385504209311344E-02
   3.6212866352160492E-02   3.7059045664777655E-02   3.7924447816465111E-02
   3.8809486354563862E-02   3.9714582824245129E-02   4.0640166888793613E-02
   4.1586676450323164E-02   4.2554557770857024E-02   4.3544265593704320E-02
   4.4556263265059799E-02   4.5591022855749702E-02   4.6649025283043238E-02
   4.7730760432444903E-02   4.8836727279378593E-02   4.9967434010670199E-02
   5.1123398145730643E-02   5.2305146657336696E-02   5.3513216091903751E-02
   5.4748152689136034E-02   5.6010512500940052E-02   5.7300861509475803E-02
   5.8619775744220663E-02   5.9967841397911656E-02   6.1345654941226527E-02
   6.2753823236060935E-02   6.4192963647249246E-02   6.5663704152572847E-02
   6.7166683450893772E-02   6.8702551068242954E-02   7.0271967461687623E-02
   7.1875604120794911E-02   7.3514143666501872E-02   7.5188279947194903E-02
   7.6898718131794691E-02   7.8646174799634996E-02   8.0431378026915037E-02
   8.2255067469499926E-02   8.4117994441833932E-02   8.6020921991721691E-02
   8.7964624970729655E-02   8.9949890099943405E-02   9.1977516030815942E-02
   9.4048313400829212E-02   9.6163104883680586E-02   9.8322725233702807E-02
   1.0052802132420892E-01   1.0277985217945189E-01   1.0507908899987373E-01
   1.0742661518031213E-01   1.0982332632082117E-01   1.1227013022975324E-01
   1.1476794691874098E-01   1.1731770858920518E-01   1.1992035961000573E-01
   1.2257685648584243E-01   1.2528816781600161E-01   1.2805527424303342E-01
   1.3087916839093711E-01   1.3376085479241551E-01   1.3670134980475485E-01
   1.3970168151387108E-01   1.4276288962605532E-01   1.4588602534694128E-01
   1.4907215124720172E-01   1.5232234111447893E-01   1.5563767979103235E-01
   1.5901926299658758E-01   1.6246819713585084E-01   1.6598559909014915E-01
   1.6957259599264093E-01   1.7323032498653682E-01   1.7695993296575582E-01
   1.8076257629743603E-01   1.8463942052570673E-01   1.8859164005611923E-01
   1.9262041782013006E-01   1.9672694491901166E-01   2.0091242024656980E-01
   2.0517805009002615E-01   2.0952504770842928E-01   2.1395463288793809E-01
   2.1846803147332589E-01   2.2306647487504200E-01   2.2775119955116230E-01
   2.3252344646355672E-01   2.3738446050759568E-01   2.4233548991472073E-01
   2.4737778562719007E-01   2.5251260064432035E-01   2.5774118933953938E-01
   2.6306480674755917E-01   2.6848470782099620E-01   2.7400214665574812E-01
   2.7961837568445413E-01   2.8533464483736404E-01   2.9115220066994829E-01
   2.9707228545658848E-01   3.0309613624969783E-01   3.0922498390362774E-01
   3.1546005206273192E-01   3.2180255611296632E-01   3.2825370209643101E-01
   3.3481468558825733E-01   3.4148669053528224E-01   3.4827088805595829E-01
   3.5516843520097185E-01   3.6218047367407835E-01   3.6930812851266720E-01
   3.7655250672762669E-01   3.8391469590208221E-01   3.9139576274863475E-01
   3.9899675162475257E-01   4.0671868300601238E-01   4.1456255191692554E-01
   4.2252932631912343E-01   4.3061994545673754E-01   4.3883531815884197E-01
   4.4717632109889155E-01   4.5564379701113905E-01   4.6423855286407090E-01
   4.7296135799096989E-01   4.8181294217777343E-01   4.9079399370846249E-01
   4.9990515736829327E-01   5.0914703240526049E-01   5.1852017045024090E-01
   5.2802507339638205E-01   5.3766219123834402E-01   5.4743191987213868E-01
   5.5733459885635295E-01   5.6737050913568199E-01   5.7753987072777446E-01
   5.8784284037449686E-01   5.9827950915884553E-01   6.0884990008882367E-01
   6.1955396564973586E-01   6.3039158532646200E-01   6.4136256309738504E-01
   6.5246662490179796E-01   6.6370341608271533E-01   6.7507249880715936E-01
   6.8657334946614679E-01   6.9820535605669676E-01   7.0996781554837018E-01
   7.2185993123697201E-01   7.3388081008818851E-01   7.4602946007411797E-01
   7.5830478750575769E-01   7.7070559436472141E-01   7.8323057563756826E-01
   7.9587831665629538E-01   8.0864729044875905E-01   8.2153585510282090E-01
   8.3454225114829961E-01   8.4766459896090218E-01   8.6090089619238797E-01
   8.7424901523151555E-01   8.8770670070024560E-01   9.0127156698993571E-01
   9.1494109584233241E-01   9.2871263398012815E-01   9.4258339079209552E-01
   9.5655043607765289E-01   9.7061069785580867E-01   9.8476096024343884E-01
   9.9899786140762292E-01   1.0133178915968590E+00   1.0277173912556730E+00
   1.0421925492270276E+00   1.0567394010467843E+00   1.0713538273340757E+00
   1.0860315522813839E+00   1.1007681422477271E+00   1.1155590044581529E+00
   1.1303993858125518E+00   1.1452843718065602E+00   1.1602088855673227E+00
   1.1751676870067802E+00   1.1901553720953706E+00   1.2051663722592514E+00
   1.2201949539046149E+00   1.2352352180732855E+00   1.2502811002346448E+00
   1.2653263702199113E+00   1.2803646323060902E+00   1.2953893254582127E+00
   1.3103937237401946E+00   1.3253709369061677E+00   1.3403139111860634E+00
   1.3552154302810275E+00   1.3700681165860149E+00   1.3848644326588633E+00
   1.3995966829566020E+00   1.4142570158613783E+00   1.4288374260194616E+00
   1.4433297570174548E+00   1.4577257044201977E+00   1.4720168191941132E+00
   1.4861945115386053E+00   1.5002500551458189E+00   1.5141745919057512E+00
   1.5279591370697425E+00   1.5415945848801413E+00   1.5550717146684945E+00
   1.5683811974187067E+00   1.5815136027857228E+00   1.5944594065552458E+00
   1.6072089985255145E+00   1.6197526907892383E+00   1.6320807263921746E+00
   1.6441832883446015E+00   1.6560505089632900E+00   1.6676724795238032E+00
   1.6790392602059971E+00   1.6901408903190998E+00   1.7009673987959475E+00
   1.7115088149491309E+00   1.7217551794840689E+00   1.7316965557656943E+00
   1.7413230413362610E+00   1.7506247796817136E+00   1.7595919722433955E+00
   1.7682148906705486E+00   1.7764838893072745E+00   1.7843894179056463E+00
   1.7919220345544091E+00   1.7990724188105260E+00   1.8058313850186558E+00
   1.8121898958016667E+00   1.8181390757034488E+00   1.8236702249637335E+00
   1.8287748334032554E+00   1.8334445943964426E+00   1.8376714189079555E+00
   1.8414474495686075E+00   1.8447650747656779E+00   1.8476169427221705E+00
   1.8499959755392730E+00   1.8518953831760017E+00   1.8533086773398821E+00
   1.8542296852623628E+00   1.8546525633325359E+00   1.8545718105627176E+00
   1.8539822818593044E+00   1.8528792010723079E+00   1.8512581737968676E+00
   1.8491151999000113E+00   1.8464466857458650E+00   1.8432494560924455E+00
   1.8395207656331136E+00   1.8352583101557618E+00   1.8304602372926766E+00
   1.8251251568340687E+00   1.8192521505781880E+00   1.8128407816908931E+00
   1.8058911035476077E+00   1.7984036680305022E+00   1.7903795332537897E+00
   1.7818202706900419E+00   1.7727279716703923E+00   1.7631052532315890E+00
   1.7529552632828418E+00   1.7422816850654506E+00   1.7310887408783242E+00
   1.7193811950424553E+00   1.7071643560776175E+00   1.6944440780646046E+00
   1.6812267611664979E+00   1.6675193512826847E+00   1.6533293388095380E+00
   1.6386647564821226E+00   1.6235341762716522E+00   1.6079467053140775E+00
   1.5919119808459483E+00   1.5754401641246483E+00   1.5585419333113908E+00
   1.5412284752969365E+00   1.5235114764519806E+00   1.5054031122865397E+00
   1.4869160360057700E+00   1.4680633659530815E+00   1.4488586719358076E+00
   1.4293159604336969E+00   1.4094496586961773E+00   1.3892745977410934E+00
   1.3688059942747497E+00   1.3480594315609673E+00   1.3270508392779876E+00
   1.3057964723955438E+00   1.2843128891464342E+00   1.2626169281314301E+00
   1.2407256846299186E+00   1.2186564861810074E+00   1.1964268674980281E+00
   1.1740545447719821E+00   1.1515573894045701E+00   1.1289534011885065E+00
   1.1062606809213333E+00   1.0834974023978592E+00   1.0606817836780544E+00
   1.0378320574737492E+00   1.0149664404443828E+00   9.9210310114747990E-01
   9.6926012636376035E-01   9.4645548552311731E-01   9.2370699301007020E-01
   9.0103226823821936E-01   8.7844869356182487E-01   8.5597337034013465E-01
   8.3362307377823541E-01   8.1141420751645676E-01   7.8936275929506272E-01
   7.6748425933463382E-01   7.4579374328305492E-01   7.2430572161324114E-01
   7.0303415713220185E-01   6.8199245171948852E-01   6.6119344254027757E-01
   6.4064940685733962E-01   6.2037207339376899E-01   6.0037263725693357E-01
   5.8066177500514415E-01   5.6124965668046178E-01   5.4214595249593578E-01
   5.2335983310542067E-01   5.0489996365138723E-01   4.8677449277625534E-01
   4.6899103833225508E-01   4.5155667163376051E-01   4.3447790187978819E-01
   4.1776066198703238E-01   4.0141029665186428E-01   3.8543155309004479E-01
   3.6982857462329338E-01   3.5460489709582704E-01   3.3976344799447517E-01
   3.2530654809192333E-01   3.1123591541391815E-01   2.9755267133235291E-01
   2.8425734859779594E-01   2.7134990114056079E-01   2.5882971548610373E-01
   2.4669562364677955E-01   2.3494591736673687E-01   2.2357836361001485E-01
   2.1259022119322396E-01   2.0197825847338138E-01   1.9173877200879649E-01
   1.8186760611582906E-01   1.7236017324754180E-01   1.6321147512160747E-01
   1.5441612452464243E-01   1.4596836771896679E-01   1.3786210737565088E-01
   1.3009092595526256E-01   1.2264810945506199E-01   1.1552667143888003E-01
   1.0871937726375501E-01   1.0221876841572337E-01   9.6017186866135765E-02
   9.0106799359497516E-02   8.4479621544231179E-02   7.9127541858870332E-02
   7.4042345088015118E-02   6.9215735504916928E-02   6.4639359520697146E-02
   6.0304827763944399E-02   5.6203736518706353E-02   5.2327688453574259E-02
   4.8668312579715531E-02   4.5217283381098143E-02   4.1966339065883457E-02
   3.8907298893873191E-02   3.6032079540915203E-02   3.3332710467357370E-02
   3.0801348263769363E-02   2.8430289953322075E-02   2.6211985236309431E-02
   2.4139047668242927E-02   2.2204264768806183E-02   2.0400607064560129E-02
   1.8721236073699927E-02   1.7159511246328623E-02   1.5708995878549393E-02
   1.4363462023257693E-02   1.3116894424734042E-02   1.1963493508009545E-02
   1.0897677457524345E-02   9.9140834227315396E-03   9.0075678910974157E-03
   8.1732062713469091E-03   7.4062917318260734E-03   6.7023333405153316E-03
   6.0570535544969897E-03   5.4663851076103493E-03   4.9264673455963401E-03
   4.4336420582644937E-03   3.9844488581325986E-03   3.5756201545912845E-03
   3.2040757719695627E-03   2.8669172589309649E-03   2.5614219354385083E-03
   2.2850367221142554E-03   2.0353717952035907E-03   1.8101941085620851E-03
   1.6074208221371531E-03   1.4251126743362972E-03   1.2614673334871993E-03
   1.1148127613183558E-03   9.8360061904816110E-04   8.6639974428230008E-04
   7.6188972450568935E-04   6.6885459053343831E-04   5.8617665087180068E-04
   5.1283048555399754E-04   4.4787711566691155E-04   3.9045836249344557E-04
   3.3979140796932427E-04   2.9516356600620862E-04   2.5592727217766195E-04
   2.2149529730749771E-04   1.9133618865359227E-04   1.6496994065084788E-04
   1.4196389557192827E-04   1.2192887299049766E-04   1.0451552559232797E-04
   8.9410917677663920E-05   7.6335321635379944E-05   6.5039226742431253E-05
   5.5300553848533898E-05   4.6922068839549975E-05   3.9728987226585077E-05
   3.3566761773129213E-05   2.8299044740503191E-05   2.3805816094334576E-05
   1.9981668863229642E-05   1.6734242768122153E-05   1.3982797240129925E-05
   1.1656915010068282E-05   9.6953275784299065E-06   8.0448540541920726E-06
   6.6594450789116721E-06   5.4993238226216597E-06   4.5302163436731430E-06
   3.7226639394026580E-06   3.0514104718544522E-06   2.4948580265358161E-06
   2.0345846465353837E-06   1.6549182738965547E-06   1.3425614201095024E-06
   1.0862614740251735E-06   8.7652193439434364E-07   7.0535022301028130E-07
   5.6603809038387106E-07   4.5297096712127333E-07   3.6146293918102844E-07
   2.8761433285844689E-07   2.2818918493288668E-07   1.8051014449308058E-07
   1.4236860539039089E-07   1.1194810209188222E-07   8.7759217353985701E-08
   6.8584447889441552E-08   5.3431654836957650E-08   4.1494890005252504E-08
   3.2121537394692693E-08   2.4784843281064070E-08   1.9061028104060688E-08
   1.4610280489469620E-08   1.1124811608092688E-08   7.3360689555461831E-09
   1.5882811509313605E-10   0.0000000000000000E+00   0.0000000000000000E+00
   0.0000000000000000E+00   0.0000000000000000E+00   0.0000000000000000E+00
   0.0000000000000000E+00   0.0000000000000000E+00   0.0000000000000000E+00
   0.0000000000000000E+00   0.0000000000000000E+00   0.0000000000000000E+00
   0.0000000000000000E+00   0.0000000000000000E+00   0.0000000000000000E+00
   0.0000000000000000E+00   0.0000000000000000E+00   0.0000000000000000E+00
   0.0000000000000000E+00   0.0000000000000000E+00   0.0000000000000000E+00
   0.0000000000000000E+00   0.0000000000000000E+00   0.0000000000000000E+00
   0.0000000000000000E+00   0.0000000000000000E+00   0.0000000000000000E+00
   0.0000000000000000E+00   0.0000000000000000E+00   0.0000000000000000E+00
   0.0000000000000000E+00   0.0000000000000000E+00   0.0000000000000000E+00
   0.0000000000000000E+00   0.0000000000000000E+00   0.0000000000000000E+00
   0.0000000000000000E+00   0.0000000000000000E+00   0.0000000000000000E+00
   0.0000000000000000E+00   0.0000000000000000E+00   0.0000000000000000E+00
   0.0000000000000000E+00   0.0000000000000000E+00   0.0000000000000000E+00
   0.0000000000000000E+00   0.0000000000000000E+00   0.0000000000000000E+00
   0.0000000000000000E+00   0.0000000000000000E+00   0.0000000000000000E+00
   0.0000000000000000E+00   0.0000000000000000E+00   0.0000000000000000E+00
   0.0000000000000000E+00   0.0000000000000000E+00   0.0000000000000000E+00
   0.0000000000000000E+00   0.0000000000000000E+00   0.0000000000000000E+00
   0.0000000000000000E+00   0.0000000000000000E+00   0.0000000000000000E+00
   0.0000000000000000E+00   0.0000000000000000E+00   0.0000000000000000E+00
   0.0000000000000000E+00   0.0000000000000000E+00   0.0000000000000000E+00
   0.0000000000000000E+00   0.0000000000000000E+00   0.0000000000000000E+00
   0.0000000000000000E+00   0.0000000000000000E+00   0.0000000000000000E+00
   0.0000000000000000E+00   0.0000000000000000E+00   0.0000000000000000E+00
   0.0000000000000000E+00   0.0000000000000000E+00   0.0000000000000000E+00
   0.0000000000000000E+00   0.0000000000000000E+00   0.0000000000000000E+00
   0.0000000000000000E+00   0.0000000000000000E+00   0.0000000000000000E+00
   0.0000000000000000E+00   0.0000000000000000E+00   0.0000000000000000E+00
   0.0000000000000000E+00   0.0000000000000000E+00   0.0000000000000000E+00
   0.0000000000000000E+00   0.0000000000000000E+00   0.0000000000000000E+00
   0.0000000000000000E+00   0.0000000000000000E+00   0.0000000000000000E+00
   0.0000000000000000E+00   0.0000000000000000E+00   0.0000000000000000E+00
   0.0000000000000000E+00   0.0000000000000000E+00   0.0000000000000000E+00
   0.0000000000000000E+00   0.0000000000000000E+00   0.0000000000000000E+00
   0.0000000000000000E+00   0.0000000000000000E+00   0.0000000000000000E+00
   0.0000000000000000E+00   0.0000000000000000E+00   0.0000000000000000E+00
   0.0000000000000000E+00
     </PP_GIPAW_CORE_ORBITAL.3>
   </PP_GIPAW_CORE_ORBITALS>
   <PP_GIPAW_ORBITALS number_of_valence_orbitals="4">
     <PP_GIPAW_ORBITAL.1 index="1" label="3S" l="0" cutoff_radius="  1.65519033232162" ultrasoft_cutoff_radius="  1.65519033232162">
       <PP_GIPAW_WFS_AE size="1078">
   0.0000000000000000E+00   5.9197508862041223E-04   5.9931492051570694E-04
   6.0674562263327871E-04   6.1426831261797204E-04   6.2188412769274013E-04
   6.2959422037078393E-04   6.3739975743564890E-04   6.4530192006469612E-04
   6.5330190400309603E-04   6.6140091974320947E-04   6.6960019270573886E-04
   6.7790096342303140E-04   6.8630448772459909E-04   6.9481203692489527E-04
   7.0342489801336822E-04   7.1214437384682129E-04   7.2097178334410588E-04
   7.2990846168317827E-04   7.3895576050054276E-04   7.4811504809311688E-04
   7.5738770962253759E-04   7.6677514732195089E-04   7.7627878070530144E-04
   7.8590004677915669E-04   7.9564040025710374E-04   8.0550131377673259E-04
   8.1548427811925246E-04   8.2559080243176466E-04   8.3582241445222477E-04
   8.4618066073712276E-04   8.5666710689192367E-04   8.6728333780429088E-04
   8.7803095788012485E-04   8.8891159128246379E-04   8.9992688217326153E-04
   9.1107849495809150E-04   9.2236811453380596E-04   9.3379744653918116E-04
   9.4536821760859448E-04   9.5708217562875486E-04   9.6894108999853680E-04
   9.8094675189194618E-04   9.9310097452425710E-04   1.0054055934213524E-03
   1.0178624666923172E-03   1.0304734753053134E-03   1.0432405233667707E-03
   1.0561655384039490E-03   1.0692504716508940E-03   1.0824972983378364E-03
   1.0959080179840696E-03   1.1094846546943510E-03   1.1232292574588673E-03
   1.1371439004567939E-03   1.1512306833635164E-03   1.1654917316615250E-03
   1.1799291969550455E-03   1.1945452572884481E-03   1.2093421174684672E-03
   1.2243220093902879E-03   1.2394871923675367E-03   1.2548399534662235E-03
   1.2703826078426820E-03   1.2861174990855494E-03   1.3020469995618377E-03
   1.3181735107671382E-03   1.3344994636800154E-03   1.3510273191206189E-03
   1.3677595681135855E-03   1.3846987322552635E-03   1.4018473640853115E-03
   1.4192080474627251E-03   1.4367833979463387E-03   1.4545760631798543E-03
   1.4725887232814399E-03   1.4908240912379664E-03   1.5092849133039171E-03
   1.5279739694050276E-03   1.5468940735467161E-03   1.5660480742273508E-03
   1.5854388548564001E-03   1.6050693341775383E-03   1.6249424666967480E-03
   1.6450612431154754E-03   1.6654286907688970E-03   1.6860478740693575E-03
   1.7069218949550278E-03   1.7280538933438369E-03   1.7494470475927547E-03
   1.7711045749624640E-03   1.7930297320874864E-03   1.8152258154518182E-03
   1.8376961618701562E-03   1.8604441489747342E-03   1.8834731957078714E-03
   1.9067867628202698E-03   1.9303883533751279E-03   1.9542815132581361E-03
   1.9784698316934104E-03   2.0029569417654458E-03   2.0277465209471157E-03
   2.0528422916338300E-03   2.0782480216838760E-03   2.1039675249650337E-03
   2.1300046619075201E-03   2.1563633400633283E-03   2.1830475146720377E-03
   2.2100611892331623E-03   2.2374084160850789E-03   2.2650932969906618E-03
   2.2931199837296335E-03   2.3214926786977274E-03   2.3502156355127567E-03
   2.3792931596276086E-03   2.4087296089502878E-03   2.4385293944710461E-03
   2.4686969808966931E-03   2.4992368872921553E-03   2.5301536877293481E-03
   2.5614520119434515E-03   2.5931365459966665E-03   2.6252120329495082E-03
   2.6576832735397292E-03   2.6905551268689523E-03   2.7238325110970894E-03
   2.7575204041446074E-03   2.7916238444027556E-03   2.8261479314517909E-03
   2.8610978267873334E-03   2.8964787545548766E-03   2.9322960022925889E-03
   2.9685549216824352E-03   3.0052609293097642E-03   3.0424195074313645E-03
   3.0800362047521596E-03   3.1181166372105632E-03   3.1566664887726077E-03
   3.1956915122349151E-03   3.2351975300366244E-03   3.2751904350803332E-03
   3.3156761915621455E-03   3.3566608358109279E-03   3.3981504771368539E-03
   3.4401512986893040E-03   3.4826695583242608E-03   3.5257115894812290E-03
   3.5692838020698037E-03   3.6133926833659858E-03   3.6580447989182862E-03
   3.7032467934637820E-03   3.7490053918541487E-03   3.7953273999917761E-03
   3.8422197057761060E-03   3.8896892800602155E-03   3.9377431776177725E-03
   3.9863885381204618E-03   4.0356325871259598E-03   4.0854826370765318E-03
   4.1359460883084150E-03   4.1870304300719715E-03   4.2387432415628094E-03
   4.2910921929639016E-03   4.3440850464988049E-03   4.3977296574960944E-03
   4.4520339754650770E-03   4.5070060451829139E-03   4.5626540077931968E-03
   4.6189861019161078E-03   4.6760106647702479E-03   4.7337361333062164E-03
   4.7921710453520472E-03   4.8513240407705776E-03   4.9112038626288601E-03
   4.9718193583796972E-03   5.0331794810553818E-03   5.0952932904737699E-03
   5.1581699544567313E-03   5.2218187500610962E-03   5.2862490648221778E-03
   5.3514703980099710E-03   5.4174923618980995E-03   5.4843246830456154E-03
   5.5519772035917177E-03   5.6204598825635036E-03   5.6897827971968198E-03
   5.7599561442703128E-03   5.8309902414527227E-03   5.9028955286635982E-03
   5.9756825694473629E-03   6.0493620523609896E-03   6.1239447923752462E-03
   6.1994417322895901E-03   6.2758639441608810E-03   6.3532226307458873E-03
   6.4315291269577230E-03   6.5107949013362872E-03   6.5910315575327082E-03
   6.6722508358079951E-03   6.7544646145458239E-03   6.8376849117796294E-03
   6.9219238867340048E-03   7.0071938413805365E-03   7.0935072220080402E-03
   7.1808766208073752E-03   7.2693147774707985E-03   7.3588345808059726E-03
   7.4494490703646441E-03   7.5411714380860580E-03   7.6340150299551799E-03
   7.7279933476757144E-03   7.8231200503580262E-03   7.9194089562219534E-03
   8.0168740443145696E-03   8.1155294562429651E-03   8.2153894979219814E-03
   8.3164686413370482E-03   8.4187815263219948E-03   8.5223429623520856E-03
   8.6271679303520192E-03   8.7332715845190867E-03   8.8406692541614807E-03
   8.9493764455516999E-03   9.0594088437950526E-03   9.1707823147133185E-03
   9.2835129067435195E-03   9.3976168528517156E-03   9.5131105724619545E-03
   9.6300106734002380E-03   9.7483339538534872E-03   9.8680974043435059E-03
   9.9893182097158841E-03   1.0112013751143775E-02   1.0236201608146509E-02
   1.0361899560623040E-02   1.0489125590899998E-02   1.0617897885794455E-02
   1.0748234838691211E-02   1.0880155051634569E-02   1.1013677337434415E-02
   1.1148820721786669E-02   1.1285604445407764E-02   1.1424047966183251E-02
   1.1564170961330292E-02   1.1705993329573842E-02   1.1849535193336581E-02
   1.1994816900942173E-02   1.2141859028831917E-02   1.2290682383794483E-02
   1.2441308005208578E-02   1.2593757167298363E-02   1.2748051381401400E-02
   1.2904212398248880E-02   1.3062262210257988E-02   1.3222223053836048E-02
   1.3384117411696308E-02   1.3547968015184982E-02   1.3713797846619349E-02
   1.3881630141636630E-02   1.4051488391553265E-02   1.4223396345734260E-02
   1.4397378013972409E-02   1.4573457668876822E-02   1.4751659848270647E-02
   1.4932009357597281E-02   1.5114531272335021E-02   1.5299250940419527E-02
   1.5486193984673588E-02   1.5675386305244062E-02   1.5866854082045145E-02
   1.6060623777207683E-02   1.6256722137534121E-02   1.6455176196958184E-02
   1.6656013279009212E-02   1.6859260999280232E-02   1.7064947267899287E-02
   1.7273100292003466E-02   1.7483748578214907E-02   1.7696920935118193E-02
   1.7912646475738387E-02   1.8130954620018964E-02   1.8351875097299176E-02
   1.8575437948789554E-02   1.8801673530045457E-02   1.9030612513437191E-02
   1.9262285890616251E-02   1.9496724974976877E-02   1.9733961404111443E-02
   1.9974027142259650E-02   2.0216954482749752E-02   2.0462776050431189E-02
   2.0711524804097717E-02   2.0963234038899527E-02   2.1217937388743814E-02
   2.1475668828682157E-02   2.1736462677283960E-02   2.2000353598994427E-02
   2.2267376606475976E-02   2.2537567062931883E-02   2.2810960684410606E-02
   2.3087593542089609E-02   2.3367502064537353E-02   2.3650723039951655E-02
   2.3937293618373236E-02   2.4227251313872968E-02   2.4520634006710847E-02
   2.4817479945465497E-02   2.5117827749132123E-02   2.5421716409187636E-02
   2.5729185291620705E-02   2.6040274138925110E-02   2.6355023072054673E-02
   2.6673472592337419E-02   2.6995663583347294E-02   2.7321637312731299E-02
   2.7651435433989818E-02   2.7985099988208140E-02   2.8322673405736586E-02
   2.8664198507817509E-02   2.9009718508156181E-02   2.9359277014433558E-02
   2.9712918029758176E-02   3.0070685954054738E-02   3.0432625585386671E-02
   3.0798782121209942E-02   3.1169201159555581E-02   3.1543928700137343E-02
   3.1923011145382395E-02   3.2306495301381681E-02   3.2694428378756482E-02
   3.3086857993438738E-02   3.3483832167360880E-02   3.3885399329052997E-02
   3.4291608314142581E-02   3.4702508365754448E-02   3.5118149134806619E-02
   3.5538580680198203E-02   3.5963853468886128E-02   3.6394018375846451E-02
   3.6829126683915699E-02   3.7269230083509387E-02   3.7714380672211896E-02
   3.8164630954234745E-02   3.8620033839737986E-02   3.9080642644010302E-02
   3.9546511086503637E-02   4.0017693289716327E-02   4.0494243777921539E-02
   4.0976217475734357E-02   4.1463669706513447E-02   4.1956656190591586E-02
   4.2455233043329273E-02   4.2959456772986772E-02   4.3469384278408067E-02
   4.3985072846511236E-02   4.4506580149579651E-02   4.5033964242346784E-02
   4.5567283558869721E-02   4.6106596909184352E-02   4.6651963475735067E-02
   4.7203442809573809E-02   4.7761094826319857E-02   4.8324979801874626E-02
   4.8895158367883891E-02   4.9471691506939738E-02   5.0054640547515267E-02
   5.0644067158624032E-02   5.1240033344196412E-02   5.1842601437165146E-02
   5.2451834093251208E-02   5.3067794284442554E-02   5.3690545292155910E-02
   5.4320150700074128E-02   5.4956674386649224E-02   5.5600180517262426E-02
   5.6250733536031508E-02   5.6908398157256221E-02   5.7573239356491605E-02
   5.8245322361239971E-02   5.8924712641250113E-02   5.9611475898414916E-02
   6.0305678056255196E-02   6.1007385248980056E-02   6.1716663810112329E-02
   6.2433580260667434E-02   6.3158201296874814E-02   6.3890593777429672E-02
   6.4630824710263005E-02   6.5378961238818409E-02   6.6135070627821854E-02
   6.6899220248533481E-02   6.7671477563466587E-02   6.8451910110561690E-02
   6.9240585486802397E-02   7.0037571331258264E-02   7.0842935307541682E-02
   7.1656745085664289E-02   7.2479068323277232E-02   7.3309972646283111E-02
   7.4149525628801158E-02   7.4997794772473328E-02   7.5854847485094065E-02
   7.6720751058547601E-02   7.7595572646038433E-02   7.8479379238595728E-02
   7.9372237640838034E-02   8.0274214445979014E-02   8.1185376010056848E-02
   8.2105788425372611E-02   8.3035517493114872E-02   8.3974628695157288E-02
   8.4923187165007630E-02   8.5881257657889593E-02   8.6848904519940484E-02
   8.7826191656503239E-02   8.8813182499493576E-02   8.9809939973823694E-02
   9.0816526462860217E-02   9.1833003772897479E-02   9.2859433096624644E-02
   9.3895874975565438E-02   9.4942389261470375E-02   9.5999035076636652E-02
   9.7065870773138163E-02   9.8142953890939508E-02   9.9230341114873680E-02
   1.0032808823045991E-01   1.0143625007853845E-01   1.0255488050869933E-01
   1.0368403233148131E-01   1.0482375726931728E-01   1.0597410590620161E-01
   1.0713512763605519E-01   1.0830687060976474E-01   1.0948938168086927E-01
   1.1068270634987036E-01   1.1188688870714170E-01   1.1310197137440869E-01
   1.1432799544477769E-01   1.1556500042128443E-01   1.1681302415393824E-01
   1.1807210277523576E-01   1.1934227063411527E-01   1.2062356022832880E-01
   1.2191600213520264E-01   1.2321962494076066E-01   1.2453445516718399E-01
   1.2586051719857855E-01   1.2719783320502545E-01   1.2854642306488615E-01
   1.2990630428533492E-01   1.3127749192109395E-01   1.3265999849134011E-01
   1.3405383389476058E-01   1.3545900532272817E-01   1.3687551717056942E-01
   1.3830337094690071E-01   1.3974256518100306E-01   1.4119309532821242E-01
   1.4265495367329697E-01   1.4412812923179660E-01   1.4561260764929965E-01
   1.4710837109862909E-01   1.4861539817491720E-01   1.5013366378854043E-01
   1.5166313905589282E-01   1.5320379118797353E-01   1.5475558337676540E-01
   1.5631847467938131E-01   1.5789241989995917E-01   1.5947736946927982E-01
   1.6107326932209190E-01   1.6268006077212047E-01   1.6429768038474285E-01
   1.6592605984731187E-01   1.6756512583711014E-01   1.6921479988692034E-01
   1.7087499824819283E-01   1.7254563175180263E-01   1.7422660566637627E-01
   1.7591781955418279E-01   1.7761916712457587E-01   1.7933053608497732E-01
   1.8105180798939921E-01   1.8278285808449465E-01   1.8452355515313473E-01
   1.8627376135551174E-01   1.8803333206776410E-01   1.8980211571812827E-01
   1.9157995362062119E-01   1.9336667980625577E-01   1.9516212085180221E-01
   1.9696609570610232E-01   1.9877841551395062E-01   2.0059888343755933E-01
   2.0242729447562216E-01   2.0426343528000340E-01   2.0610708397006830E-01
   2.0795800994469096E-01   2.0981597369196303E-01   2.1168072659664000E-01
   2.1355201074536154E-01   2.1542955872968694E-01   2.1731309344698899E-01
   2.1920232789925598E-01   2.2109696498985354E-01   2.2299669731830388E-01
   2.2490120697314112E-01   2.2681016532291115E-01   2.2872323280538495E-01
   2.3064005871505919E-01   2.3256028098902770E-01   2.3448352599130551E-01
   2.3640940829569873E-01   2.3833753046731598E-01   2.4026748284282229E-01
   2.4219884330954755E-01   2.4413117708355839E-01   2.4606403648681868E-01
   2.4799696072356420E-01   2.4992947565602611E-01   2.5186109357964298E-01
   2.5379131299791224E-01   2.5571961839703400E-01   2.5764548002051346E-01
   2.5956835364389136E-01   2.6148768034978082E-01   2.6340288630340325E-01
   2.6531338252881204E-01   2.6721856468601707E-01   2.6911781284921704E-01
   2.7101049128636961E-01   2.7289594824032537E-01   2.7477351571177450E-01
   2.7664250924425537E-01   2.7850222771148697E-01   2.8035195310730188E-01
   2.8219095033846109E-01   2.8401846702064570E-01   2.8583373327793321E-01
   2.8763596154607507E-01   2.8942434637990300E-01   2.9119806426520878E-01
   2.9295627343544700E-01   2.9469811369362986E-01   2.9642270623978828E-01
   2.9812915350439539E-01   2.9981653898815086E-01   3.0148392710854766E-01
   3.0313036305365071E-01   3.0475487264353124E-01   3.0635646219981577E-01
   3.0793411842382284E-01   3.0948680828377273E-01   3.1101347891157111E-01
   3.1251305750968555E-01   3.1398445126864039E-01   3.1542654729567859E-01
   3.1683821255514921E-01   3.1821829382119765E-01   3.1956561764334573E-01
   3.2087899032557188E-01   3.2215719791950786E-01   3.2339900623239265E-01
   3.2460316085043228E-01   3.2576838717823531E-01   3.2689339049500443E-01
   3.2797685602818427E-01   3.2901744904527719E-01   3.3001381496455645E-01
   3.3096457948542007E-01   3.3186834873914467E-01   3.3272370946081081E-01
   3.3352922918318889E-01   3.3428345645338869E-01   3.3498492107308503E-01
   3.3563213436315464E-01   3.3622358945356112E-01   3.3675776159934978E-01
   3.3723310852361543E-01   3.3764807078832804E-01   3.3800107219390474E-01
   3.3829052020843203E-01   3.3851480642745080E-01   3.3867230706522444E-01
   3.3876138347842571E-01   3.3878038272317390E-01   3.3872763814637413E-01
   3.3860147001230728E-01   3.3840018616542716E-01   3.3812208273032696E-01
   3.3776544484983723E-01   3.3732854746222052E-01   3.3680965611842756E-01
   3.3620702784037926E-01   3.3551891202123574E-01   3.3474355136860962E-01
   3.3387918289167356E-01   3.3292403893310774E-01   3.3187634824682138E-01
   3.3073433712236822E-01   3.2949623055697047E-01   3.2816025347604261E-01
   3.2672463200309060E-01   3.2518759477984743E-01   3.2354737433747527E-01
   3.2180220851964547E-01   3.1995034195827926E-01   3.1799002760269934E-01
   3.1591952830291398E-01   3.1373711844771118E-01   3.1144108565821405E-01
   3.0902973253749311E-01   3.0650137847679598E-01   3.0385436151889822E-01
   3.0108704027903499E-01   2.9819779592380868E-01   2.9518503420841685E-01
   2.9204718757247483E-01   2.8878271729464372E-01   2.8539011570620215E-01
   2.8186790846362569E-01   2.7821465688016273E-01   2.7442896031629899E-01
   2.7050945862893627E-01   2.6645483467899767E-01   2.6226381689709144E-01
   2.5793518190675591E-01   2.5346775720470416E-01   2.4886042389738394E-01
   2.4411211949304015E-01   2.3922184074836356E-01   2.3418864656867888E-01
   2.2901166096049017E-01   2.2369007603508356E-01   2.1822315506173720E-01
   2.1261023556894620E-01   2.0685073249193742E-01   2.0094414136457231E-01
   1.9489004155360687E-01   1.8868809953309010E-01   1.8233807219653558E-01
   1.7583981020432846E-01   1.6919326136362600E-01   1.6239847403788860E-01
   1.5545560058293340E-01   1.4836490080623549E-01   1.4112674544605616E-01
   1.3374161966667947E-01   1.2621012656596489E-01   1.1853299069113475E-01
   1.1071106155852814E-01   1.0274531717291832E-01   9.4636867541685918E-02
   8.6386958179041726E-02   7.7996973595254440E-02   6.9468440765622114E-02
   6.0803032573847428E-02   5.2002571224188665E-02   4.3069031616696257E-02
   3.4004544679674426E-02   2.4811400653342121E-02   1.5492052318658491E-02
   6.0491181650849900E-03  -3.5146145089404116E-03  -1.3196186569104951E-02
  -2.2992464098256574E-02  -3.2900135535689386E-02  -4.2915708909078323E-02
  -5.3035509165414878E-02  -6.3255675607372400E-02  -7.3572159441536750E-02
  -8.3980721445019016E-02  -9.4476929757081496E-02  -1.0505615780257459E-01
  -1.1571358235418461E-01  -1.2644418174082409E-01  -1.3724273420982172E-01
  -1.4810381645108178E-01  -1.5902180229184257E-01  -1.6999086157135512E-01
  -1.8100495920544626E-01  -1.9205785445167015E-01  -2.0314310038664010E-01
  -2.1425404360782516E-01  -2.2538382417307837E-01  -2.3652537579189795E-01
  -2.4767142628315209E-01  -2.5881449831475112E-01  -2.6994691044106189E-01
  -2.8106077845425098E-01  -2.9214801706566196E-01  -3.0320034193291323E-01
  -3.1420927204782634E-01  -3.2516613249903265E-01  -3.3606205762178470E-01
  -3.4688799454577690E-01  -3.5763470714974477E-01  -3.6829278042981889E-01
  -3.7885262528651648E-01  -3.8930448373363047E-01  -3.9963843453087733E-01
  -4.0984439924098881E-01  -4.1991214871144500E-01  -4.2983130998064795E-01
  -4.3959137360841277E-01  -4.4918170143096098E-01  -4.5859153474087755E-01
  -4.6781000289299118E-01  -4.7682613233736926E-01  -4.8562885608078549E-01
  -4.9420702357799329E-01  -5.0254941105378670E-01  -5.1064473225636786E-01
  -5.1848164964178745E-01  -5.2604878598827443E-01  -5.3333473643827434E-01
  -5.4032808096476315E-01  -5.4701739725721721E-01  -5.5339127402131039E-01
  -5.5943832468513133E-01  -5.6514720150344988E-01  -5.7050661005031056E-01
  -5.7550532408906352E-01  -5.8013220080776007E-01  -5.8437619640678296E-01
  -5.8822638202450483E-01  -5.9167195998575317E-01  -5.9470228035690564E-01
  -5.9730685779044501E-01  -5.9947538864090200E-01  -6.0119776833315153E-01
  -6.0246410896311542E-01  -6.0326475710998118E-01  -6.0359031183810397E-01
  -6.0343164286579287E-01  -6.0277990887721122E-01  -6.0162657595261093E-01
  -5.9996343609110570E-01  -5.9778262579913521E-01  -5.9507664471670629E-01
  -5.9183837425238328E-01  -5.8806109619691049E-01  -5.8373851128414478E-01
  -5.7886475766686529E-01  -5.7343442927378940E-01  -5.6744259401289687E-01
  -5.6088481178497640E-01  -5.5375715226997790E-01  -5.4605621244753144E-01
  -5.3777913381170594E-01  -5.2892361923873565E-01  -5.1948794946523424E-01
  -5.0947099913305649E-01  -4.9887225235572014E-01  -4.8769181776010129E-01
  -4.7593044295580805E-01  -4.6358952838359480E-01  -4.5067114049301493E-01
  -4.3717802419852031E-01  -4.2311361456237678E-01  -4.0848204765190682E-01
  -3.9328817051805831E-01  -3.7753755024181385E-01  -3.6123648199477149E-01
  -3.4439199606027959E-01  -3.2701186376178631E-01  -3.0910460224571906E-01
  -2.9067947806716132E-01  -2.7174650952793572E-01  -2.5231646771832089E-01
  -2.3240087621588573E-01  -2.1201200939720458E-01  -1.9116288932117873E-01
  -1.6986728114586111E-01  -1.4813968704393063E-01  -1.2599533858577611E-01
  -1.0345018756257346E-01  -8.0520895225337383E-02  -5.7224819919326646E-02
  -3.3580003095875964E-02  -9.6051536863017845E-03   1.4680369175698864E-02
   3.9256575095620388E-02   6.4102863034834520E-02   8.9198043612796929E-02
   1.1452036310265225E-01   1.4004752912393700E-01   1.6575673802773241E-01
   1.9162470395472664E-01   2.1762768952329539E-01   2.4374153806875121E-01
   2.6994170730442341E-01   2.9620330420770341E-01   3.2250112084919330E-01
   3.4880967078371500E-01   3.7510322551474834E-01   4.0135585044124766E-01
   4.2754143961635344E-01   4.5363374861463063E-01   4.7960642484620214E-01
   5.0543303480023927E-01   5.3108708797047999E-01   5.5654205762445252E-01
   5.8177139911938625E-01   6.0674856710562974E-01   6.3144703361525623E-01
   6.5584030958403794E-01   6.7990197262984520E-01   7.0360570373184239E-01
   7.2692533469998522E-01   7.4983490700914446E-01   7.7230874090893287E-01
   7.9432151209365509E-01   8.1584833206646201E-01   8.3686482797452932E-01
   8.5734721818589366E-01   8.7727238100798133E-01   8.9661791533158819E-01
   9.1536219324438217E-01   9.3348440554777978E-01   9.5096460155631513E-01
   9.6778372462406326E-01   9.8392364465808135E-01   9.9936718857804496E-01
   1.0140981693649014E+00   1.0281014140657445E+00   1.0413627909097511E+00
   1.0538692355390045E+00   1.0656087762568176E+00   1.0765705581313882E+00
   1.0867448657518055E+00   1.0961231444092734E+00   1.1046980194637988E+00
   1.1124633136531530E+00   1.1194140621058970E+00   1.1255465248326750E+00
   1.1308581964893505E+00   1.1353478132308661E+00   1.1390153565044003E+00
   1.1418620536632511E+00   1.1438903753170702E+00   1.1451040293682697E+00
   1.1455079517174229E+00   1.1451082936512829E+00   1.1439124059550940E+00
   1.1419288198157620E+00   1.1391672246041362E+00   1.1356384426431145E+00
   1.1313544010838077E+00   1.1263281010247275E+00   1.1205735840192843E+00
   1.1141058961250458E+00   1.1069410496544827E+00   1.0990959827916118E+00
   1.0905885172421763E+00   1.0814373140871072E+00   1.0716618280099446E+00
   1.0612822600689975E+00   1.0503195091842676E+00   1.0387951225076204E+00
   1.0267312448426513E+00   1.0141505672778630E+00   1.0010762751936022E+00
   9.8753199579951390E-01   9.7354174535507254E-01   9.5912987622144164E-01
   9.4432102388803574E-01   9.2914005411223166E-01   9.1361201030557060E-01
   8.9776206129433844E-01   8.8161544957727433E-01   8.6519744019762002E-01
   8.4853327034145110E-01   8.3164809976957876E-01   8.1456696218810309E-01
   7.9731471762860562E-01   7.7991600598770394E-01   7.6239520175248299E-01
   7.4477637002794794E-01   7.2708322393926861E-01   7.0933908348568242E-01
   6.9156683591967483E-01   6.7378889772232542E-01   6.5602717824341639E-01
   6.3830304507251667E-01   6.2063729120536348E-01   6.0305010406781867E-01
   5.8556103645747415E-01   5.6818897946079405E-01   5.5095213740074145E-01
   5.3386800486658126E-01   5.1695334587335107E-01   5.0022417519337781E-01
   4.8369574189605186E-01   4.6738251512460466E-01   4.5129817212996842E-01
   4.3545558857188660E-01   4.1986683108631906E-01   4.0454315210630187E-01
   3.8949498691078854E-01   3.7473195286339928E-01   3.6026285079070813E-01
   3.4609566843858397E-01   3.3223758593579555E-01   3.1869498318720285E-01
   3.0547344911540825E-01   2.9257779266970502E-01   2.8001205552531683E-01
   2.6777952640386898E-01   2.5588275695705776E-01   2.4432357916896674E-01
   2.3310312424598467E-01   2.2222184297528166E-01   2.1167952754048996E-01
   2.0147533478405621E-01   1.9160781089798953E-01   1.8207491750675001E-01
   1.7287405907815304E-01   1.6400211156201411E-01   1.5545545211453607E-01
   1.4722998972411372E-01   1.3932119651578107E-01   1.3172413948216041E-01
   1.2443351237251095E-01   1.1744366747021362E-01   1.1074864700345768E-01
   1.0434221396179774E-01   9.8217882129206124E-02   9.2368945187947679E-02
   8.6788504792018287E-02   8.1469497550247558E-02   7.6404720894170511E-02
   7.1586857832686521E-02   6.7008500613981434E-02   6.2662173325550435E-02
   5.8540353466896212E-02   5.4635492528150809E-02   5.0940035603191894E-02
   4.7446440059452630E-02   4.4147193279716779E-02   4.1034829484770767E-02
   3.8101945640412110E-02   3.5341216448300912E-02   3.2745408417619963E-02
   3.0307393013364794E-02   2.8020158877217812E-02   2.5876823118110338E-02
   2.3870641671565201E-02   2.1995018729496805E-02   2.0243515245152780E-02
   1.8609856521135500E-02   1.7087938891811722E-02   1.5671835514803629E-02
   1.4355801289566499E-02   1.3134276924228609E-02   1.2001892174878468E-02
   1.0953468284262677E-02   9.9840196494216764E-03   9.0887547501056661E-03
   8.2630763718643217E-03   7.5025811595174274E-03   6.8030585382520704E-03
   6.1604890408817024E-03   5.5710420808477469E-03   5.0310732113229718E-03
   4.5371209113347355E-03   4.0859029401309616E-03   3.6743123010954141E-03
   3.2994128563788344E-03   2.9584346330453789E-03   2.6487688609615886E-03
   2.3679627818662661E-03   2.1137142680648473E-03   1.8838662879998671E-03
   1.6764012545546375E-03   1.4894352903772076E-03   1.3212124427526958E-03
   1.1700988786545288E-03   1.0345770885658646E-03   9.1324012551824733E-04
   8.0478590358400593E-04   7.0801157781090961E-04   6.2180802534019127E-04
   5.4515444524034021E-04   4.7711309244546831E-04   4.1682415913804155E-04
   3.6350081497660291E-04   3.1642441575035368E-04   2.7493988834861698E-04
   2.3845129835990377E-04   2.0641760515627088E-04   1.7834860796403610E-04
   1.5380108516152850E-04   1.3237512786877073E-04   1.1371066779544701E-04
   9.7484198286413578E-05   8.3405686545988630E-05   7.1215674133047279E-05
   6.0682561998825562E-05   5.1600075591857569E-05   4.3784904882214751E-05
   3.7074513563004919E-05   3.1325111173814406E-05   2.6409781459636090E-05
   2.2216759930401198E-05   1.8647853319782008E-05   1.5616993455082505E-05
   1.3048917939608442E-05   1.0877970010963120E-05   9.0470099670303884E-06
   7.5064306410832840E-06   6.2132695514147027E-06   5.1304105426637168E-06
   4.2258679687185587E-06   3.4721467339040766E-06   2.8456718035483132E-06
   2.3262811106135144E-06   1.8967761160058203E-06   1.5425246207701205E-06
   1.2511107741231267E-06   1.0120275670894462E-06   8.1640744403777982E-07
   6.5678700002274852E-07   5.2690205778728307E-07   4.2150973224105668E-07
   3.3623439038066442E-07   2.6743469956214263E-07   2.1208922579477216E-07
   1.6769829570058017E-07   1.3220007058183188E-07   1.0389899881496494E-07
   8.1405013511028676E-08   6.3582026632589876E-08   4.9504438990424725E-08
   3.8420538455345876E-08   2.9721797070529583E-08   2.2917202364215149E-08
   1.7611869910826122E-08   1.3489283961860352E-08   1.0296601668415688E-08
   7.8325349216036948E-09   5.9373930446896105E-09   4.4849302917670145E-09
   3.3756951746666548E-09   2.5316248103346633E-09   1.8916674787248935E-09
   1.4082510819082176E-09   1.0444448244991461E-09   7.7168677009227710E-10
   5.6797149541213312E-10   4.1641034278329125E-10   3.0409219345200840E-10
   2.2118563977357800E-10   1.6023426655085146E-10   1.1560576892951909E-10
   8.3063106215886545E-11   5.8653399581640439E-11   9.5355554280304238E-12
   4.0325967689312613E-13   0.0000000000000000E+00   0.0000000000000000E+00
   0.0000000000000000E+00   0.0000000000000000E+00   0.0000000000000000E+00
   0.0000000000000000E+00   0.0000000000000000E+00   0.0000000000000000E+00
   0.0000000000000000E+00   0.0000000000000000E+00   0.0000000000000000E+00
   0.0000000000000000E+00   0.0000000000000000E+00   0.0000000000000000E+00
   0.0000000000000000E+00   0.0000000000000000E+00   0.0000000000000000E+00
   0.0000000000000000E+00
       </PP_GIPAW_WFS_AE>
       <PP_GIPAW_WFS_PS size="1078">
   0.0000000000000000E+00   3.9744647864074302E-05   4.0244573991957212E-05
   4.0750788416419547E-05   4.1263370234486773E-05   4.1782399538110259E-05
   4.2307957426674515E-05   4.2840126019668736E-05   4.3378988469518081E-05
   4.3924628974576512E-05   4.4477132792282935E-05   4.5036586252482656E-05
   4.5603076770916918E-05   4.6176692862881556E-05   4.6757524157057737E-05
   4.7345661409516716E-05   4.7941196517900477E-05   4.8544222535781193E-05
   4.9154833687200665E-05   4.9773125381393411E-05   5.0399194227694356E-05
   5.1033138050634066E-05   5.1675055905224530E-05   5.2325048092436119E-05
   5.2983216174870238E-05   5.3649662992628490E-05   5.4324492679381745E-05
   5.5007810678641130E-05   5.5699723760233918E-05   5.6400340036986438E-05
   5.7109768981616975E-05   5.7828121443841036E-05   5.8555509667692000E-05
   5.9292047309059225E-05   6.0037849453447295E-05   6.0793032633958089E-05
   6.1557714849499534E-05   6.2332015583223133E-05   6.3116055821193232E-05
   6.3909958071291681E-05   6.4713846382359749E-05   6.5527846363580807E-05
   6.6352085204107581E-05   6.7186691692935178E-05   6.8031796239024814E-05
   6.8887530891680558E-05   6.9754029361182116E-05   7.0631427039677554E-05
   7.1519861022338474E-05   7.2419470128781444E-05   7.3330394924758712E-05
   7.4252777744122204E-05   7.5186762711063016E-05   7.6132495762631721E-05
   7.7090124671540624E-05   7.8059799069254171E-05   7.9041670469368695E-05
   8.0035892291287084E-05   8.1042619884190678E-05   8.2062010551312904E-05
   8.3094223574518288E-05   8.4139420239190548E-05   8.5197763859433650E-05
   8.6269419803590230E-05   8.7354555520080380E-05   8.8453340563566187E-05
   8.9565946621444643E-05   9.0692547540674359E-05   9.1833319354939466E-05
   9.2988440312155102E-05   9.4158090902319257E-05   9.5342453885714586E-05
   9.6541714321464903E-05   9.7756059596451245E-05   9.8985679454591496E-05
   1.0023076602648794E-04   1.0149151385944854E-04   1.0276811994788491E-04
   1.0406078376409328E-04   1.0536970728942238E-04   1.0669509504583362E-04
   1.0803715412785781E-04   1.0939609423495420E-04   1.1077212770427652E-04
   1.1216546954385090E-04   1.1357633746617154E-04   1.1500495192221859E-04
   1.1645153613590404E-04   1.1791631613895101E-04   1.1939952080621134E-04
   1.2090138189142838E-04   1.2242213406344835E-04   1.2396201494288818E-04
   1.2552126513926413E-04   1.2710012828858730E-04   1.2869885109143258E-04
   1.3031768335148599E-04   1.3195687801457673E-04   1.3361669120820106E-04
   1.3529738228154216E-04   1.3699921384599425E-04   1.3872245181619617E-04
   1.4046736545158080E-04   1.4223422739844790E-04   1.4402331373256490E-04
   1.4583490400230507E-04   1.4766928127232711E-04   1.4952673216780450E-04
   1.5140754691921130E-04   1.5331201940767158E-04   1.5524044721087831E-04
   1.5719313164959137E-04   1.5917037783471830E-04   1.6117249471498966E-04
   1.6319979512523225E-04   1.6525259583525029E-04   1.6733121759932159E-04
   1.6943598520631522E-04   1.7156722753044145E-04   1.7372527758263879E-04
   1.7591047256260685E-04   1.7812315391149545E-04   1.8036366736525446E-04
   1.8263236300865697E-04   1.8492959532999973E-04   1.8725572327649268E-04
   1.8961111031034599E-04   1.9199612446556090E-04   1.9441113840543595E-04
   1.9685652948079704E-04   1.9933267978895796E-04   2.0183997623342517E-04
   2.0437881058435107E-04   2.0694957953975004E-04   2.0955268478748226E-04
   2.1218853306801877E-04   2.1485753623799522E-04   2.1756011133456559E-04
   2.2029668064056478E-04   2.2306767175049122E-04   2.2587351763731926E-04
   2.2871465672015217E-04   2.3159153293272596E-04   2.3450459579277513E-04
   2.3745430047226977E-04   2.4044110786853863E-04   2.4346548467628359E-04
   2.4652790346050272E-04   2.4962884273032905E-04   2.5276878701379837E-04
   2.5594822693355846E-04   2.5916765928352885E-04   2.6242758710652602E-04
   2.6572851977286571E-04   2.6907097305995206E-04   2.7245546923286871E-04
   2.7588253712598505E-04   2.7935271222558609E-04   2.8286653675354341E-04
   2.8642455975203934E-04   2.9002733716935525E-04   2.9367543194673963E-04
   2.9736941410636841E-04   3.0110986084041190E-04   3.0489735660122337E-04
   3.0873249319265933E-04   3.1261586986255089E-04   3.1654809339633699E-04
   3.2052977821187629E-04   3.2456154645544986E-04   3.2864402809897427E-04
   3.3277786103843492E-04   3.3696369119355911E-04   3.4120217260874119E-04
   3.4549396755523964E-04   3.4983974663465613E-04   3.5424018888372054E-04
   3.5869598188039060E-04   3.6320782185128673E-04   3.6777641378047977E-04
   3.7240247151964514E-04   3.7708671789960397E-04   3.8182988484326678E-04
   3.8663271347999761E-04   3.9149595426141631E-04   3.9642036707865900E-04
   4.0140672138111157E-04   4.0645579629663774E-04   4.1156838075331984E-04
   4.1674527360272890E-04   4.2198728374474729E-04   4.2729523025396179E-04
   4.3266994250764382E-04   4.3811226031534084E-04   4.4362303405010072E-04
   4.4920312478134125E-04   4.5485340440939450E-04   4.6057475580174329E-04
   4.6636807293096990E-04   4.7223426101444224E-04   4.7817423665575347E-04
   4.8418892798794520E-04   4.9027927481852811E-04   4.9644622877632839E-04
   5.0269075346018322E-04   5.0901382458950193E-04   5.1541643015672631E-04
   5.2189957058170454E-04   5.2846425886800806E-04   5.3511152076121768E-04
   5.4184239490919362E-04   5.4865793302437036E-04   5.5555920004808450E-04
   5.6254727431697662E-04   5.6962324773148117E-04   5.7678822592643799E-04
   5.8404332844384994E-04   5.9138968890781198E-04   5.9882845520164323E-04
   6.0636078964724442E-04   6.1398786918671162E-04   6.2171088556623702E-04
   6.2953104552231998E-04   6.3744957097031931E-04   6.4546769919538447E-04
   6.5358668304577820E-04   6.6180779112863812E-04   6.7013230800819592E-04
   6.7856153440649708E-04   6.8709678740663522E-04   6.9573940065855062E-04
   7.0449072458741502E-04   7.1335212660463584E-04   7.2232499132151705E-04
   7.3141072076560556E-04   7.4061073459976172E-04   7.4992647034397974E-04
   7.5935938360000444E-04   7.6891094827877184E-04   7.7858265683070538E-04
   7.8837602047891764E-04   7.9829256945533622E-04   8.0833385323980699E-04
   8.1850144080220161E-04   8.2879692084756836E-04   8.3922190206437276E-04
   8.4977801337585341E-04   8.6046690419454362E-04   8.7129024467999354E-04
   8.8224972599973536E-04   8.9334706059352841E-04   9.0458398244092867E-04
   9.1596224733222597E-04   9.2748363314278592E-04   9.3914994011084574E-04
   9.5096299111880180E-04   9.6292463197803749E-04   9.7503673171732788E-04
   9.8730118287488440E-04   9.9971990179405657E-04   1.0122948289227672E-03
   1.0250279291167085E-03   1.0379211919463456E-03   1.0509766320077943E-03
   1.0641962892375997E-03   1.0775822292314766E-03   1.0911365435670600E-03
   1.1048613501307132E-03   1.1187587934484500E-03   1.1328310450210177E-03
   1.1470803036631877E-03   1.1615087958473317E-03   1.1761187760512962E-03
   1.1909125271106721E-03   1.2058923605754862E-03   1.2210606170713740E-03
   1.2364196666653155E-03   1.2519719092359404E-03   1.2677197748485231E-03
   1.2836657241346704E-03   1.2998122486767962E-03   1.3161618713974329E-03
   1.3327171469534305E-03   1.3494806621351259E-03   1.3664550362705228E-03
   1.3836429216345619E-03   1.4010470038635370E-03   1.4186700023747171E-03
   1.4365146707912611E-03   1.4545837973724634E-03   1.4728802054494138E-03
   1.4914067538661481E-03   1.5101663374263270E-03   1.5291618873455530E-03
   1.5483963717093660E-03   1.5678727959370011E-03   1.5875942032509813E-03
   1.6075636751526135E-03   1.6277843319034686E-03   1.6482593330129191E-03
   1.6689918777317942E-03   1.6899852055522735E-03   1.7112425967140328E-03
   1.7327673727167842E-03   1.7545628968392484E-03   1.7766325746646544E-03
   1.7989798546128625E-03   1.8216082284791572E-03   1.8445212319798375E-03
   1.8677224453046593E-03   1.8912154936762270E-03   1.9150040479164242E-03
   1.9390918250199657E-03   1.9634825887351608E-03   1.9881801501519880E-03
   2.0131883682975617E-03   2.0385111507390920E-03   2.0641524541944148E-03
   2.0901162851502211E-03   2.1164067004880499E-03   2.1430278081181523E-03
   2.1699837676213383E-03   2.1972787908988820E-03   2.2249171428306157E-03
   2.2529031419412809E-03   2.2812411610752992E-03   2.3099356280799712E-03
   2.3389910264973203E-03   2.3684118962646124E-03   2.3982028344236876E-03
   2.4283684958392279E-03   2.4589135939260308E-03   2.4898429013854645E-03
   2.5211612509511466E-03   2.5528735361440352E-03   2.5849847120369995E-03
   2.6174997960290115E-03   2.6504238686290596E-03   2.6837620742499574E-03
   2.7175196220120780E-03   2.7517017865572699E-03   2.7863139088729325E-03
   2.8213613971265149E-03   2.8568497275104836E-03   2.8927844450979058E-03
   2.9291711647088377E-03   2.9660155717875420E-03   3.0033234232907905E-03
   3.0411005485873228E-03   3.0793528503686041E-03   3.1180863055710671E-03
   3.1573069663099040E-03   3.1970209608246465E-03   3.2372344944366104E-03
   3.2779538505183945E-03   3.3191853914755752E-03   3.3609355597407201E-03
   3.4032108787799206E-03   3.4460179541120038E-03   3.4893634743405032E-03
   3.5332542121986779E-03   3.5776970256076010E-03   3.6226988587476083E-03
   3.6682667431432057E-03   3.7144077987615871E-03   3.7611292351250342E-03
   3.8084383524372182E-03   3.8563425427237379E-03   3.9048492909869535E-03
   3.9539661763753654E-03   4.0037008733677061E-03   4.0540611529718620E-03
   4.1050548839389502E-03   4.1566900339926015E-03   4.2089746710737355E-03
   4.2619169646009661E-03   4.3155251867468660E-03   4.3698077137302553E-03
   4.4247730271247902E-03   4.4804297151839357E-03   4.5367864741826637E-03
   4.5938521097759555E-03   4.6516355383744443E-03   4.7101457885373160E-03
   4.7693920023827293E-03   4.8293834370159707E-03   4.8901294659755724E-03
   4.9516395806975862E-03   5.0139233919982975E-03   5.0769906315755462E-03
   5.1408511535289622E-03   5.2055149358992614E-03   5.2709920822269375E-03
   5.3372928231305208E-03   5.4044275179046799E-03   5.4724066561384161E-03
   5.5412408593536432E-03   5.6109408826642412E-03   5.6815176164561054E-03
   5.7529820880882218E-03   5.8253454636151628E-03   5.8986190495312297E-03
   5.9728142945364871E-03   6.0479427913250495E-03   6.1240162783957677E-03
   6.2010466418857468E-03   6.2790459174268962E-03   6.3580262920257128E-03
   6.4380001059668630E-03   6.5189798547405182E-03   6.6009781909940075E-03
   6.6840079265080062E-03   6.7680820341974495E-03   6.8532136501377088E-03
   6.9394160756161812E-03   7.0267027792096223E-03   7.1150873988876937E-03
   7.2045837441427419E-03   7.2952057981465505E-03   7.3869677199340702E-03
   7.4798838466145585E-03   7.5739686956106476E-03   7.6692369669253213E-03
   7.7657035454375871E-03   7.8633835032268142E-03   7.9622921019263746E-03
   8.0624447951068400E-03   8.1638572306890200E-03   8.2665452533874292E-03
   8.3705249071843752E-03   8.4758124378351094E-03   8.5824242954045098E-03
   8.6903771368355021E-03   8.7996878285498594E-03   8.9103734490815819E-03
   9.0224512917433386E-03   9.1359388673265002E-03   9.2508539068348588E-03
   9.3672143642528783E-03   9.4850384193485987E-03   9.6043444805117180E-03
   9.7251511876273577E-03   9.8474774149858429E-03   9.9713422742290243E-03
   1.0096765117333583E-02   1.0223765539631776E-02   1.0352363382870119E-02
   1.0482578738306363E-02   1.0614431949845427E-02   1.0747943617214636E-02
   1.0883134599178801E-02   1.1020026016795630E-02   1.1158639256711962E-02
   1.1298995974501388E-02   1.1441118098043710E-02   1.1585027830946776E-02
   1.1730747656011281E-02   1.1878300338738908E-02   1.2027708930884567E-02
   1.2178996774053140E-02   1.2332187503341278E-02   1.2487305051024961E-02
   1.2644373650293080E-02   1.2803417839028044E-02   1.2964462463633598E-02
   1.3127532682910715E-02   1.3292653971982022E-02   1.3459852126265340E-02
   1.3629153265497074E-02   1.3800583837806009E-02   1.3974170623838041E-02
   1.4149940740932681E-02   1.4327921647351789E-02   1.4508141146561215E-02
   1.4690627391566208E-02   1.4875408889300883E-02   1.5062514505072814E-02
   1.5251973467063097E-02   1.5443815370882862E-02   1.5638070184186659E-02
   1.5834768251343678E-02   1.6033940298167397E-02   1.6235617436704163E-02
   1.6439831170081975E-02   1.6646613397419671E-02   1.6855996418797519E-02
   1.7068012940290048E-02   1.7282696079061553E-02   1.7500079368525486E-02
   1.7720196763568202E-02   1.7943082645837917E-02   1.8168771829099779E-02
   1.8397299564657778E-02   1.8628701546844283E-02   1.8863013918578232E-02
   1.9100273276992506E-02   1.9340516679131649E-02   1.9583781647720525E-02
   1.9830106177005046E-02   2.0079528738665624E-02   2.0332088287804341E-02
   2.0587824269006808E-02   2.0846776622479447E-02   2.1108985790263206E-02
   2.1374492722524757E-02   2.1643338883925924E-02   2.1915566260072433E-02
   2.2191217364042871E-02   2.2470335242998792E-02   2.2752963484877181E-02
   2.3039146225165928E-02   2.3328928153763674E-02   2.3622354521924762E-02
   2.3919471149290418E-02   2.4220324431007408E-02   2.4524961344934787E-02
   2.4833429458940341E-02   2.5145776938287227E-02   2.5462052553112378E-02
   2.5782305685997632E-02   2.6106586339634426E-02   2.6434945144583666E-02
   2.6767433367131430E-02   2.7104102917241951E-02   2.7445006356608993E-02
   2.7790196906806720E-02   2.8139728457541324E-02   2.8493655575004422E-02
   2.8852033510329653E-02   2.9214918208153737E-02   2.9582366315282778E-02
   2.9954435189465858E-02   3.0331182908276206E-02   3.0712668278102002E-02
   3.1098950843247698E-02   3.1490090895147371E-02   3.1886149481691217E-02
   3.2287188416666453E-02   3.2693270289314409E-02   3.3104458474004540E-02
   3.3520817140027269E-02   3.3942411261506572E-02   3.4369306627434017E-02
   3.4801569851825420E-02   3.5239268384001730E-02   3.5682470518995542E-02
   3.6131245408084246E-02   3.6585663069452067E-02   3.7045794398981494E-02
   3.7511711181176480E-02   3.7983486100218192E-02   3.8461192751155115E-02
   3.8944905651229128E-02   3.9434700251338543E-02   3.9930652947640477E-02
   4.0432841093292989E-02   4.0941343010339887E-02   4.1456238001738192E-02
   4.1977606363531345E-02   4.2505529397168618E-02   4.3040089421972835E-02
   4.3581369787757861E-02   4.4129454887597515E-02   4.4684430170747524E-02
   4.5246382155721916E-02   4.5815398443526022E-02   4.6391567731046877E-02
   4.6974979824603615E-02   4.7565725653658644E-02   4.8163897284691941E-02
   4.8769587935239535E-02   4.9382891988098657E-02   5.0003905005699949E-02
   5.0632723744649728E-02   5.1269446170443163E-02   5.1914171472350439E-02
   5.2567000078477262E-02   5.3228033671001367E-02   5.3897375201587501E-02
   5.4575128906981199E-02   5.5261400324784091E-02   5.5956296309412290E-02
   5.6659925048238698E-02   5.7372396077921911E-02   5.8093820300922840E-02
   5.8824310002210910E-02   5.9563978866160973E-02   6.0312941993643170E-02
   6.1071315919306916E-02   6.1839218629060951E-02   6.2616769577750683E-02
   6.3404089707034539E-02   6.4201301463460606E-02   6.5008528816745625E-02
   6.5825897278257217E-02   6.6653533919701136E-02   6.7491567392014770E-02
   6.8340127944468226E-02   6.9199347443975184E-02   7.0069359394612715E-02
   7.0950298957354427E-02   7.1842302970015134E-02   7.2745509967410277E-02
   7.3660060201729841E-02   7.4586095663129334E-02   7.5523760100537199E-02
   7.6473199042680767E-02   7.7434559819330867E-02   7.8407991582766387E-02
   7.9393645329459542E-02   8.0391673921981682E-02   8.1402232111131498E-02
   8.2425476558284347E-02   8.3461565857964964E-02   8.4510660560641993E-02
   8.5572923195745471E-02   8.6648518294907786E-02   8.7737612415425770E-02
   8.8840374163946342E-02   8.9956974220373118E-02   9.1087585361994960E-02
   9.2232382487834455E-02   9.3391542643215905E-02   9.4565245044552673E-02
   9.5753671104349777E-02   9.6957004456424259E-02   9.8175430981337464E-02
   9.9409138832040028E-02   1.0065831845972620E-01   1.0192316263989515E-01
   1.0320386649861633E-01   1.0450062753899692E-01   1.0581364566784485E-01
   1.0714312322252850E-01   1.0848926499802415E-01   1.0985227827414969E-01
   1.1123237284297921E-01   1.1262976103643221E-01   1.1404465775403273E-01
   1.1547728049083184E-01   1.1692784936548671E-01   1.1839658714849007E-01
   1.1988371929053897E-01   1.2138947395104152E-01   1.2291408202674341E-01
   1.2445777718047134E-01   1.2602079586998377E-01   1.2760337737690938E-01
   1.2920576383577481E-01   1.3082820026309624E-01   1.3247093458652842E-01
   1.3413421767405792E-01   1.3581830336321943E-01   1.3752344849032483E-01
   1.3924991291968511E-01   1.4099795957280289E-01   1.4276785445752779E-01
   1.4455986669713686E-01   1.4637426855933389E-01   1.4821133548513421E-01
   1.5007134611761103E-01   1.5195458233048401E-01   1.5386132925651033E-01
   1.5579187531565805E-01   1.5774651224302619E-01   1.5972553511647561E-01
   1.6172924238394076E-01   1.6375793589037846E-01   1.6581192090431746E-01
   1.6789150614396442E-01   1.6999700380282223E-01   1.7212872957477235E-01
   1.7428700267857195E-01   1.7647214588170887E-01   1.7868448552356364E-01
   1.8092435153781206E-01   1.8319207747401056E-01   1.8548800051829267E-01
   1.8781246151311065E-01   1.9016580497594104E-01   1.9254837911688027E-01
   1.9496053585504500E-01   1.9740263083368206E-01   1.9987502343390881E-01
   2.0237807678696670E-01   2.0491215778489588E-01   2.0747763708951902E-01
   2.1007488913960501E-01   2.1270429215611089E-01   2.1536622814534731E-01
   2.1806108289994450E-01   2.2078924599747296E-01   2.2355111079655096E-01
   2.2634707443029733E-01   2.2917753779693681E-01   2.3204290554738785E-01
   2.3494358606964524E-01   2.3787999146973854E-01   2.4085253754907404E-01
   2.4386164377791900E-01   2.4690773326479248E-01   2.4999123272152635E-01
   2.5311257242370810E-01   2.5627218616624708E-01   2.5947051121375980E-01
   2.6270798824546071E-01   2.6598506129424487E-01   2.6930217767959752E-01
   2.7265978793398393E-01   2.7605834572232713E-01   2.7949830775416662E-01
   2.8298013368808372E-01   2.8650428602792982E-01   2.9007123001039392E-01
   2.9368143348341191E-01   2.9733536677488465E-01   3.0103350255116201E-01
   3.0477631566470659E-01   3.0856428299032612E-01   3.1239788324933193E-01
   3.1627759682094281E-01   3.2020390554022826E-01   3.2417729248183391E-01
   3.2819824172871231E-01   3.3226723812502063E-01   3.3638476701232328E-01
   3.4055131394818533E-01   3.4476736440619016E-01   3.4903340345639411E-01
   3.5334991542513394E-01   3.5771738353310162E-01   3.6213628951051696E-01
   3.6660711318817030E-01   3.7113033206307938E-01   3.7570642083739558E-01
   3.8033585092917949E-01   3.8501908995357526E-01   3.8975660117283556E-01
   3.9454884291361786E-01   3.9939626794985006E-01   4.0429932284942222E-01
   4.0925844728289107E-01   4.1427407329225241E-01   4.1934662451783145E-01
   4.2447651538118242E-01   4.2966415022184601E-01   4.3490992238573234E-01
   4.4021421326274979E-01   4.4557739127128609E-01   4.5099981078699020E-01
   4.5648181101323371E-01   4.6202371479054977E-01   4.6762582734221170E-01
   4.7328843495304634E-01   4.7901180357848200E-01   4.8479617738068892E-01
   4.9064177718864177E-01   4.9654879887877240E-01   5.0251741167282815E-01
   5.0854775634944505E-01   5.1463994336584895E-01   5.2079405088603203E-01
   5.2701012271165737E-01   5.3328816611186869E-01   5.3962814954813487E-01
   5.4603000029016702E-01   5.5249360191893260E-01   5.5901879171272728E-01
   5.6560535791224942E-01   5.7225303686059392E-01   5.7896151001413165E-01
   5.8573040082018357E-01   5.9255927145752640E-01   5.9944761943577274E-01
   6.0639487404975678E-01   6.1340039268523383E-01   6.2046345697225469E-01
   6.2758326878283199E-01   6.3475894606971095E-01   6.4198951854326913E-01
   6.4927392318394905E-01   6.5661099958790592E-01   6.6399948514396945E-01
   6.7143801004051995E-01   6.7892509210129470E-01   6.8645913144984605E-01
   6.9403840500291014E-01   7.0166106079373292E-01   7.0932511212721772E-01
   7.1702843156958584E-01   7.2476874477631437E-01   7.3254362416311958E-01
   7.4035048242598700E-01   7.4818656591754773E-01   7.5604894788848109E-01
   7.6393452160418551E-01   7.7183999334862219E-01   7.7976187532899777E-01
   7.8769647849694147E-01   7.9563990530385564E-01   8.0358804241038606E-01
   8.1153655337230479E-01   8.1948087132766645E-01   8.2741619171277092E-01
   8.3533746503732598E-01   8.4323938975223922E-01   8.5111640524660870E-01
   8.5896268501386830E-01   8.6677213003050402E-01   8.7453836239439797E-01
   8.8225471927367538E-01   8.8991424722079104E-01   8.9750969691068405E-01
   9.0503351836591506E-01   9.1247785673593429E-01   9.1983454870192971E-01
   9.2709511958294066E-01   9.3425078122331451E-01   9.4129243074579316E-01
   9.4821065025870155E-01   9.5499570760983854E-01   9.6163755828346698E-01
   9.6812584854051953E-01   9.7444991990546248E-01   9.8059881510619062E-01
   9.8656128557594069E-01   9.9232580062808540E-01   9.9788055841609935E-01
   1.0032134987916055E+00   1.0083123181731461E+00   1.0131644865372671E+00
   1.0177572666411767E+00   1.0220777355829176E+00   1.0261128088002518E+00
   1.0298492666032593E+00   1.0332737833279637E+00   1.0363729591888120E+00
   1.0391333548965391E+00   1.0415415290947141E+00   1.0435840786528661E+00
   1.0452476818365517E+00   1.0465191443548574E+00   1.0473854482635503E+00
   1.0478338036774211E+00   1.0478517032181358E+00   1.0474269790942230E+00
   1.0465478626776898E+00   1.0452030464071460E+00   1.0433817478105074E+00
   1.0410737754013510E+00   1.0382695961621420E+00   1.0349604042850822E+00
   1.0311381907976134E+00   1.0267958136551072E+00   1.0219270678384735E+00
   1.0165267549499222E+00   1.0105907517566395E+00   1.0041160770904471E+00
   9.9710095647242158E-01   9.8954488379600569E-01   9.8144867937121794E-01
   9.7281454360744657E-01   9.6364610559388542E-01   9.5394846582635828E-01
   9.4372823232814296E-01   9.3299354942151480E-01   9.2175411842755639E-01
   9.1002120960488142E-01   8.9780766468461037E-01   8.8512788941977794E-01
   8.7199783564263256E-01   8.5843497241368616E-01   8.4445824595108332E-01
   8.3008802814768679E-01   8.1534605361507728E-01   8.0025534533631248E-01
   7.8484012916109691E-01   7.6912573753433811E-01   7.5313850300837970E-01
   7.3690564224626254E-01   7.2045513137205197E-01   7.0381557365952530E-01
   6.8701606066478105E-01   6.7008602799458472E-01   6.5305510695303426E-01
   6.3595297331565437E-01   6.1880919443529681E-01   6.0165307578000105E-01
   5.8451350783277589E-01   5.6741881404192573E-01   5.5039660019404080E-01
   5.3347360518946585E-01   5.1667555272593346E-01   5.0002700281052970E-01
   4.8355120139086510E-01   4.6726992579426818E-01   4.5120332291844417E-01
   4.3536973582295202E-01   4.1978551656484048E-01   4.0446482109444942E-01
   3.8941941183703360E-01   3.7465907557423789E-01   3.6019261285529097E-01
   3.4602801100350306E-01   3.3217244995116058E-01   3.1863230948084770E-01
   3.0541317846323468E-01   2.9251986586344558E-01   2.7995641343784794E-01
   2.6772611005216873E-01   2.5583150756287709E-01   2.4427443821724459E-01
   2.3305603354100349E-01   2.2217674469452925E-01   2.1163636428616819E-01
   2.0143404963216419E-01   1.9156834744491075E-01   1.8203721991328359E-01
   1.7283807211096128E-01   1.6396778063249440E-01   1.5542272331517368E-01
   1.4719880986241765E-01   1.3929151314594776E-01   1.3169590093464179E-01
   1.2440666778167973E-01   1.1741816680031865E-01   1.1072444107304762E-01
   1.0431925446676232E-01   9.8196121664546734E-02   9.2348337268347513E-02
   8.6769003871242076E-02   8.1451059039363963E-02   7.6387301178562170E-02
   7.1570414287791331E-02   6.6992991619696990E-02   6.2647558279228840E-02
   5.8526592794857613E-02   5.4622547695651134E-02   5.0927869122788308E-02
   4.7435015497722569E-02   4.4136475262296485E-02   4.1024783699692285E-02
   3.8092538839727970E-02   3.5332416447995958E-02   3.2737184095819757E-02
   3.0299714306857937E-02   2.8012996776317876E-02   2.5870149659889645E-02
   2.3864429931499488E-02   2.1989242811565671E-02   2.0238150270446228E-02
   1.8604878615022045E-02   1.7083325169728217E-02   1.5667564066731386E-02
   1.4351851163262151E-02   1.3130628107282096E-02   1.1998525575673434E-02
   1.0950365711917837E-02   9.9811637927940886E-03   9.0861291559388279E-03
   8.2606654221659814E-03   7.5003700482529660E-03   6.8010332474402963E-03
   6.1586363161801284E-03   5.5693494067143752E-03   5.0295287858410200E-03
   4.5357136207857000E-03   4.0846223333999444E-03   3.6731485639907497E-03
   3.2983567859457131E-03   2.9574776119504400E-03   2.6479028320224129E-03
   2.3671802227961973E-03   2.1130081664999093E-03   1.8832301168705688E-03
   1.6758289478612013E-03   1.4889212194224507E-03   1.3207513928822864E-03
   1.1696860265497954E-03   1.0342079801297437E-03   9.1291065439039708E-04
   8.0449229031658400E-04   7.0775034973207158E-04   6.2157599712802975E-04
   5.4494870022574931E-04   4.7693096465833957E-04   4.1666321610724620E-04
   3.6335884129042230E-04   3.1629939738038449E-04   2.7482999773671159E-04
   2.3835488026441155E-04   2.0633316325073439E-04   1.7827479217857899E-04
   1.5373667975445275E-04   1.3231904021337578E-04   1.1366191786479350E-04
   9.7441908816697819E-05   8.3369073857367034E-05   7.1184039585161715E-05
   6.0655284056933650E-05   5.1576602478363648E-05   4.3764747787523658E-05
   3.7057240388980295E-05   3.1310340782702347E-05   2.6397178401108558E-05
   2.2206029619364884E-05   1.8638737637777164E-05   1.5609266748444513E-05
   1.3042383388067971E-05   1.0872456341001528E-05   9.0423684850668893E-06
   7.5025325624344736E-06   6.2100036019157227E-06   5.1276808108584040E-06
   4.2235919875972670E-06   3.4702537722769197E-06   2.8441013482746236E-06
   2.3249815220522978E-06   1.8957034401950267E-06   1.5416415429743146E-06
   1.2503856995001397E-06   1.0114338153090716E-06   8.1592254573258920E-07
   6.5639208395730197E-07   5.2658131859281629E-07   4.2124996947491203E-07
   3.3602461053087425E-07   2.6726577342621062E-07   2.1195359441714065E-07
   1.6758971875552964E-07   1.3211341173826661E-07   1.0383004321779837E-07
   8.1350313062290069E-08   6.3538769255822128E-08   4.9470338516618849E-08
   3.8393742179962913E-08   2.9700808401623101E-08   2.2900816313927862E-08
   1.7599119479261772E-08   1.3479395726209780E-08   1.0288959123885148E-08
   7.8266483267456244E-09   5.9328747046585545E-09   4.4814743712153873E-09
   3.3730612697216326E-09   2.5296246284954597E-09   1.8901540785849869E-09
   1.4071102131903794E-09   1.0435879846968573E-09   7.7104565859784774E-10
   5.6749360079548076E-10   4.1605544514290433E-10   3.0382960263580621E-10
   2.2099202277861358E-10   1.6009194445440761E-10   1.1550138606194217E-10
   8.2986592587791454E-11   5.9375816643083329E-11   4.2302867285282980E-11
   3.0009992698978542E-11   2.1197023746607594E-11   1.4906426099155240E-11
   1.0436100639100496E-11   7.2735293268406679E-12   5.0462661595486582E-12
   3.4848864654822083E-12   2.3953876942516051E-12   1.6387267680521411E-12
   1.1157203624520965E-12   7.5595586265810305E-13   5.0968709982341195E-13
   3.4194044838211748E-13   2.2824964349401820E-13   1.5158469151928196E-13
   1.0015177122680988E-13   6.5825179324914527E-14   4.3035540241336299E-14
   2.7985666461739505E-14
       </PP_GIPAW_WFS_PS>
     </PP_GIPAW_ORBITAL.1>
     <PP_GIPAW_ORBITAL.2 index="2" label="3P" l="1" cutoff_radius="  1.91073068577946" ultrasoft_cutoff_radius="  1.91073068577946">
       <PP_GIPAW_WFS_AE size="1078">
   0.0000000000000000E+00  -2.0431755035938544E-07  -2.0859524687829163E-07
  -2.1297010336711129E-07  -2.1744453278259706E-07  -2.2202072217779364E-07
  -2.2670082885234485E-07  -2.3148705715207297E-07  -2.3638166170881548E-07
  -2.4138694856922992E-07  -2.4650527629530556E-07  -2.5173905709699668E-07
  -2.5709075799188122E-07  -2.6256290199163506E-07  -2.6815806931586660E-07
  -2.7387889863391526E-07  -2.7972808833523471E-07  -2.8570839782900114E-07
  -2.9182264887358976E-07  -2.9807372693659581E-07  -3.0446458258606963E-07
  -3.1099823291367148E-07  -3.1767776299046178E-07  -3.2450632735604718E-07
  -3.3148715154184062E-07  -3.3862353362919656E-07  -3.4591884584320278E-07
  -3.5337653618293544E-07  -3.6100013008899125E-07  -3.6879323214914390E-07
  -3.7675952784297590E-07  -3.8490278532637334E-07  -3.9322685725677811E-07
  -4.0173568266012068E-07  -4.1043328884037809E-07  -4.1932379333271806E-07
  -4.2841140590122053E-07  -4.3770043058219156E-07  -4.4719526777408845E-07
  -4.5690041637514041E-07  -4.6682047596972326E-07  -4.7696014906461730E-07
  -4.8732424337627579E-07  -4.9791767417026440E-07  -5.0874546665407436E-07
  -5.1981275842450940E-07  -5.3112480197091475E-07  -5.4268696723551048E-07
  -5.5450474423214282E-07  -5.6658374572479488E-07  -5.7892970996721884E-07
  -5.9154850350510792E-07  -6.0444612404223011E-07  -6.1762870337200656E-07
  -6.3110251037603814E-07  -6.4487395409112013E-07  -6.5894958684633133E-07
  -6.7333610747181808E-07  -6.8804036458091966E-07  -7.0306935992734460E-07
  -7.1843025183913650E-07  -7.3413035873120183E-07  -7.5017716269823169E-07
  -7.6657831318988350E-07  -7.8334163077014290E-07  -8.0047511096281867E-07
  -8.1798692818517682E-07  -8.3588543977179453E-07  -8.5417919009071237E-07
  -8.7287691475405832E-07  -8.9198754492537070E-07  -9.1152021172585421E-07
  -9.3148425074192901E-07  -9.5188920663641711E-07  -9.7274483786584061E-07
  -9.9406112150629027E-07  -1.0158482581904643E-06  -1.0381166771584647E-06
  -1.0608770414250646E-06  -1.0841402530661807E-06  -1.1079174586273876E-06
  -1.1322200546573434E-06  -1.1570596933691151E-06  -1.1824482884324117E-06
  -1.2083980208998543E-06  -1.2349213452704401E-06  -1.2620309956935045E-06
  -1.2897399923164885E-06  -1.3180616477799395E-06  -1.3470095738632831E-06
  -1.3765976882849321E-06  -1.4068402216604205E-06  -1.4377517246223336E-06
  -1.4693470751059338E-06  -1.5016414858043641E-06  -1.5346505117975841E-06
  -1.5683900583590931E-06  -1.6028763889447855E-06  -1.6381261333682280E-06
  -1.6741562961668630E-06  -1.7109842651637029E-06  -1.7486278202291931E-06
  -1.7871051422480392E-06  -1.8264348222959422E-06  -1.8666358710312261E-06
  -1.9077277283065566E-06  -1.9497302730060027E-06  -1.9926638331128794E-06
  -2.0365491960138647E-06  -2.0814076190450955E-06  -2.1272608402860691E-06
  -2.1741310896072448E-06  -2.2220410999774792E-06  -2.2710141190375388E-06
  -2.3210739209460502E-06  -2.3722448185044764E-06  -2.4245516755677626E-06
  -2.4780199197476012E-06  -2.5326755554152628E-06  -2.5885451770112708E-06
  -2.6456559826692053E-06  -2.7040357881613345E-06  -2.7637130411736274E-06
  -2.8247168359182672E-06  -2.8870769280916062E-06  -2.9508237501860526E-06
  -3.0159884271642292E-06  -3.0826027925043165E-06  -3.1506994046253319E-06
  -3.2203115637016910E-06  -3.2914733288762534E-06  -3.3642195358816107E-06
  -3.4385858150793749E-06  -3.5146086099275798E-06  -3.5923251958865317E-06
  -3.6717736997737016E-06  -3.7529931195785125E-06  -3.8360233447480768E-06
  -3.9209051769553788E-06  -4.0076803513614960E-06  -4.0963915583837918E-06
  -4.1870824659824154E-06  -4.2797977424776103E-06  -4.3745830799106669E-06
  -4.4714852179617639E-06  -4.5705519684381745E-06  -4.6718322403466406E-06
  -4.7753760655641849E-06  -4.8812346251217996E-06  -4.9894602761159729E-06
  -5.1001065792632976E-06  -5.2132283271137593E-06  -5.3288815729388255E-06
  -5.4471236603106660E-06  -5.5680132533893933E-06  -5.6916103679355554E-06
  -5.8179764030655791E-06  -5.9471741737682180E-06  -6.0792679442006538E-06
  -6.2143234617832626E-06  -6.3524079921124594E-06  -6.4935903547117045E-06
  -6.6379409596411028E-06  -6.7855318449865795E-06  -6.9364367152501785E-06
  -7.0907309806634130E-06  -7.2484917974464193E-06  -7.4097981090358994E-06
  -7.5747306883056603E-06  -7.7433721808040203E-06  -7.9158071490330132E-06
  -8.0921221177948850E-06  -8.2724056206320613E-06  -8.4567482473873288E-06
  -8.6452426929118294E-06  -8.8379838069488182E-06  -9.0350686452222129E-06
  -9.2365965217593678E-06  -9.4426690624783483E-06  -9.6533902600708370E-06
  -9.8688665302123927E-06  -1.0089206769132570E-05  -1.0314522412578528E-05
  -1.0544927496205968E-05  -1.0780538717432820E-05  -1.1021475498791388E-05
  -1.1267860052815711E-05  -1.1519817448502056E-05  -1.1777475679380960E-05
  -1.2040965733240444E-05  -1.2310421663541195E-05  -1.2585980662564929E-05
  -1.2867783136338658E-05  -1.3155972781378606E-05  -1.3450696663298313E-05
  -1.3752105297326720E-05  -1.4060352730783297E-05  -1.4375596627558084E-05
  -1.4697998354646151E-05  -1.5027723070786607E-05  -1.5364939817258221E-05
  -1.5709821610884279E-05  -1.6062545539301199E-05  -1.6423292858546253E-05
  -1.6792249093021608E-05  -1.7169604137892864E-05  -1.7555552363981852E-05
  -1.7950292725214923E-05  -1.8354028868689625E-05  -1.8766969247423813E-05
  -1.9189327235853112E-05  -1.9621321248144189E-05  -2.0063174859392862E-05
  -2.0515116929777963E-05  -2.0977381731743128E-05  -2.1450209080281225E-05
  -2.1933844466397083E-05  -2.2428539193826506E-05  -2.2934550519091906E-05
  -2.3452141794975408E-05  -2.3981582617493868E-05  -2.4523148976461591E-05
  -2.5077123409727950E-05  -2.5643795161180774E-05  -2.6223460342607075E-05
  -2.6816422099505717E-05  -2.7422990780948979E-05  -2.8043484113591312E-05
  -2.8678227379928029E-05  -2.9327553600906299E-05  -2.9991803722996110E-05
  -3.0671326809829617E-05  -3.1366480238520362E-05  -3.2077629900777234E-05
  -3.2805150408929671E-05  -3.3549425306984401E-05  -3.4310847286836458E-05
  -3.5089818409759696E-05  -3.5886750333306597E-05  -3.6702064543748298E-05
  -3.7536192594190421E-05  -3.8389576348502670E-05  -3.9262668231204031E-05
  -4.0155931483448775E-05  -4.1069840425261125E-05  -4.2004880724171103E-05
  -4.2961549670407461E-05  -4.3940356458806221E-05  -4.4941822477599498E-05
  -4.5966481604249732E-05  -4.7014880508502706E-05  -4.8087578962832831E-05
  -4.9185150160460608E-05  -5.0308181041126433E-05  -5.1457272624808056E-05
  -5.2633040353574502E-05  -5.3836114441773757E-05  -5.5067140234755143E-05
  -5.6326778576334523E-05  -5.7615706185211866E-05  -5.8934616040558980E-05
  -6.0284217776998909E-05  -6.1665238089202474E-05  -6.3078421146336617E-05
  -6.4524529016599794E-05  -6.6004342102088533E-05  -6.7518659584245538E-05
  -6.9068299880141522E-05  -7.0654101109854543E-05  -7.2276921575211499E-05
  -7.3937640250166218E-05  -7.5637157283094691E-05  -7.7376394511290863E-05
  -7.9156295987959619E-05  -8.0977828522004036E-05  -8.2841982230914200E-05
  -8.4749771107073821E-05  -8.6702233597801622E-05  -8.8700433199461465E-05
  -9.0745459065973412E-05  -9.2838426632071720E-05  -9.4980478251663507E-05
  -9.7172783851644682E-05  -9.9416541601546609E-05  -1.0171297859938736E-04
  -1.0406335157411433E-04  -1.0646894760503571E-04  -1.0893108485863962E-04
  -1.1145111334322124E-04  -1.1403041568173464E-04  -1.1667040790330458E-04
  -1.1937254025384312E-04  -1.2213829802621779E-04  -1.2496920241044079E-04
  -1.2786681136434902E-04  -1.3083272050525973E-04  -1.3386856402309986E-04
  -1.3697601561551149E-04  -1.4015678944545617E-04  -1.4341264112184570E-04
  -1.4674536870374049E-04  -1.5015681372867462E-04  -1.5364886226566655E-04
  -1.5722344599350421E-04  -1.6088254330488979E-04  -1.6462818043705329E-04
  -1.6846243262945697E-04  -1.7238742530921789E-04  -1.7640533530490212E-04
  -1.8051839208935126E-04  -1.8472887905221448E-04  -1.8903913480288555E-04
  -1.9345155450454282E-04  -1.9796859124002458E-04  -2.0259275741027125E-04
  -2.0732662616609462E-04  -2.1217283287404482E-04  -2.1713407661716076E-04
  -2.2221312173141707E-04  -2.2741279937868583E-04  -2.3273600915705580E-04
  -2.3818572074937394E-04  -2.4376497561088038E-04  -2.4947688869684522E-04
  -2.5532465023111263E-04  -2.6131152751650581E-04  -2.6744086678802853E-04
  -2.7371609510986499E-04  -2.8014072231716101E-04  -2.8671834300361297E-04
  -2.9345263855590974E-04  -3.0034737923608271E-04  -3.0740642631286482E-04
  -3.1463373424315627E-04  -3.2203335290473771E-04  -3.2960942988139092E-04
  -3.3736621280159565E-04  -3.4530805173202780E-04  -3.5343940162707843E-04
  -3.6176482483564893E-04  -3.7028899366652323E-04  -3.7901669301360124E-04
  -3.8795282304235476E-04  -3.9710240193885761E-04  -4.0647056872278130E-04
  -4.1606258612579159E-04  -4.2588384353676968E-04  -4.3593986001536658E-04
  -4.4623628737538101E-04  -4.5677891333950133E-04  -4.6757366476699703E-04
  -4.7862661095593234E-04  -4.8994396702156781E-04  -5.0153209735259436E-04
  -5.1339751914689937E-04  -5.2554690602861509E-04  -5.3798709174818075E-04
  -5.5072507396725372E-04  -5.6376801813028739E-04  -5.7712326142463262E-04
  -5.9079831683110401E-04  -6.0480087726691033E-04  -6.1913881982296243E-04
  -6.3382021009755567E-04  -6.4885330662848412E-04  -6.6424656542568680E-04
  -6.8000864460653727E-04  -6.9614840913596768E-04  -7.1267493567363292E-04
  -7.2959751753034032E-04  -7.4692566973608512E-04  -7.6466913422195554E-04
  -7.8283788511834883E-04  -8.0144213417186500E-04  -8.2049233628335959E-04
  -8.3999919516964663E-04  -8.5997366915139682E-04  -8.8042697706981418E-04
  -9.0137060433474227E-04  -9.2281630910683499E-04  -9.4477612861656719E-04
  -9.6726238562278737E-04  -9.9028769501368209E-04  -1.0138649705529747E-03
  -1.0380074317742601E-03  -1.0627286110264423E-03  -1.0880423606732606E-03
  -1.1139628604499338E-03  -1.1405046249800374E-03  -1.1676825114557195E-03
  -1.1955117274844711E-03  -1.2240078391056472E-03  -1.2531867789800275E-03
  -1.2830648547557668E-03  -1.3136587576140601E-03  -1.3449855709979715E-03
  -1.3770627795279091E-03  -1.4099082781071860E-03  -1.4435403812213289E-03
  -1.4779778324346498E-03  -1.5132398140877920E-03  -1.5493459571999206E-03
  -1.5863163515792940E-03  -1.6241715561460405E-03  -1.6629326094709219E-03
  -1.7026210405340096E-03  -1.7432588797071662E-03  -1.7848686699642696E-03
  -1.8274734783232651E-03  -1.8710969075239816E-03  -1.9157631079458712E-03
  -1.9614967897697987E-03  -2.0083232353879455E-03  -2.0562683120661633E-03
  -2.1053584848628893E-03  -2.1556208298089425E-03  -2.2070830473525220E-03
  -2.2597734760736099E-03  -2.3137211066723137E-03  -2.3689555962353726E-03
  -2.4255072827852973E-03  -2.4834072001166060E-03  -2.5426870929234724E-03
  -2.6033794322234171E-03  -2.6655174310813725E-03  -2.7291350606387030E-03
  -2.7942670664516467E-03  -2.8609489851436323E-03  -2.9292171613760783E-03
  -2.9991087651420911E-03  -3.0706618093875714E-03  -3.1439151679642915E-03
  -3.2189085939192674E-03  -3.2956827381250792E-03  -3.3742791682554178E-03
  -3.4547403881103060E-03  -3.5371098572954951E-03  -3.6214320112600978E-03
  -3.7077522816971061E-03  -3.7961171173107643E-03  -3.8865740049551139E-03
  -3.9791714911478959E-03  -4.0739592039636752E-03  -4.1709878753104553E-03
  -4.2703093635934521E-03  -4.3719766767700155E-03  -4.4760439957993404E-03
  -4.5825666984905707E-03  -4.6916013837528777E-03  -4.8032058962508579E-03
  -4.9174393514684498E-03  -5.0343621611845758E-03  -5.1540360593633561E-03
  -5.2765241284617893E-03  -5.4018908261574423E-03  -5.5302020124986086E-03
  -5.6615249774792029E-03  -5.7959284690402898E-03  -5.9334827215002271E-03
  -6.0742594844148739E-03  -6.2183320518691436E-03  -6.3657752922011614E-03
  -6.5166656781593781E-03  -6.6710813174936301E-03  -6.8291019839798930E-03
  -6.9908091488787901E-03  -7.1562860128272249E-03  -7.3256175381623189E-03
  -7.4988904816763215E-03  -7.6761934278010129E-03  -7.8576168222191760E-03
  -8.0432530059010143E-03  -8.2331962495621643E-03  -8.4275427885400159E-03
  -8.6263908580843981E-03  -8.8298407290578300E-03  -9.0379947440406543E-03
  -9.2509573538349411E-03  -9.4688351543613415E-03  -9.6917369239415789E-03
  -9.9197736609592732E-03  -1.0153058621890823E-02  -1.0391707359697000E-02
  -1.0635837762566054E-02  -1.0885570092997454E-02  -1.1141027027214917E-02
  -1.1402333694896811E-02  -1.1669617719210410E-02  -1.1943009257136438E-02
  -1.2222641040068819E-02  -1.2508648414673432E-02  -1.2801169383989348E-02
  -1.3100344648754125E-02  -1.3406317648934104E-02  -1.3719234605439735E-02
  -1.4039244562003688E-02  -1.4366499427199983E-02  -1.4701154016579057E-02
  -1.5043366094894404E-02  -1.5393296418393383E-02  -1.5751108777144272E-02
  -1.6116970037370056E-02  -1.6491050183757568E-02  -1.6873522361709282E-02
  -1.7264562919503759E-02  -1.7664351450328124E-02  -1.8073070834145357E-02
  -1.8490907279356397E-02  -1.8918050364215795E-02  -1.9354693077957830E-02
  -1.9801031861587149E-02  -2.0257266648287520E-02  -2.0723600903398236E-02
  -2.1200241663907323E-02  -2.1687399577407743E-02  -2.2185288940459697E-02
  -2.2694127736301889E-02  -2.3214137671849523E-02  -2.3745544213916770E-02
  -2.4288576624597161E-02  -2.4843467995733736E-02  -2.5410455282407381E-02
  -2.5989779335369750E-02  -2.6581684932343502E-02  -2.7186420808110630E-02
  -2.7804239683305594E-02  -2.8435398291827989E-02  -2.9080157406785361E-02
  -2.9738781864874015E-02  -3.0411540589103250E-02  -3.1098706609762553E-02
  -3.1800557083531786E-02  -3.2517373310626020E-02  -3.3249440749867819E-02
  -3.3997049031573121E-02  -3.4760491968133495E-02  -3.5540067562175336E-02
  -3.6336078012170314E-02  -3.7148829715369751E-02  -3.7978633267929517E-02
  -3.8825803462089865E-02  -3.9690659280268541E-02  -4.0573523885922468E-02
  -4.1474724611029141E-02  -4.2394592940033664E-02  -4.3333464490103078E-02
  -4.4291678987525916E-02  -4.5269580240089514E-02  -4.6267516105262682E-02
  -4.7285838454008779E-02  -4.8324903130046372E-02  -4.9385069904372476E-02
  -5.0466702424857422E-02  -5.1570168160715316E-02  -5.2695838341650640E-02
  -5.3844087891474358E-02  -5.5015295355980452E-02  -5.6209842824866622E-02
  -5.7428115847479706E-02  -5.8670503342160535E-02  -5.9937397498957962E-02
  -6.1229193675477328E-02  -6.2546290285623099E-02  -6.3889088680991565E-02
  -6.5257993024663424E-02  -6.6653410157142115E-02  -6.8075749454178366E-02
  -6.9525422676218002E-02  -7.1002843809202992E-02  -7.2508428896455271E-02
  -7.4042595861363469E-02  -7.5605764320593252E-02  -7.7198355387533266E-02
  -7.8820791465689141E-02  -8.0473496031730554E-02  -8.2156893407895490E-02
  -8.3871408523449348E-02  -8.5617466664895989E-02  -8.7395493214634537E-02
  -8.9205913377750218E-02  -9.1049151896629571E-02  -9.2925632753083479E-02
  -9.4835778857662367E-02  -9.6780011725846882E-02  -9.8758751140793091E-02
  -1.0077241480231419E-01  -1.0282141796177684E-01  -1.0490617304259260E-01
  -1.0702708924598481E-01  -1.0918457214171196E-01  -1.1137902324343002E-01
  -1.1361083956837847E-01  -1.1588041318107688E-01  -1.1818813072072377E-01
  -1.2053437291199016E-01  -1.2291951405890884E-01  -1.2534392152156060E-01
  -1.2780795517526977E-01  -1.3031196685202567E-01  -1.3285629976385022E-01
  -1.3544128790785107E-01  -1.3806725545269505E-01  -1.4073451610625773E-01
  -1.4344337246421102E-01  -1.4619411533932361E-01  -1.4898702307126305E-01
  -1.5182236081669895E-01  -1.5470037981952833E-01  -1.5762131666105417E-01
  -1.6058539248996900E-01  -1.6359281223201480E-01  -1.6664376377920620E-01
  -1.6973841715853002E-01  -1.7287692368005581E-01  -1.7605941506441075E-01
  -1.7928600254960686E-01  -1.8255677597722578E-01  -1.8587180285799978E-01
  -1.8923112741685794E-01  -1.9263476961753101E-01  -1.9608272416685199E-01
  -1.9957495949891141E-01  -2.0311141673927124E-01  -2.0669200864947532E-01
  -2.1031661855213185E-01  -2.1398509923688858E-01  -2.1769727184765783E-01
  -2.2145292475149692E-01  -2.2525181238959810E-01  -2.2909365411087801E-01
  -2.3297813298872325E-01  -2.3690489462148612E-01  -2.4087354591737908E-01
  -2.4488365386448438E-01  -2.4893474428663309E-01  -2.5302630058597914E-01
  -2.5715776247315369E-01  -2.6132852468593626E-01  -2.6553793569745943E-01
  -2.6978529641501153E-01  -2.7406985887058416E-01  -2.7839082490436817E-01
  -2.8274734484246966E-01  -2.8713851617020619E-01  -2.9156338220237965E-01
  -2.9602093075202240E-01  -3.0051009279918145E-01  -3.0502974116133175E-01
  -3.0957868916715492E-01  -3.1415568933539378E-01  -3.1875943206061969E-01
  -3.2338854430779101E-01  -3.2804158831749458E-01  -3.3271706032386944E-01
  -3.3741338928719056E-01  -3.4212893564314223E-01  -3.4686199007085267E-01
  -3.5161077228170479E-01  -3.5637342983100767E-01  -3.6114803695454822E-01
  -3.6593259343202966E-01  -3.7072502347940217E-01  -3.7552317467198643E-01
  -3.8032481690032433E-01  -3.8512764136058980E-01  -3.8992925958138602E-01
  -3.9472720248873844E-01  -3.9951891951106677E-01  -4.0430177772598525E-01
  -4.0907306105080399E-01  -4.1382996947875911E-01  -4.1856961836313872E-01
  -4.2328903775171234E-01  -4.2798517177416601E-01  -4.3265487808561631E-01
  -4.3729492736970149E-01  -4.4190200290526654E-01  -4.4647270020120855E-01
  -4.5100352670468730E-01  -4.5549090158854061E-01  -4.5993115562445547E-01
  -4.6432053114913702E-01  -4.6865518213139479E-01  -4.7293117434877407E-01
  -4.7714448568291107E-01  -4.8129100654337931E-01  -4.8536654043018773E-01
  -4.8936680464533361E-01  -4.9328743116392859E-01  -4.9712396767517825E-01
  -5.0087187880307860E-01  -5.0452654751589887E-01  -5.0808327673239351E-01
  -5.1153729113130519E-01  -5.1488373916898855E-01  -5.1811769530813545E-01
  -5.2123416245864396E-01  -5.2422807462975729E-01  -5.2709429979098210E-01
  -5.2982764293791695E-01  -5.3242284935825890E-01  -5.3487460809286880E-01
  -5.3717755558684754E-01  -5.3932627952616208E-01  -5.4131532285623529E-01
  -5.4313918798004324E-01  -5.4479234113448682E-01  -5.4626921694495956E-01
  -5.4756422315907383E-01  -5.4867174556128395E-01  -5.4958615307066050E-01
  -5.5030180302430887E-01  -5.5081304664883324E-01  -5.5111423472198573E-01
  -5.5119972342610224E-01  -5.5106388039430365E-01  -5.5070109094967312E-01
  -5.5010576453683901E-01  -5.4927234134458069E-01  -5.4819529911728737E-01
  -5.4686916015237164E-01  -5.4528849848004513E-01  -5.4344794722125578E-01
  -5.4134220611903050E-01  -5.3896604923798264E-01  -5.3631433282629770E-01
  -5.3338200333412611E-01  -5.3016410558195193E-01  -5.2665579107215377E-01
  -5.2285232643667701E-01  -5.1874910201337532E-01  -5.1434164054327791E-01
  -5.0962560598067930E-01  -5.0459681240758103E-01  -4.9925123304364133E-01
  -4.9358500934235394E-01  -4.8759446016373187E-01  -4.8127609101332053E-01
  -4.7462660333679668E-01  -4.6764290385892399E-01  -4.6032211395502032E-01
  -4.5266157904245385E-01  -4.4465887797911380E-01  -4.3631183245500721E-01
  -4.2761851636251269E-01  -4.1857726513002741E-01  -4.0918668500291994E-01
  -3.9944566225499756E-01  -3.8935337231272554E-01  -3.7890928877365826E-01
  -3.6811319229962519E-01  -3.5696517936425504E-01  -3.4546567083358282E-01
  -3.3361542035746372E-01  -3.2141552254860289E-01  -3.0886742092511804E-01
  -2.9597291559152911E-01  -2.8273417063227191E-01  -2.6915372119090170E-01
  -2.5523448020734402E-01  -2.4097974478484957E-01  -2.2639320215755235E-01
  -2.1147893522904715E-01  -1.9624142765189109E-01  -1.8068556841764868E-01
  -1.6481665592695086E-01  -1.4864040150903773E-01  -1.3216293236050022E-01
  -1.1539079387337210E-01  -9.8330951323385846E-02  -8.0990790890031639E-02
  -6.3378119981301828E-02  -4.5501166837141817E-02  -2.7368579387232358E-02
  -8.9894233403401465E-03   9.6268205159902032E-03   2.8470259824774004E-02
   4.7530594995972793E-02   6.6797124386591300E-02   8.6258750340093143E-02
   1.0590398610038564E-01   1.2572096361541657E-01   1.4569744224584821E-01
   1.6582081839512777E-01   1.8607813607768145E-01   2.0645609844242244E-01
   2.2694108026709886E-01   2.4751914143511985E-01   2.6817604139804230E-01
   2.8889725461174087E-01   3.0966798691063019E-01   3.3047319274876447E-01
   3.5129759318776954E-01   3.7212569444781013E-01   3.9294180675966850E-01
   4.1373006316743693E-01   4.3447443783952350E-01   4.5515876336306332E-01
   4.7576674644110906E-01   4.9628198140459251E-01   5.1668796101666747E-01
   5.3696808420898734E-01   5.5710566066618683E-01   5.7708391257367297E-01
   5.9688597435390878E-01   6.1649489179954120E-01   6.3589362259214255E-01
   6.5506504065451854E-01   6.7399194696740394E-01   6.9265708923068925E-01
   7.1104319196632793E-01   7.2913299737982551E-01   7.4690931573640973E-01
   7.6435508253441087E-01   7.8145341877522767E-01   7.9818769040938942E-01
   8.1454156360602470E-01   8.3049905362186061E-01   8.4604456636819569E-01
   8.6116293294065716E-01   8.7583943816996013E-01   8.9005984461956922E-01
   9.0381041347156899E-01   9.1707792353376572E-01   9.2984968929610134E-01
   9.4211357865530843E-01   9.5385803066331432E-01   9.6507207345513546E-01
   9.7574534237194643E-01   9.8586809820233179E-01   9.9543124540592798E-01
   1.0044263501467339E+00   1.0128456579412348E+00   1.0206821107141446E+00
   1.0279293630500641E+00   1.0345817974316700E+00   1.0406345382636573E+00
   1.0460834644959129E+00   1.0509252206786746E+00   1.0551572263052784E+00
   1.0587776833236446E+00   1.0617855817241610E+00   1.0641807031382249E+00
   1.0659636224071500E+00   1.0671357071047800E+00   1.0676991150184159E+00
   1.0676567896113516E+00   1.0670124535062500E+00   1.0657706000419864E+00
   1.0639364829675040E+00   1.0615161043450063E+00   1.0585162007416082E+00
   1.0549442277938053E+00   1.0508083432328408E+00   1.0461173884616664E+00
   1.0408808687757822E+00   1.0351089323209832E+00   1.0288123478810869E+00
   1.0220024815881703E+00   1.0146912726467638E+00   1.0068912081619084E+00
   9.9861529715914032E-01   9.8987704388213738E-01   9.8069042045127541E-01
   9.7106983896356214E-01   9.6103012311131852E-01   9.5058647939392205E-01
   9.3975446799349882E-01   9.2854997338206835E-01   9.1698917472424557E-01
   9.0508851613600205E-01   8.9286467685671800E-01   8.8033454138830347E-01
   8.6751516965199671E-01   8.5442376721052926E-01   8.4107765560044645E-01
   8.2749424281697681E-01   8.1369099399193490E-01   7.9968540230293117E-01
   7.8549496015075648E-01   7.7113713064326495E-01   7.5662931942314893E-01
   7.4198884686616251E-01   7.2723292070095513E-01   7.1237860908060213E-01
   6.9744281414792941E-01   6.8244224613689874E-01   6.6739339805474462E-01
   6.5231252099203885E-01   6.3721560011052136E-01   6.2211833136078476E-01
   6.0703609898388000E-01   5.9198395385217961E-01   5.7697659270515300E-01
   5.6202833833500176E-01   5.4715312077491196E-01   5.3236445953907752E-01
   5.1767544695842294E-01   5.0309873264907834E-01   4.8864650914248520E-01
   4.7433049869647936E-01   4.6016194129663895E-01   4.4615158384685311E-01
   4.3230967053851521E-01   4.1864593437977410E-01   4.0516958986078366E-01
   3.9188932672921545E-01   3.7881330485286996E-01   3.6594915015412949E-01
   3.5330395161425981E-01   3.4088425936364525E-01   3.2869608389634158E-01
   3.1674489647112580E-01   3.0503563078434942E-01   2.9357268601853498E-01
   2.8235993138088517E-01   2.7140071224447082E-01   2.6069785798855222E-01
   2.5025369160234512E-01   2.4007004106943217E-01   2.3014825249063722E-01
   2.2048920483755391E-01   2.1109332616332144E-01   2.0196061103948618E-01
   1.9309063894477954E-01   1.8448259330792682E-01   1.7613528090507161E-01
   1.6804715133193013E-01   1.6021631630808406E-01   1.5264056862065889E-01
   1.4531740057023865E-01   1.3824402183742227E-01   1.3141737673847009E-01
   1.2483416087939248E-01   1.1849083724792207E-01   1.1238365180154197E-01
   1.0650864861836977E-01   1.0086168467790708E-01   9.5438444332604469E-02
   9.0234453521187613E-02   8.5245093762497420E-02   8.0465615955908440E-02
   7.5891154002272199E-02   7.1516738248508890E-02   6.7337308749890162E-02
   6.3347728336769105E-02   5.9542795467059109E-02   5.5917256841895788E-02
   5.2465819759485430E-02   4.9183164180859218E-02   4.6063954480913785E-02
   4.3102850858496938E-02   4.0294520380217413E-02   3.7633647633981221E-02
   3.5114944969861853E-02   3.2733162307692097E-02   3.0483096492702116E-02
   2.8359600182508316E-02   2.6357590250811795E-02   2.4472055695241891E-02
   2.2698065038848293E-02   2.1030773216858423E-02   1.9465427942401772E-02
   1.7997375547007498E-02   1.6622066293814686E-02   1.5335059163539999E-02
   1.4132026115420367E-02   1.3008755827500612E-02   1.1961156922827480E-02
   1.0985260690317803E-02   1.0077223311255228E-02   9.2333276045584861E-03
   8.4499843060853331E-03   7.7237328992656460E-03   7.0512420162594210E-03
   6.4293094305173798E-03   5.8548616630893901E-03   5.3249532261282640E-03
   4.8367655278536295E-03   4.3876054636415394E-03   3.9749037179207039E-03
   3.5962128012207617E-03   3.2492048460505607E-03   2.9316691843554281E-03
   2.6415097282018853E-03   2.3767421741422326E-03   2.1354910505170664E-03
   1.9159866258336539E-03   1.7165616953704022E-03   1.5356482623440054E-03
   1.3717741293449649E-03   1.2235594152928033E-03   1.0897130128560101E-03
   9.6902900108327425E-04   8.6038302785350102E-04   7.6272867662400829E-04
   6.7509383179281993E-04   5.9657705675332116E-04   5.2634399838023024E-04
   4.6362383122404411E-04   4.0770575409972474E-04   3.5793555103603921E-04
   3.1371222771135548E-04   2.7448473355733572E-04   2.3974877868087078E-04
   2.0904375365928178E-04   1.8194975912738510E-04   1.5808475091844316E-04
   1.3710180536683563E-04   1.1868650824757496E-04   1.0255446973231573E-04
   8.8448966699544948E-05   7.6138712758337982E-05   6.5415755440481204E-05
   5.6093499191320509E-05   4.8004852049507463E-05   4.1000493252655450E-05
   3.4947258439775158E-05   2.9726638641339034E-05   2.5233388850960865E-05
   2.1374241656031769E-05   1.8066721162429225E-05   1.5238052276146337E-05
   1.2824160295998532E-05   1.0768755720377371E-05   9.0224991708465126E-06
   7.5422413800082918E-06   6.2903332742129381E-06   5.2340012974843446E-06
   4.3447832660589327E-06   3.5980202077120276E-06   2.9723998226505375E-06
   2.4495473981481086E-06   2.0136602142783221E-06   1.6511816894866974E-06
   1.3505117295856163E-06   1.1017499596044591E-06   8.9646873267324337E-07
   7.2751302196524215E-07   5.8882450914698483E-07   4.7528738452768734E-07
   3.8259356901465167E-07   3.0712525537485620E-07   2.4585284527809795E-07
   1.9624652876941281E-07   1.5619991374790527E-07   1.2396426446662485E-07
   9.8092049884794571E-08   7.7388634876603941E-08   6.0871069903837850E-08
   4.7733047955114702E-08   3.7315201586184381E-08   2.9080008049812739E-08
   2.2590657170189509E-08   1.7493315165867359E-08   1.3502288509648630E-08
   1.0387655595310104E-08   7.9649909305327990E-09   6.0868572799402706E-09
   4.6357861253688855E-09   3.5185064704084203E-09   2.6616374964995821E-09
   2.0550115119911332E-09  -1.4173755676140081E-10  -4.1126432899625833E-12
  -0.0000000000000000E+00  -0.0000000000000000E+00  -0.0000000000000000E+00
  -0.0000000000000000E+00  -0.0000000000000000E+00  -0.0000000000000000E+00
  -0.0000000000000000E+00  -0.0000000000000000E+00  -0.0000000000000000E+00
  -0.0000000000000000E+00  -0.0000000000000000E+00  -0.0000000000000000E+00
  -0.0000000000000000E+00
       </PP_GIPAW_WFS_AE>
       <PP_GIPAW_WFS_PS size="1078">
   0.0000000000000000E+00   1.8256246811163058E-09   1.8718405899614744E-09
   1.9192264601182919E-09   1.9678119092881177E-09   2.0176273049580182E-09
   2.0687037833718098E-09   2.1210732689910773E-09   2.1747684944489860E-09
   2.2298230210092549E-09   2.2862712595430344E-09   2.3441484920368128E-09
   2.4034908936448241E-09   2.4643355552996796E-09   2.5267205068954147E-09
   2.5906847410574131E-09   2.6562682375140547E-09   2.7235119880853650E-09
   2.7924580223042166E-09   2.8631494336861746E-09   2.9356304066643310E-09
   3.0099462442060130E-09   3.0861433961286265E-09   3.1642694881322902E-09
   3.2443733515674463E-09   3.3265050539560562E-09   3.4107159302854173E-09
   3.4970586150942068E-09   3.5855870753707805E-09   3.6763566442843020E-09
   3.7694240557697536E-09   3.8648474799885103E-09   3.9626865596865950E-09
   4.0630024474732888E-09   4.1658578440435560E-09   4.2713170373679784E-09
   4.3794459428748421E-09   4.4903121446494420E-09   4.6039849376762922E-09
   4.7205353711507912E-09   4.8400362928872466E-09   4.9625623948511529E-09
   5.0881902598440664E-09   5.2169984093703954E-09   5.3490673527158453E-09
   5.4844796372683788E-09   5.6233199001129941E-09   5.7656749209326656E-09
   5.9116336762484692E-09   6.0612873950327989E-09   6.2147296157304379E-09
   6.3720562447231399E-09   6.5333656162742206E-09   6.6987585539906933E-09
   6.8683384338412685E-09   7.0422112487697299E-09   7.2204856749439544E-09
   7.4032731396820481E-09   7.5906878910980474E-09   7.7828470695107002E-09
   7.9798707806599973E-09   8.1818821707771306E-09   8.3890075035549086E-09
   8.6013762390666695E-09   8.8191211146830365E-09   9.0423782280370807E-09
   9.2712871220897868E-09   9.5059908723488953E-09   9.7466361762958038E-09
   9.9933734450762286E-09   1.0246356897512042E-08   1.0505744656493094E-08
   1.0771698847809122E-08   1.1044385701483639E-08   1.1323975655673125E-08
   1.1610643463196401E-08   1.1904568300760807E-08   1.2205933880953477E-08
   1.2514928567067670E-08   1.2831745490835948E-08   1.3156582673143809E-08
   1.3489643147799144E-08   1.3831135088434926E-08   1.4181271938624600E-08
   1.4540272545291153E-08   1.4908361295493568E-08   1.5285768256676061E-08
   1.5672729320467680E-08   1.6069486350122233E-08   1.6476287331690625E-08
   1.6893386529020328E-08   1.7321044642678391E-08   1.7759528972897851E-08
   1.8209113586649011E-08   1.8670079488940223E-08   1.9142714798455094E-08
   1.9627314927636108E-08   2.0124182767326840E-08   2.0633628876088707E-08
   2.1155971674310087E-08   2.1691537643229364E-08   2.2240661528996350E-08
   2.2803686551899434E-08   2.3380964620889448E-08   2.3972856553534111E-08
   2.4579732301540787E-08   2.5201971181988242E-08   2.5839962114412111E-08
   2.6494103863892293E-08   2.7164805290293953E-08   2.7852485603818242E-08
   2.8557574627022283E-08   2.9280513063472132E-08   3.0021752773196863E-08
   3.0781757055115662E-08   3.1561000936614709E-08   3.2359971470454646E-08
   3.3179168039194295E-08   3.4019102667321045E-08   3.4880300341282679E-08
   3.5763299337620722E-08   3.6668651559411131E-08   3.7596922881221041E-08
   3.8548693502799156E-08   3.9524558311719033E-08   4.0525127255203296E-08
   4.1551025721360228E-08   4.2602894930071598E-08   4.3681392333775767E-08
   4.4787192028396943E-08   4.5920985174676660E-08   4.7083480430171704E-08
   4.8275404392187898E-08   4.9497502051927068E-08   5.0750537260130413E-08
   5.2035293204509984E-08   5.3352572899266316E-08   5.4703199686998113E-08
   5.6088017753317997E-08   5.7507892654495807E-08   5.8963711858459198E-08
   6.0456385299489584E-08   6.1986845946960473E-08   6.3556050388473608E-08
   6.5164979427756500E-08   6.6814638697697072E-08   6.8506059288896026E-08
   7.0240298394131916E-08   7.2018439969140735E-08   7.3841595410122997E-08
   7.5710904248402065E-08   7.7627534862668238E-08   7.9592685209252408E-08
   8.1607583570887866E-08   8.3673489324426071E-08   8.5791693727987922E-08
   8.7963520728041466E-08   9.0190327786910718E-08   9.2473506731233319E-08
   9.4814484621897135E-08   9.7214724645998616E-08   9.9675727031381897E-08
   1.0219902998432913E-07   1.0478621065098879E-07   1.0743888610314252E-07
   1.1015871434892648E-07   1.1294739536913991E-07   1.1580667217978727E-07
   1.1873833192151865E-07   1.2174420697665036E-07   1.2482617611446169E-07
   1.2798616566548645E-07   1.3122615072553041E-07   1.3454815639016929E-07
   1.3795425902049828E-07   1.4144658754092312E-07   1.4502732476980642E-07
   1.4869870878379844E-07   1.5246303431670599E-07   1.5632265419377322E-07
   1.6027998080227370E-07   1.6433748759932752E-07   1.6849771065789161E-07
   1.7276325025188465E-07   1.7713677248144114E-07   1.8162101093930858E-07
   1.8621876841942865E-07   1.9093291866877288E-07   1.9576640818352499E-07
   2.0072225805073298E-07   2.0580356583658460E-07   2.1101350752248497E-07
   2.1635533949014223E-07   2.2183240055691042E-07   2.2744811406265543E-07
   2.3320599000944785E-07   2.3910962725542691E-07   2.4516271576419747E-07
   2.5136903891117373E-07   2.5773247584830693E-07   2.6425700392867691E-07
   2.7094670119246089E-07   2.7780574891583723E-07   2.8483843422441062E-07
   2.9204915277280202E-07   2.9944241149206632E-07   3.0702283140666688E-07
   3.1479515052275683E-07   3.2276422678957970E-07   3.3093504113583918E-07
   3.3931270058293203E-07   3.4790244143699414E-07   3.5670963256175332E-07
   3.6573977873423233E-07   3.7499852408540686E-07   3.8449165562795655E-07
   3.9422510687332759E-07   4.0420496154035633E-07   4.1443745735778109E-07
   4.2492898996301094E-07   4.3568611689959372E-07   4.4671556171587965E-07
   4.5802421816744409E-07   4.6961915452588765E-07   4.8150761799672597E-07
   4.9369703924910751E-07   5.0619503706020447E-07   5.1900942307717678E-07
   5.3214820669968735E-07   5.4561960008601362E-07   5.5943202328589067E-07
   5.7359410950329482E-07   5.8811471049244794E-07   6.0300290209042683E-07
   6.1826798988983098E-07   6.3391951505504765E-07   6.4996726028576240E-07
   6.6642125593142952E-07   6.8329178626053383E-07   7.0058939588855861E-07
   7.1832489636867402E-07   7.3650937294926841E-07   7.5515419150254956E-07
   7.7427100562854281E-07   7.9387176393891875E-07   8.1396871752522150E-07
   8.3457442761614405E-07   8.5570177342865245E-07   8.7736396021786109E-07
   8.9957452753068569E-07   9.2234735766843911E-07   9.4569668436365575E-07
   9.6963710167656715E-07   9.9418357311679480E-07   1.0193514409959513E-06
   1.0451564360170073E-06   1.0716146871064098E-06   1.0987427314950870E-06
   1.1265575250546776E-06   1.1550764528953969E-06   1.1843173402321906E-06
   1.2142984635259736E-06   1.2450385619068893E-06   1.2765568488867687E-06
   1.3088730243680649E-06   1.3420072869568014E-06   1.3759803465872290E-06
   1.4108134374660460E-06   1.4465283313443348E-06   1.4831473511254371E-06
   1.5206933848173301E-06   1.5591898998382055E-06   1.5986609576841667E-06
   1.6391312289682653E-06   1.6806260088402206E-06   1.7231712327964953E-06
   1.7667934928905961E-06   1.8115200543537297E-06   1.8573788726362128E-06
   1.9043986108802665E-06   1.9526086578351246E-06   2.0020391462256911E-06
   2.0527209715861280E-06   2.1046858115702745E-06   2.1579661457508551E-06
   2.2125952759199088E-06   2.2686073469031340E-06   2.3260373679010808E-06
   2.3849212343706637E-06   2.4452957504605269E-06   2.5071986520143755E-06
   2.5706686301566369E-06   2.6357453554751384E-06   2.7024695028159952E-06
   2.7708827767061453E-06   2.8410279374194422E-06   2.9129488277025989E-06
   2.9866904001776631E-06   3.0622987454381967E-06   3.1398211208566675E-06
   3.2193059801210663E-06   3.3008030035192793E-06   3.3843631289899899E-06
   3.4700385839597092E-06   3.5578829179856664E-06   3.6479510362250354E-06
   3.7402992337514619E-06   3.8349852307401803E-06   3.9320682085438907E-06
   4.0316088466818630E-06   4.1336693607652940E-06   4.2383135413828407E-06
   4.3456067939703685E-06   4.4556161796900495E-06   4.5684104573442269E-06
   4.6840601263502906E-06   4.8026374708034516E-06   4.9242166046547860E-06
   5.0488735180330757E-06   5.1766861247391099E-06   5.3077343109422777E-06
   5.4420999851098646E-06   5.5798671292001727E-06   5.7211218511516468E-06
   5.8659524387005165E-06   6.0144494145609902E-06   6.1667055930019296E-06
   6.3228161378559770E-06   6.4828786219968981E-06   6.6469930883225768E-06
   6.8152621122817109E-06   6.9877908659831143E-06   7.1646871839280525E-06
   7.3460616304062588E-06   7.5320275685980799E-06   7.7227012314258023E-06
   7.9182017941983516E-06   8.1186514490949035E-06   8.3241754815339503E-06
   8.5349023484752726E-06   8.7509637587042721E-06   8.9724947551481628E-06
   9.1996337992760737E-06   9.4325228576354214E-06   9.6713074905786903E-06
   9.9161369432363354E-06   1.0167164238792003E-05   1.0424546274119178E-05
   1.0688443917838420E-05   1.0959022110856580E-05   1.1236449969451140E-05
   1.1520900890963420E-05   1.1812552662167407E-05   1.2111587570381520E-05
   1.2418192517392707E-05   1.2732559136264357E-05   1.3054883911100522E-05
   1.3385368299841762E-05   1.3724218860169209E-05   1.4071647378595014E-05
   1.4427871002820835E-05   1.4793112377445855E-05   1.5167599783110116E-05
   1.5551567279159638E-05   1.5945254849922263E-05   1.6348908554686306E-05
   1.6762780681474652E-05   1.7187129904711449E-05   1.7622221446879234E-05
   1.8068327244267465E-05   1.8525726116916668E-05   1.8994703942863075E-05
   1.9475553836794157E-05   1.9968576333225365E-05   2.0474079574313282E-05
   2.0992379502422080E-05   2.1523800057563721E-05   2.2068673379835124E-05
   2.2627340016979133E-05   2.3200149137198130E-05   2.3787458747354182E-05
   2.4389635916691006E-05   2.5007057006218417E-05   2.5640107903901894E-05
   2.6289184265804172E-05   2.6954691763329921E-05   2.7637046336727417E-05
   2.8336674455005572E-05   2.9054013382429151E-05   2.9789511451757623E-05
   3.0543628344399531E-05   3.1316835377656098E-05   3.2109615799233946E-05
   3.2922465089211143E-05   3.3755891269644728E-05   3.4610415222012551E-05
   3.5486571012689516E-05   3.6384906226657947E-05   3.7305982309664745E-05
   3.8250374919035069E-05   3.9218674283364227E-05   4.0211485571310928E-05
   4.1229429269722024E-05   4.2273141571326331E-05   4.3343274772237015E-05
   4.4440497679513250E-05   4.5565496029033754E-05   4.6718972913943076E-05
   4.7901649223939997E-05   4.9114264095678870E-05   5.0357575374568078E-05
   5.1632360088252655E-05   5.2939414932074772E-05   5.4279556766818630E-05
   5.5653623129047111E-05   5.7062472754349716E-05   5.8506986113829779E-05
   5.9988065964161659E-05   6.1506637911566036E-05   6.3063650990051174E-05
   6.4660078254282687E-05   6.6296917387452127E-05   6.7975191324520841E-05
   6.9695948891231326E-05   7.1460265459281683E-05   7.3269243618073556E-05
   7.5124013863452061E-05   7.7025735303865771E-05   7.8975596384388999E-05
   8.0974815629057120E-05   8.3024642401976595E-05   8.5126357687686569E-05
   8.7281274891254568E-05   8.9490740658610166E-05   9.1756135717623209E-05
   9.4078875740452733E-05   9.6460412227706012E-05   9.8902233414952374E-05
   1.0140586520216494E-04   1.0397287210666281E-04   1.0660485824014923E-04
   1.0930346831045774E-04   1.1207038864862240E-04   1.1490734826192130E-04
   1.1781611991354079E-04   1.2079852122953872E-04   1.2385641583379238E-04
   1.2699171451163851E-04   1.3020637640293018E-04   1.3350241022525410E-04
   1.3688187552806665E-04   1.4034688397853223E-04   1.4389960067986158E-04
   1.4754224552297285E-04   1.5127709457231285E-04   1.5510648148670420E-04
   1.5903279897609991E-04   1.6305850029514895E-04   1.6718610077450809E-04
   1.7141817939084525E-04   1.7575738037651318E-04   1.8020641486989682E-04
   1.8476806260745040E-04   1.8944517365848852E-04   1.9424067020379801E-04
   1.9915754835918268E-04   2.0419888004506791E-04   2.0936781490333030E-04
   2.1466758226253865E-04   2.2010149315283175E-04   2.2567294237167468E-04
   2.3138541060178591E-04   2.3724246658253945E-04   2.4324776933619529E-04
   2.4940507045033807E-04   2.5571821641793299E-04   2.6219115103646231E-04
   2.6882791786761093E-04   2.7563266275904593E-04   2.8260963642983436E-04
   2.8976319712111187E-04   2.9709781331364356E-04   3.0461806651394354E-04
   3.1232865411070317E-04   3.2023439230327550E-04   3.2834021910403325E-04
   3.3665119741646267E-04   3.4517251819088531E-04   3.5390950365976810E-04
   3.6286761065461916E-04   3.7205243400651117E-04   3.8146971003234315E-04
   3.9112532010898319E-04   4.0102529433750310E-04   4.1117581529977079E-04
   4.2158322190969722E-04   4.3225401336154817E-04   4.4319485317770790E-04
   4.5441257335843388E-04   4.6591417863612889E-04   4.7770685083675820E-04
   4.8979795335110220E-04   5.0219503571858519E-04   5.1490583832650117E-04
   5.2793829722753559E-04   5.4130054907852601E-04   5.5500093620351363E-04
   5.6904801178417330E-04   5.8345054518082085E-04   5.9821752738726370E-04
   6.1335817662282156E-04   6.2888194406496593E-04   6.4479851972606614E-04
   6.6111783847785466E-04   6.7785008622729833E-04   6.9500570624762934E-04
   7.1259540566843992E-04   7.3063016212876789E-04   7.4912123059725771E-04
   7.6808015036354917E-04   7.8751875220515652E-04   8.0744916573419971E-04
   8.2788382692846327E-04   8.4883548585136558E-04   8.7031721456553245E-04
   8.9234241524477538E-04   9.1492482848941055E-04   9.3807854184995050E-04
   9.6181799856433475E-04   9.8615800651401025E-04   1.0111137474042495E-03
   1.0367007861742967E-03   1.0629350806429781E-03   1.0898329913956396E-03
   1.1174112919183632E-03   1.1456871789855478E-03   1.1746782833071368E-03
   1.2044026804418646E-03   1.2348789019831076E-03   1.2661259470240209E-03
   1.2981632939088649E-03   1.3310109122775346E-03   1.3646892754104925E-03
   1.3992193728815062E-03   1.4346227235257170E-03   1.4709213887307828E-03
   1.5081379860589900E-03   1.5462957032084518E-03   1.5854183123216535E-03
   1.6255301846498770E-03   1.6666563055821283E-03   1.7088222900475030E-03
   1.7520543983000393E-03   1.7963795520953994E-03   1.8418253512688875E-03
   1.8884200907245260E-03   1.9361927778452038E-03   1.9851731503340293E-03
   2.0353916944973794E-03   2.0868796639802812E-03   2.1396690989650439E-03
   2.1937928458443208E-03   2.2492845773799831E-03   2.3061788133595298E-03
   2.3645109417619382E-03   2.4243172404451794E-03   2.4856348993678545E-03
   2.5485020433577681E-03   2.6129577554404016E-03   2.6790421007407295E-03
   2.7467961509718957E-03   2.8162620095247772E-03   2.8874828371725932E-03
   2.9605028784051445E-03   3.0353674884075529E-03   3.1121231606986710E-03
   3.1908175554446598E-03   3.2714995284635813E-03   3.3542191609372187E-03
   3.4390277898465869E-03   3.5259780391480758E-03   3.6151238517073683E-03
   3.7065205220087696E-03   3.8002247296578993E-03   3.8962945736960020E-03
   3.9947896077446405E-03   4.0957708759997730E-03   4.1993009500946813E-03
   4.3054439668515953E-03   4.4142656669422754E-03   4.5258334344780776E-03
   4.6402163375506861E-03   4.7574851697447232E-03   4.8777124926443509E-03
   5.0009726793558548E-03   5.1273419590690851E-03   5.2568984626806875E-03
   5.3897222695027365E-03   5.5258954550807121E-03   5.6655021401450130E-03
   5.8086285407210701E-03   5.9553630194230343E-03   6.1057961379567824E-03
   6.2600207108583399E-03   6.4181318604942224E-03   6.5802270733505809E-03
   6.7464062576385615E-03   6.9167718022436833E-03   7.0914286370473961E-03
   7.2704842946495485E-03   7.4540489735207410E-03   7.6422356026140783E-03
   7.8351599074660983E-03   8.0329404778173765E-03   8.2356988367831615E-03
   8.4435595116053360E-03   8.6566501060171049E-03   8.8751013742519314E-03
   9.0990472967292912E-03   9.3286251574491649E-03   9.5639756231287055E-03
   9.8052428241135661E-03   1.0052574437097549E-02   1.0306121769684333E-02
   1.0566039846824788E-02   1.0832487499164394E-02   1.1105627453334783E-02
   1.1385626424223787E-02   1.1672655209259019E-02   1.1966888784739020E-02
   1.2268506404247368E-02   1.2577691699184154E-02   1.2894632781449396E-02
   1.3219522348313755E-02   1.3552557789510408E-02   1.3893941296582897E-02
   1.4243879974523258E-02   1.4602585955733875E-02   1.4970276516347296E-02
   1.5347174194936572E-02   1.5733506913649439E-02   1.6129508101798133E-02
   1.6535416821936055E-02   1.6951477898453447E-02   1.7377942048720101E-02
   1.7815066016805589E-02   1.8263112709805469E-02   1.8722351336797977E-02
   1.9193057550460798E-02   1.9675513591368467E-02   2.0170008434995015E-02
   2.0676837941444315E-02   2.1196305007924212E-02   2.1728719723985785E-02
   2.2274399529540211E-02   2.2833669375667043E-02   2.3406861888226684E-02
   2.3994317534281051E-02   2.4596384791331513E-02   2.5213420319373760E-02
   2.5845789135768384E-02   2.6493864792924687E-02   2.7158029558785404E-02
   2.7838674600102847E-02   2.8536200168488037E-02   2.9251015789210348E-02
   2.9983540452723220E-02   3.0734202808881096E-02   3.1503441363812799E-02
   3.2291704679404828E-02   3.3099451575346883E-02   3.3927151333681488E-02
   3.4775283905794041E-02   3.5644340121770590E-02   3.6534821902045544E-02
   3.7447242471247727E-02   3.8382126574150174E-02   3.9340010693613203E-02
   4.0321443270406661E-02   4.1326984924778883E-02   4.2357208679635321E-02
   4.3412700185174416E-02   4.4494057944812634E-02   4.5601893542226837E-02
   4.6736831869313190E-02   4.7899511354861458E-02   4.9090584193718700E-02
   5.0310716576199531E-02   5.1560588917492253E-02   5.2840896086775287E-02
   5.4152347635755063E-02   5.5495668026308169E-02   5.6871596856884241E-02
   5.8280889087319009E-02   5.9724315261663601E-02   6.1202661728625263E-02
   6.2716730859188274E-02   6.4267341260941635E-02   6.5855327988634110E-02
   6.7481542750426671E-02   6.9146854109288836E-02   7.0852147678962099E-02
   7.2598326313854544E-02   7.4386310292222979E-02   7.6217037491939671E-02
   7.8091463558109406E-02   8.0010562061767085E-02   8.1975324648826522E-02
   8.3986761178425975E-02   8.6045899849753429E-02   8.8153787316391216E-02
   9.0311488787174377E-02   9.2520088112491031E-02   9.4780687854909493E-02
   9.7094409342956697E-02   9.9462392706803640E-02   1.0188579689456809E-01
   1.0436579966786443E-01   1.0690359757517286E-01   1.0950040590152900E-01
   1.1215745859295881E-01   1.1487600815401863E-01   1.1765732551671049E-01
   1.2050269987897910E-01   1.2341343851089591E-01   1.2639086652656933E-01
   1.2943632661972218E-01   1.3255117876078368E-01   1.3573679985327228E-01
   1.3899458334711509E-01   1.4232593880648814E-01   1.4573229142964023E-01
   1.4921508151806015E-01   1.5277576389226299E-01   1.5641580725133006E-01
   1.6013669347326132E-01   1.6393991685307321E-01   1.6782698327545040E-01
   1.7179940931867707E-01   1.7585872128642091E-01   1.8000645416384892E-01
   1.8424415049444479E-01   1.8857335917373791E-01   1.9299563415609527E-01
   1.9751253307055500E-01   2.0212561574158841E-01   2.0683644261058154E-01
   2.1164657305365150E-01   2.1655756359137446E-01   2.2157096598584172E-01
   2.2668832522036367E-01   2.3191117735707140E-01   2.3724104726752121E-01
   2.4267944623135571E-01   2.4822786939798747E-01   2.5388779310616671E-01
   2.5966067205628179E-01   2.6554793633014084E-01   2.7155098825296320E-01
   2.7767119909228977E-01   2.8390990558847473E-01   2.9026840631147399E-01
   2.9674795783862129E-01   3.0334977074815789E-01   3.1007500542333577E-01
   3.1692476766199701E-01   3.2390010408667258E-01   3.3100199735036739E-01
   3.3823136113339303E-01   3.4558903492680787E-01   3.5307577859831468E-01
   3.6069226673668986E-01   3.6843908277123905E-01   3.7631671286309515E-01
   3.8432553956562115E-01   3.9246583525172007E-01   4.0073775530631506E-01
   4.0914133108295153E-01   4.1767646262412417E-01   4.2634291114563844E-01
   4.3514029128621945E-01   4.4406806312440988E-01   4.5312552396579880E-01
   4.6231179990475824E-01   4.7162583716590029E-01   4.8106639323189343E-01
   4.9063202776548970E-01   5.0032109333516983E-01   5.1013172595540701E-01
   5.2006183545415452E-01   5.3010909568209064E-01   5.4027093457999920E-01
   5.5054452412276711E-01   5.6092677016068915E-01   5.7141430218103828E-01
   5.8200346301536399E-01   5.9269029852055477E-01   6.0347054726440363E-01
   6.1433963024932203E-01   6.2529264071079327E-01   6.3632433403030775E-01
   6.4742911780576040E-01   6.5860104212566628E-01   6.6983379009704802E-01
   6.8112066868041232E-01   6.9245459988896485E-01   7.0382811241293697E-01
   7.1523333373378839E-01   7.2666198279691874E-01   7.3810536331541998E-01
   7.4955435778141755E-01   7.6099942226534312E-01   7.7243058208748505E-01
   7.8383742844985482E-01   7.9520911612011758E-01   8.0653436226289588E-01
   8.1780144651699205E-01   8.2899821242025129E-01   8.4011207028649704E-01
   8.5113000164138142E-01   8.6203856532610867E-01   8.7282390537933485E-01
   8.8347176080868217E-01   8.9396747736359106E-01   9.0429602142080689E-01
   9.1444199609283638E-01   9.2438965966749309E-01   9.3412294648384353E-01
   9.4362549034582488E-01   9.5288065056958327E-01   9.6187154075433812E-01
   9.7058106035877856E-01   9.7899192915593503E-01   9.8708672462889357E-01
   9.9484792235745856E-01   1.0022579394320710E+00   1.0092991809156688E+00
   1.0159540893567442E+00   1.0222051973376627E+00   1.0280351830210490E+00
   1.0334269286340307E+00   1.0383635818050660E+00   1.0428286196411072E+00
   1.0468059154040485E+00   1.0502798076146513E+00   1.0532351713797377E+00
   1.0556574917043258E+00   1.0575329385148029E+00   1.0588484430823157E+00
   1.0595917754975790E+00   1.0597516228094324E+00   1.0593176674000975E+00
   1.0582806651304997E+00   1.0566325227495661E+00   1.0543663740226366E+00
   1.0514766539963201E+00   1.0479591707809965E+00   1.0438111741981224E+00
   1.0390314206081841E+00   1.0336202332072608E+00   1.0275795570562130E+00
   1.0209130080874766E+00   1.0136259153207317E+00   1.0057253555113723E+00
   9.9722017945543528E-01   9.8812102918205169E-01   9.7844034528085644E-01
   9.6819236363737959E-01   9.5739310088555907E-01   9.4606032793377204E-01
   9.3421353097989901E-01   9.2187385950306666E-01   9.0906406080521018E-01
   8.9580840077544999E-01   8.8213257066529238E-01   8.6806357979298321E-01
   8.5362963424214799E-01   8.3886000178305731E-01   8.2378486342484292E-01
   8.0843515220426199E-01   7.9284238003015894E-01   7.7703845363310853E-01
   7.6105548091522646E-01   7.4492556925471465E-01   7.2868061759174307E-01
   7.1235210440334273E-01   6.9597087396237634E-01   6.7956692356423642E-01
   6.6316919468906266E-01   6.4680537134015847E-01   6.3050168905171489E-01
   6.1428275828114609E-01   5.9817140607609054E-01   5.8218853999807008E-01
   5.6635303830943251E-01   5.5068167040401117E-01   5.3518905131221339E-01
   5.1988763382417058E-01   5.0478774133577764E-01   4.8989764391132345E-01
   4.7522367925273562E-01   4.6077041925169304E-01   4.4654088156251209E-01
   4.3253678416169500E-01   4.1875883915203277E-01   4.0520708013129997E-01
   3.9188121529517633E-01   3.7878099610050076E-01   3.6590658840136392E-01
   3.5325893070312681E-01   3.4084006486781582E-01   3.2865341436876488E-01
   3.1670373507380539E-01   3.0499594268606101E-01   2.9353443579766486E-01
   2.8232308382510657E-01   2.7136523238925853E-01   2.6066371114350417E-01
   2.5022084337498168E-01   2.4003845738648885E-01   2.3011789961693446E-01
   2.2046004939258979E-01   2.1106533513579456E-01   2.0193375180000822E-01
   1.9306487925706756E-01   1.8445790133878212E-01   1.7611162523343907E-01
   1.6802450095730972E-01   1.6019464065852004E-01   1.5261983756048350E-01
   1.4529758440769230E-01   1.3822509133222260E-01   1.3139930310935513E-01
   1.2481691581162907E-01   1.1847439290074349E-01   1.1236798081546365E-01
   1.0649372412232117E-01   1.0084748029611786E-01   9.5424934191184529E-02
   9.0221612254346689E-02   8.5232896518356444E-02   8.0454038401862785E-02
   7.5880172329874068E-02   7.1506329177842179E-02   6.7327449533417669E-02
   6.3338396762635626E-02   5.9533969861838336E-02   5.5908916072771715E-02
   5.2457943235861781E-02   4.9175731855391751E-02   4.6056946849962484E-02
   4.3096248961996542E-02   4.0288305800965499E-02   3.7627802496345085E-02
   3.5109451937906509E-02   3.2728004582732360E-02   3.0478257810284324E-02
   2.8355064808827646E-02   2.6353342978573235E-02   2.4468081838974282E-02
   2.2694350429682535E-02   2.1027304196782594E-02   1.9462191358007599E-02
   1.7994358742744108E-02   1.6619257104767526E-02   1.5332445907754072E-02
   1.4129597585788503E-02   1.3006501283238936E-02   1.1959066080561468E-02
   1.0983323714803300E-02   1.0075430805759877E-02   9.2316706009295899E-03
   8.4484542545308853E-03   7.7223216578754753E-03   7.0499418402936512E-03
   6.4281129614894078E-03   5.8537619176704907E-03   5.3239435849007314E-03
   4.8358397239390690E-03   4.3867575712306078E-03   3.9741281407303609E-03
   3.5955042609046714E-03   3.2485583705880953E-03   2.9310800964444145E-03
   2.6409736336799683E-03   2.3762549504614378E-03   2.1350488352958716E-03
   1.9155858055104240E-03   1.7161988939816129E-03   1.5353203304500423E-03
   1.3714781331255874E-03   1.2232926258334670E-03   1.0894728956452307E-03
   9.6881320574004524E-04   8.6018937810249129E-04   7.6255516053484003E-04
   6.7493859229820379E-04   5.9643838245921829E-04   5.2622031467954098E-04
   4.6351369172359781E-04   4.0760783236860703E-04   3.5784863268155007E-04
   3.1363520278715544E-04   2.7441658930664426E-04   2.3968859261593565E-04
   2.0899068697675030E-04   1.8190305045770382E-04   1.5804371040599821E-04
   1.3706580907621850E-04   1.1865499289014786E-04   1.0252692770614285E-04
   8.8424941434765965E-05   7.6117794359183795E-05   6.5397576614376659E-05
   5.6077731454875387E-05   4.7991202200671288E-05   4.0988700097893721E-05
   3.4937089764813571E-05   2.9717888413811773E-05   2.5225874643181537E-05
   2.1367802276076255E-05   1.8061214481769241E-05   1.5233353242195079E-05
   1.2820159118116973E-05   1.0765356218133273E-05   9.0196172736124492E-06
   7.5398037673208273E-06   6.2882761466867193E-06   5.2322692684756511E-06
   4.3433283646967790E-06   3.5968009843556613E-06   2.9713805482852106E-06
   2.4486973496910594E-06   2.0129530382300488E-06   1.6505948368247458E-06
   1.3500259552557862E-06   1.1013488804145335E-06   8.9613843783424918E-07
   7.2724173095262500E-07   5.8860227196689631E-07   4.7510581987016600E-07
   3.8244563615455062E-07   3.0700505604182681E-07   2.4575545205806656E-07
   1.9616783692126729E-07   1.5613651362028299E-07   1.2391333198072256E-07
   9.8051252810162142E-08   7.7356052868265242E-08   6.0845126491291425E-08
   4.7712452877412819E-08   3.7298902053096033E-08   2.9067147677848504E-08
   2.2580541494870716E-08   1.7485382768969594E-08   1.3496086923173321E-08
   1.0382821253563776E-08   7.9612325388322228E-09   6.0839420539741692E-09
   4.6335284299240177E-09   3.5167584506960618E-09   2.6598607128958096E-09
   2.0046675395500986E-09   1.5054770689891839E-09   1.1265104395306891E-09
   8.3985884195583241E-10   6.2383226852168554E-10   4.6163638040242039E-10
   3.4031634383351287E-10   2.4991702355723580E-10   1.8281781800464479E-10
   1.3320789646896490E-10   9.6673852842000343E-11   6.9876999385195369E-11
   5.0301842557417260E-11   3.6060847074458334E-11   2.5743522302748657E-11
   1.8300268959075835E-11
       </PP_GIPAW_WFS_PS>
     </PP_GIPAW_ORBITAL.2>
     <PP_GIPAW_ORBITAL.3 index="3" label="3D" l="2" cutoff_radius="  1.91073068577946" ultrasoft_cutoff_radius="  1.91073068577946">
       <PP_GIPAW_WFS_AE size="1078">
   0.0000000000000000E+00   3.2913122421830989E-12   3.3998172256531087E-12
   3.5120470906191035E-12   3.6281326863700250E-12   3.7482034653884320E-12
   3.8723918485818308E-12   4.0008347649859346E-12   4.1336738520748896E-12
   4.2710556153769019E-12   4.4131315914270459E-12   4.5600585166265523E-12
   4.7119985019745868E-12   4.8691192138392007E-12   5.0315940609705583E-12
   5.1996023879685873E-12   5.3733296754248941E-12   5.5529677469662814E-12
   5.7387149834351411E-12   5.9307765444502982E-12   6.1293645976002584E-12
   6.3346985555295461E-12   6.5470053211883010E-12   6.7665195415239258E-12
   6.9934838699042060E-12   7.2281492375707090E-12   7.4707751344319627E-12
   7.7216298995167884E-12   7.9809910214189272E-12   8.2491454490761895E-12
   8.5263899132387659E-12   8.8130312589940333E-12   9.1093867897279076E-12
   9.4157846229159156E-12   9.7325640581510170E-12   1.0060075957829301E-11
   1.0398683140929255E-11   1.0748760790336001E-11   1.1110696874176458E-11
   1.1484892581649461E-11   1.1871762773849609E-11   1.2271736450103004E-11
   1.2685257230349773E-11   1.3112783854127208E-11   1.3554790696727648E-11
   1.4011768303123371E-11   1.4484223940273812E-11   1.4972682168449737E-11
   1.5477685432232701E-11   1.5999794671870535E-11   1.6539589955693206E-11
   1.7097671134318923E-11   1.7674658517404801E-11   1.8271193573723570E-11
   1.8887939655375353E-11   1.9525582746970897E-11   2.0184832240653196E-11
   2.0866421737854503E-11   2.1571109878716149E-11   2.2299681200133218E-11
   2.3052947023418468E-11   2.3831746372614402E-11   2.4636946924521055E-11
   2.5469445991541368E-11   2.6330171538487767E-11   2.7220083234532232E-11
   2.8140173541523067E-11   2.9091468839938679E-11   3.0075030593787701E-11
   3.1091956555815519E-11   3.2143382014424808E-11   3.3230481083764384E-11
   3.4354468038496472E-11   3.5516598694801863E-11   3.6718171839242090E-11
   3.7960530707149125E-11   3.9245064512280037E-11   4.0573210029527472E-11
   4.1946453232547905E-11   4.3366330988229139E-11   4.4834432809992951E-11
   4.6352402671993443E-11   4.7921940886351611E-11   4.9544806045636207E-11
   5.1222817032885460E-11   5.2957855101540129E-11   5.4751866027750387E-11
   5.6606862337598164E-11   5.8524925611872713E-11   6.0508208871131749E-11
   6.2558939043874555E-11   6.4679419520754912E-11   6.6872032797869953E-11
   6.9139243212266451E-11   7.1483599772915521E-11   7.3907739090532113E-11
   7.6414388409724165E-11   7.9006368747093494E-11   8.1686598139028516E-11
   8.4458095003072114E-11   8.7323981616881735E-11   9.0287487718944374E-11
   9.3351954235357270E-11   9.6520837137143306E-11   9.9797711432723702E-11
   1.0318627530034315E-10   1.0669035436541036E-10   1.1031390612789896E-10
   1.1406102454513096E-10   1.1793594477546631E-10   1.2194304808861407E-10
   1.2608686694848560E-10   1.3037209027472642E-10   1.3480356888928436E-10
   1.3938632115459430E-10   1.4412553881020683E-10   1.4902659301492112E-10
   1.5409504060175259E-10   1.5933663055331052E-10   1.6475731070545720E-10
   1.7036323468737431E-10   1.7616076910649595E-10   1.8215650098702015E-10
   1.8835724547108535E-10   1.9477005379196760E-10   2.0140222152904374E-10
   2.0826129715457499E-10   2.1535509088276618E-10   2.2269168383190038E-10
   2.3027943751077044E-10   2.3812700364100732E-10   2.4624333432734917E-10
   2.5463769258831473E-10   2.6331966326020434E-10   2.7229916428781717E-10
   2.8158645841576607E-10   2.9119216529476491E-10   3.0112727401778944E-10
   3.1140315610156156E-10   3.2203157892936031E-10   3.3302471967173703E-10
   3.4439517970234123E-10   3.5615599952666405E-10   3.6832067424216037E-10
   3.8090316954889851E-10   3.9391793833056682E-10   4.0737993782638988E-10
   4.2130464741527577E-10   4.3570808703426878E-10   4.5060683625420394E-10
   4.6601805403629667E-10   4.8195949919424844E-10   4.9844955158738279E-10
   5.1550723407121876E-10   5.3315223523289300E-10   5.5140493293980602E-10
   5.7028641873094951E-10   5.8981852308140739E-10   6.1002384157167571E-10
   6.3092576199459730E-10   6.5254849243387502E-10   6.7491709034943681E-10
   6.9805749270616775E-10   7.2199654718388069E-10   7.4676204450780285E-10
   7.7238275194026527E-10   7.9888844797581774E-10   8.2630995828350463E-10
   8.5467919294167481E-10   8.8402918501234752E-10   9.1439413050390310E-10
   9.4580942977264549E-10   9.7831173041565966E-10   1.0119389717092936E-09
   1.0467304306496489E-09   1.0827267696534543E-09   1.1199700859799508E-09
   1.1585039629365654E-09   1.1983735229335115E-09   1.2396254824548536E-09
   1.2823082090160581E-09   1.3264717801806256E-09   1.3721680447111120E-09
   1.4194506859325954E-09   1.4683752873895408E-09   1.5189994008800329E-09
   1.5713826169543790E-09   1.6255866379684000E-09   1.6816753537849885E-09
   1.7397149202209740E-09   1.7997738403400327E-09   1.8619230486959507E-09
   1.9262359986345086E-09   1.9927887527662856E-09   2.0616600767267401E-09
   2.1329315363443330E-09   2.2066875983418834E-09   2.2830157347009866E-09
   2.3620065308241873E-09   2.4437537976344826E-09   2.5283546877570847E-09
   2.6159098159335308E-09   2.7065233838240014E-09   2.8003033093593296E-09
   2.8973613608103172E-09   2.9978132957480657E-09   3.1017790050755853E-09
   3.2093826623175374E-09   3.3207528783620746E-09   3.4360228618556906E-09
   3.5553305854597643E-09   3.6788189581849369E-09   3.8066360040277239E-09
   3.9389350471420510E-09   4.0758749037868628E-09   4.2176200813003355E-09
   4.3643409843600467E-09   4.5162141287984636E-09   4.6734223632531048E-09
   4.8361550989408094E-09   5.0046085478567669E-09   5.1789859697098695E-09
   5.3594979279175029E-09   5.5463625549952050E-09   5.7398058276888384E-09
   5.9400618522099441E-09   6.1473731599485792E-09   6.3619910140513003E-09
   6.5841757272674855E-09   6.8141969914807426E-09   7.0523342193590603E-09
   7.2988768985727339E-09   7.5541249590458208E-09   7.8183891537249052E-09
   8.0919914533660084E-09   8.3752654558600750E-09   8.6685568106363457E-09
   8.9722236587028683E-09   9.2866370889051828E-09   9.6121816110044952E-09
   9.9492556462004797E-09   1.0298272035745976E-08   1.0659658568325952E-08
   1.1033858526897579E-08   1.1421331255714378E-08   1.1822552748284489E-08
   1.2238016257041265E-08   1.2668232925532653E-08   1.3113732443967273E-08
   1.3575063728984651E-08   1.4052795628551139E-08   1.4547517652915434E-08
   1.5059840732592975E-08   1.5590398004384921E-08   1.6139845626474238E-08
   1.6708863623681037E-08   1.7298156763999287E-08   1.7908455467578691E-08
   1.8540516749360263E-08   1.9195125196616779E-08   1.9873093982698663E-08
   2.0575265918332815E-08   2.1302514541871887E-08   2.2055745249945785E-08
   2.2835896470018328E-08   2.3643940876410380E-08   2.4480886651409036E-08
   2.5347778793140200E-08   2.6245700471948857E-08   2.7175774437092035E-08
   2.8139164475619585E-08   2.9137076925387954E-08   3.0170762244221499E-08
   3.1241516637316193E-08   3.2350683745053924E-08   3.3499656393478804E-08
   3.4689878409772036E-08   3.5922846505144768E-08   3.7200112227664931E-08
   3.8523283987621055E-08   3.9894029158128464E-08   4.1314076253782334E-08
   4.2785217190264553E-08   4.4309309627923794E-08   4.5888279402458030E-08
   4.7524123045944475E-08   4.9218910401587780E-08   5.0974787335675100E-08
   5.2793978550365893E-08   5.4678790501071593E-08   5.6631614422323742E-08
   5.8654929466177088E-08   6.0751305957336721E-08   6.2923408769364908E-08
   6.5174000826477388E-08   6.7505946735609044E-08   6.9922216553607048E-08
   7.2425889694582737E-08   7.5020158982649417E-08   7.7708334855461273E-08
   8.0493849724172023E-08   8.3380262495645108E-08   8.6371263262954894E-08
   8.9470678170454585E-08   9.2682474459910814E-08   9.6010765704449211E-08
   9.9459817237311345E-08   1.0303405178267302E-07   1.0673805529605334E-07
   1.1057658302212157E-07   1.1455456577798999E-07   1.1867711647039932E-07
   1.2294953685549397E-07   1.2737732455022720E-07   1.3196618030475816E-07
   1.3672201554555537E-07   1.4165096019928686E-07   1.4675937080793599E-07
   1.5205383894598957E-07   1.5754119995093271E-07   1.6322854197870151E-07
   1.6912321539618956E-07   1.7523284252333385E-07   1.8156532773778991E-07
   1.8812886795566728E-07   1.9493196350231893E-07   2.0198342938766486E-07
   2.0929240700110534E-07   2.1686837624160222E-07   2.2472116809909858E-07
   2.3286097770405178E-07   2.4129837786245028E-07   2.5004433309436400E-07
   2.5911021419470501E-07   2.6850781333559760E-07   2.7824935973046115E-07
   2.8834753588063259E-07   2.9881549442616979E-07   3.0966687562323052E-07
   3.2091582547126096E-07   3.3257701451411506E-07   3.4466565734005583E-07
   3.5719753280656954E-07   3.7018900501684293E-07   3.8365704507574286E-07
   3.9761925365419920E-07   4.1209388439188576E-07   4.2709986816927927E-07
   4.4265683828125346E-07   4.5878515654556667E-07   4.7550594038085629E-07
   4.9284109088995681E-07   5.1081332198576496E-07   5.2944619059815637E-07
   5.4876412800192228E-07   5.6879247230715285E-07   5.8955750215497488E-07
   6.1108647166319536E-07   6.3340764666796821E-07   6.5655034230930547E-07
   6.8054496201004849E-07   7.0542303789964860E-07   7.3121727273607063E-07
   7.5796158338102016E-07   7.8569114588571918E-07   8.1444244224660040E-07
   8.4425330889234269E-07   8.7516298696605038E-07   9.0721217446860063E-07
   9.4044308033160167E-07   9.7489948049099323E-07   1.0106267760347047E-06
   1.0476720535007272E-06   1.0860841474044725E-06   1.1259137050773366E-06
   1.1672132539012654E-06   1.2100372710272444E-06   1.2544422556687760E-06
   1.3004868040648142E-06   1.3482316872098540E-06   1.3977399314526736E-06
   1.4490769020686089E-06   1.5023103899143192E-06   1.5575107012776967E-06
   1.6147507510397878E-06   1.6741061592697849E-06   1.7356553513784644E-06
   1.7994796619599991E-06   1.8656634424567980E-06   1.9342941727867541E-06
   2.0054625770774457E-06   2.0792627436568802E-06   2.1557922494558366E-06
   2.2351522889824375E-06   2.3174478080352656E-06   2.4027876423273219E-06
   2.4912846611994207E-06   2.5830559166076776E-06   2.6782227975768375E-06
   2.7769111903175160E-06   2.8792516442129085E-06   2.9853795438876332E-06
   3.0954352875789020E-06   3.2095644720383914E-06   3.3279180842007666E-06
   3.4506526998637613E-06   3.5779306896329838E-06   3.7099204323937554E-06
   3.8467965365817586E-06   3.9887400695334199E-06   4.1359387952074916E-06
   4.2885874205791389E-06   4.4468878510184846E-06   4.6110494549770385E-06
   4.7812893383161867E-06   4.9578326286240824E-06   5.1409127698794864E-06
   5.3307718278331639E-06   5.5276608064913671E-06   5.7318399760984380E-06
   5.9435792130300494E-06   6.1631583520229972E-06   6.3908675511817104E-06
   6.6270076702179766E-06   6.8718906623953353E-06   7.1258399806666101E-06
   7.3891909985098606E-06   7.6622914459851540E-06   7.9455018615536227E-06
   8.2391960602178420E-06   8.5437616185628480E-06   8.8596003772966426E-06
   9.1871289619094517E-06   9.5267793220932831E-06   9.8789992905840736E-06
   1.0244253162112407E-05   1.0623022293172337E-05   1.1015805723340723E-05
   1.1423120818907137E-05   1.1845503939597391E-05   1.2283511129202601E-05
   1.2737718830952604E-05   1.3208724628500083E-05   1.3697148013413320E-05
   1.4203631180103396E-05   1.4728839849145070E-05   1.5273464119981458E-05
   1.5838219354036545E-05   1.6423847089294293E-05   1.7031115987438336E-05
   1.7660822814682234E-05   1.8313793457459823E-05   1.8990883974181864E-05
   1.9692981684307771E-05   2.0421006296020861E-05   2.1175911073839235E-05
   2.1958684047538559E-05   2.2770349263807458E-05   2.3611968082105176E-05
   2.4484640516237069E-05   2.5389506623214900E-05   2.6327747941020401E-05
   2.7300588976940881E-05   2.8309298748204868E-05   2.9355192376696820E-05
   3.0439632739591676E-05   3.1564032177807115E-05   3.2729854264233948E-05
   3.3938615633768234E-05   3.5191887877233618E-05   3.6491299501348127E-05
   3.7838537956961718E-05   3.9235351737857556E-05   4.0683552552487153E-05
   4.2185017571082173E-05   4.3741691750662584E-05   4.5355590240543970E-05
   4.7028800871022051E-05   4.8763486728005238E-05   5.0561888816443682E-05
   5.2426328815498805E-05   5.4359211928486261E-05   5.6363029830715977E-05
   5.8440363718457712E-05   6.0593887462350428E-05   6.2826370868681507E-05
   6.5140683052065650E-05   6.7539795923157180E-05   7.0026787795145318E-05
   7.2604847112892106E-05   7.5277276308685721E-05   7.8047495788710467E-05
   8.0919048054445421E-05   8.3895601963337801E-05   8.6980957133225240E-05
   9.0179048495103825E-05   9.3493950998990990E-05   9.6929884477749565E-05
   1.0049121867390349E-04   1.0418247843460381E-04   1.0800834908006030E-04
   1.1197368195090820E-04   1.1608350014012992E-04   1.2034300441531535E-04
   1.2475757933720909E-04   1.2933279958065544E-04   1.3407443646422856E-04
   1.3898846469500420E-04   1.4408106933511234E-04   1.4935865299689469E-04
   1.5482784327366738E-04   1.6049550041329498E-04   1.6636872524195838E-04
   1.7245486734571383E-04   1.7876153351763452E-04   1.8529659647852656E-04
   1.9206820387944058E-04   1.9908478759438777E-04   2.0635507331191158E-04
   2.1388809043437507E-04   2.2169318229405184E-04   2.2978001669534000E-04
   2.3815859679265241E-04   2.4683927231377152E-04   2.5583275113870424E-04
   2.6515011124430855E-04   2.7480281302522032E-04   2.8480271200185300E-04
   2.9516207192650660E-04   3.0589357829887825E-04   3.1701035230251935E-04
   3.2852596517407508E-04   3.4045445301736816E-04   3.5281033207470660E-04
   3.6560861446803956E-04   3.7886482442285851E-04   3.9259501498804681E-04
   4.0681578526512418E-04   4.2154429816064986E-04   4.3679829867580172E-04
   4.5259613274746058E-04   4.6895676665538742E-04   4.8589980701038569E-04
   5.0344552133862889E-04   5.2161485927760794E-04   5.4042947439944804E-04
   5.5991174667762236E-04   5.8008480561338820E-04   6.0097255403852867E-04
   6.2259969261130321E-04   6.4499174502273624E-04   6.6817508393069455E-04
   6.9217695763943712E-04   7.1702551754261883E-04   7.4274984634796590E-04
   7.6937998710210171E-04   7.9694697303426968E-04   8.2548285823789492E-04
   8.5502074920921817E-04   8.8559483726241442E-04   9.1724043184083798E-04
   9.4999399474424910E-04   9.8389317529204282E-04   1.0189768464427228E-03
   1.0552851418899839E-03   1.0928594941559437E-03   1.1317426737021911E-03
   1.1719788290794472E-03   1.2136135281367042E-03   1.2566938003108481E-03
   1.3012681800177472E-03   1.3473867511659171E-03   1.3951011928137820E-03
   1.4444648259916530E-03   1.4955326617094107E-03   1.5483614501708796E-03
   1.6030097312157256E-03   1.6595378860096125E-03   1.7180081900032200E-03
   1.7784848671804352E-03   1.8410341456159061E-03   1.9057243143617798E-03
   1.9726257816831600E-03   2.0418111346615030E-03   2.1133552001846904E-03
   2.1873351073421247E-03   2.2638303512426401E-03   2.3429228582724964E-03
   2.4246970528101230E-03   2.5092399254135925E-03   2.5966411024960297E-03
   2.6869929175035185E-03   2.7803904836089808E-03   2.8769317679348543E-03
   2.9767176673161414E-03   3.0798520856145707E-03   3.1864420125932397E-03
   3.2965976043600937E-03   3.4104322653872201E-03   3.5280627321113900E-03
   3.6496091581201956E-03   3.7751952009261154E-03   3.9049481103294774E-03
   4.0389988183694948E-03   4.1774820308606081E-03   4.3205363205094860E-03
   4.4683042216059309E-03   4.6209323262788298E-03   4.7785713823059453E-03
   4.9413763924640022E-03   5.1095067154029649E-03   5.2831261680258207E-03
   5.4624031293522808E-03   5.6475106458422856E-03   5.8386265381516200E-03
   6.0359335092893844E-03   6.2396192541434850E-03   6.4498765703366410E-03
   6.6669034703726177E-03   6.8909032950276120E-03   7.1220848279390167E-03
   7.3606624113387769E-03   7.6068560628749738E-03   7.8608915934610096E-03
   8.1230007260867289E-03   8.3934212155220549E-03   8.6723969688380607E-03
   8.9601781666660187E-03   9.2570213851099689E-03   9.5631897182222869E-03
   9.8789529009475248E-03   1.0204587432433160E-02   1.0540376699600413E-02
   1.0886611100863171E-02   1.1243588169875651E-02   1.1611612699184268E-02
   1.1990996863652662E-02   1.2382060343521462E-02   1.2785130446959059E-02
   1.3200542231951344E-02   1.3628638627372736E-02   1.4069770553072554E-02
   1.4524297038803518E-02   1.4992585341813533E-02   1.5475011062910205E-02
   1.5971958260803755E-02   1.6483819564524448E-02   1.7010996283698877E-02
   1.7553898516467832E-02   1.8112945254810837E-02   1.8688564487038612E-02
   1.9281193297204204E-02   1.9891277961167353E-02   2.0519274039043026E-02
   2.1165646463745167E-02   2.1830869625326470E-02   2.2515427450802778E-02
   2.3219813479126515E-02   2.3944530930965317E-02   2.4690092772915739E-02
   2.5457021775762138E-02   2.6245850566372179E-02   2.7057121672786628E-02
   2.7891387562043523E-02   2.8749210670242133E-02   2.9631163424323679E-02
   3.0537828255017687E-02   3.1469797600366591E-02   3.2427673899216469E-02
   3.3412069574026669E-02   3.4423607002329090E-02   3.5462918476141865E-02
   3.6530646148623995E-02   3.7627441967246350E-02   3.8753967592749669E-02
   3.9910894303162109E-02   4.1098902882166242E-02   4.2318683491124623E-02
   4.3570935524115326E-02   4.4856367445366654E-02   4.6175696608548353E-02
   4.7529649057440844E-02   4.8918959307584289E-02   5.0344370108609982E-02
   5.1806632187039008E-02   5.3306503969455847E-02   5.4844751286061887E-02
   5.6422147054715849E-02   5.8039470945678330E-02   5.9697509027336025E-02
   6.1397053393253416E-02   6.3138901770913455E-02   6.4923857112477751E-02
   6.6752727167849871E-02   6.8626324040179598E-02   7.0545463723799315E-02
   7.2510965624379795E-02   7.4523652060843951E-02   7.6584347748372819E-02
   7.8693879261588495E-02   8.0853074476825840E-02   8.3062761992276302E-02
   8.5323770524686676E-02   8.7636928281323731E-02   9.0003062305949968E-02
   9.2422997797679596E-02   9.4897557401754179E-02   9.7427560471438357E-02
   1.0001382230045779E-01   1.0265715332557365E-01   1.0535835829906370E-01
   1.0811823543103423E-01   1.1093757550158528E-01   1.1381716094294744E-01
   1.1675776489175535E-01   1.1976015021163700E-01   1.2282506848632117E-01
   1.2595325898343118E-01   1.2914544758912491E-01   1.3240234571371060E-01
   1.3572464916834112E-01   1.3911303701287886E-01   1.4256817037500263E-01
   1.4609069124064639E-01   1.4968122121585398E-01   1.5334036026018710E-01
   1.5706868539185367E-01   1.6086674936478187E-01   1.6473507931796066E-01
   1.6867417539741844E-01   1.7268450935134785E-01   1.7676652309898006E-01
   1.8092062727392844E-01   1.8514719974288715E-01   1.8944658410067225E-01
   1.9381908814278961E-01   1.9826498231686362E-01   2.0278449815441890E-01
   2.0737782668473537E-01   2.1204511683263974E-01   2.1678647380233720E-01
   2.2160195744960023E-01   2.2649158064480815E-01   2.3145530762963218E-01
   2.3649305237032958E-01   2.4160467691088988E-01   2.4678998972954375E-01
   2.5204874410233719E-01   2.5738063647780957E-01   2.6278530486701679E-01
   2.6826232725341614E-01   2.7381122002740682E-01   2.7943143645052460E-01
   2.8512236515456885E-01   2.9088332868114869E-01   2.9671358206732207E-01
   3.0261231148323076E-01   3.0857863292773841E-01   3.1461159098823233E-01
   3.2071015767083150E-01   3.2687323130724683E-01   3.3309963554457928E-01
   3.3938811842422167E-01   3.4573735155593521E-01   3.5214592939296502E-01
   3.5861236861380541E-01   3.6513510761592566E-01   3.7171250612637913E-01
   3.7834284493381981E-01   3.8502432574599160E-01   3.9175507117634079E-01
   3.9853312486292319E-01   4.0535645172247664E-01   4.1222293834223778E-01
   4.1913039351198356E-01   4.2607654889896251E-01   4.3305905986871079E-01
   4.4007550645556065E-01   4.4712339448774707E-01   4.5420015687349552E-01
   4.6130315505636915E-01   4.6842968065023649E-01   4.7557695726629001E-01
   4.8274214254643144E-01   4.8992233041816802E-01   4.9711455358563755E-01
   5.0431578626802920E-01   5.1152294718965419E-01   5.1873290281349016E-01
   5.2594247079057999E-01   5.3314842356968806E-01   5.4034749207357946E-01
   5.4753636929980265E-01   5.5471171364559946E-01   5.6187015169131738E-01
   5.6900828011017801E-01   5.7612266631332698E-01   5.8320984740021720E-01
   5.9026632698120118E-01   5.9728856948879250E-01   6.0427299171326820E-01
   6.1121595150027108E-01   6.1811373383900681E-01   6.2496253494443166E-01
   6.3175844537402859E-01   6.3849743367541378E-01   6.4517533246222181E-01
   6.5178782905945409E-01   6.5833046282320928E-01   6.6479863081438451E-01
   6.7118760264946209E-01   6.7749254414548110E-01   6.8370854804983006E-01
   6.8983066902914614E-01   6.9585395950328233E-01   7.0177350301964059E-01
   7.0758444261327813E-01   7.1328200273407782E-01   7.1886150450656194E-01
   7.2431837503722640E-01   7.2964815205239675E-01   7.3484648533509744E-01
   7.3990913632719391E-01   7.4483197699988524E-01   7.4961098878274512E-01
   7.5424226205230649E-01   7.5872199645031713E-01   7.6304650213634151E-01
   7.6721220197038409E-01   7.7121563455437003E-01   7.7505345802294345E-01
   7.7872245445319743E-01   7.8221953475284078E-01   7.8554174388284537E-01
   7.8868626627179494E-01   7.9165043128426238E-01   7.9443171861402273E-01
   7.9702776348441273E-01   7.9943636155218167E-01   8.0165547342687071E-01
   8.0368322873450537E-01   8.0551792967117009E-01   8.0715805400825136E-01
   8.0860225752619685E-01   8.0984937586702432E-01   8.1089842580747273E-01
   8.1174860596435516E-01   8.1239929695152779E-01   8.1285006101399948E-01
   8.1310064116926495E-01   8.1315095988918651E-01   8.1300111735783220E-01
   8.1265138934191938E-01   8.1210222471092175E-01   8.1135424264379696E-01
   8.1040822955869973E-01   8.0926513580111126E-01   8.0792607212459477E-01
   8.0639230599695400E-01   8.0466525776295184E-01   8.0274649669298725E-01
   8.0063773694523521E-01   7.9834083346673868E-01   7.9585777785684342E-01
   7.9319069421412802E-01   7.9034183498570065E-01   7.8731357683531433E-01
   7.8410841654429786E-01   7.8072896695673155E-01   7.7717795297772752E-01
   7.7345820763097295E-01   7.6957266817909165E-01   7.6552437230765191E-01
   7.6131645437101725E-01   7.5695214169569280E-01   7.5243475093425194E-01
   7.4776768446059982E-01   7.4295442679534651E-01   7.3799854104778051E-01
   7.3290366535965978E-01   7.2767350933459429E-01   7.2231185043601498E-01
   7.1682253033627708E-01   7.1120945119973999E-01   7.0547657188330404E-01
   6.9962790403923547E-01   6.9366750810707822E-01   6.8759948918397196E-01
   6.8142799276573007E-01   6.7515720035455762E-01   6.6879132493303950E-01
   6.6233460630792018E-01   6.5579130633096760E-01   6.4916570400692974E-01
   6.4246209050461234E-01   6.3568476408029950E-01   6.2883802493386953E-01
   6.2192617000832340E-01   6.1495348774305092E-01   6.0792425278524675E-01
   6.0084272065626299E-01   5.9371312236047891E-01   5.8653965891370541E-01
   5.7932649575728545E-01   5.7207775701393249E-01   5.6479751953349988E-01
   5.5748980667321990E-01   5.5015858175924903E-01   5.4280774118683695E-01
   5.3544110713671078E-01   5.2806241991636949E-01   5.2067532997731747E-01
   5.1328338971117105E-01   5.0589004518634506E-01   4.9849862804769646E-01
   4.9111234785739732E-01   4.8373428519893308E-01   4.7636738588926658E-01
   4.6901445664005781E-01   4.6167816247297166E-01   4.5436102612542417E-01
   4.4706542958569312E-01   4.3979361777797221E-01   4.3254770429063527E-01
   4.2532967891860618E-01   4.1814141668646926E-01   4.1098468794429793E-01
   4.0386116908969788E-01   3.9677245346902262E-01   3.8972006204508230E-01
   3.8270545348027279E-01   3.7573003336360655E-01   3.6879516239710353E-01
   3.6190216344208570E-01   3.5505232740195031E-01   3.4824691798001850E-01
   3.4148717539711998E-01   3.3477431918359329E-01   3.2810955017596816E-01
   3.2149405185244662E-01   3.1492899113621026E-01   3.0841551878456952E-01
   3.0195476946754590E-01   2.9554786162365460E-01   2.8919589716504507E-01
   2.8289996108967752E-01   2.7666112104554758E-01   2.7048042688130391E-01
   2.6435891020902030E-01   2.5829758399818309E-01   2.5229744221494022E-01
   2.4635945951699936E-01   2.4048459101197436E-01   2.3467377208515844E-01
   2.2892791830138509E-01   2.2324792538450336E-01   2.1763466927694242E-01
   2.1208900628051749E-01   2.0661177327799299E-01   2.0120378803277564E-01
   1.9586584956127678E-01   1.9059873856902468E-01   1.8540321793729883E-01
   1.8028003324200303E-01   1.7522991328078391E-01   1.7025357057797769E-01
   1.6535170183033115E-01   1.6052498824962105E-01   1.5577409575191928E-01
   1.5109967493777610E-01   1.4650236080355961E-01   1.4198277212242275E-01
   1.3754151043440088E-01   1.3317915858963383E-01   1.2889627879721582E-01
   1.2469341014467233E-01   1.2057106557015834E-01   1.1652972828923663E-01
   1.1256984770195251E-01   1.0869183483057425E-01   1.0489605736328615E-01
   1.0118283440271227E-01   9.7552431038415932E-02   9.4005052878048917E-02
   9.0540840681515869E-02   8.7159865245506160E-02   8.3862122681912260E-02
   8.0647530223277350E-02   7.7515922672268797E-02   7.4467049591468201E-02
   7.1500573305846540E-02   6.8616067764662239E-02   6.5813018283599617E-02
   6.3090822163042987E-02   6.0448790155481685E-02   5.7886148734946220E-02
   5.5402043104578108E-02   5.2995540865141889E-02   5.0665636257556976E-02
   4.8411254886159411E-02   4.6231258826125624E-02   4.4124452017987557E-02
   4.2089585853976832E-02   4.0125364864759018E-02   3.8230452420519624E-02
   3.6403476367036849E-02   3.4643034525067763E-02   3.2947699989769624E-02
   3.1316026175844044E-02   2.9746551563405960E-02   2.8237804109072943E-02
   2.6788305296345103E-02   2.5396573808776857E-02   2.4061128818624822E-02
   2.2780492892412130E-02   2.1553194522975119E-02   2.0377770304933297E-02
   1.9252766776935538E-02   1.8176741959355109E-02   1.7148266620240386E-02
   1.6165925305145743E-02   1.5228317168012401E-02   1.4334056640504984E-02
   1.3481773976250264E-02   1.2670115704398089E-02   1.1897745023965922E-02
   1.1163342166774561E-02   1.0465604752610018E-02   9.8032481557821030E-03
   9.1750058977026344E-03   8.5796300756420130E-03   8.0158918336153077E-03
   7.4825818775107935E-03   6.9785110331989720E-03   6.5025108435077276E-03
   6.0534341976411759E-03   5.6301559848592111E-03   5.2315737629977238E-03
   4.8566084316575345E-03   4.5042048995743763E-03   4.1733327357399890E-03
   3.8629867942219930E-03   3.5721878032581073E-03   3.2999829100287792E-03
   3.0454461734793188E-03   2.8076789986247928E-03   2.5858105068847113E-03
   2.3789978381202948E-03   2.1864263811611369E-03   2.0073099306808077E-03
   1.8408907692957438E-03   1.6864396747078587E-03   1.5432558525725769E-03
   1.4106667965519386E-03   1.2880280776993408E-03   1.1747230659180188E-03
   1.0701625867454367E-03   9.7378451713663798E-04   8.8505332426129036E-04
   8.0345955159408374E-04   7.2851925677009397E-04   6.5977340580613999E-04
   5.9678722835654894E-04   5.3914953868680073E-04   4.8647202701615846E-04
   4.3838852580438566E-04   3.9455425544640045E-04   3.5464505369443920E-04
   3.1835659295624563E-04   2.8540358942421917E-04   2.5551900777740638E-04
   2.2845326497040428E-04   2.0397343638324433E-04   1.8186246735822317E-04
   1.6191839295742270E-04   1.4206969965586665E-04   8.1937460358557846E-05
   2.9507957407099567E-06
       </PP_GIPAW_WFS_AE>
       <PP_GIPAW_WFS_PS size="1078">
   0.0000000000000000E+00   4.9430985803180135E-14   5.1319842491067958E-14
   5.3280876167446318E-14   5.5316844857091995E-14   5.7430611976486686E-14
   5.9625150359004511E-14   6.1903546435919878E-14   6.4269004577209805E-14
   6.6724851598227691E-14   6.9274541438585497E-14   7.1921660019825086E-14
   7.4669930288712273E-14   7.7523217453243430E-14   8.0485534418731586E-14
   8.3561047431615911E-14   8.6754081938931911E-14   9.0069128671684662E-14
   9.3510849960678889E-14   9.7084086293690754E-14   1.0079386312320056E-13
   1.0464539793426356E-13   1.0864410758245933E-13   1.1279561591223593E-13
   1.1710576166636908E-13   1.2158060669765602E-13   1.2622644449439485E-13
   1.3104980903163967E-13   1.3605748396067984E-13   1.4125651214966773E-13
   1.4665420558881169E-13   1.5225815567406848E-13   1.5807624388379416E-13
   1.6411665286337182E-13   1.7038787793340510E-13   1.7689873903766311E-13
   1.8365839314757886E-13   1.9067634714075079E-13   1.9796247117155431E-13
   2.0552701255267445E-13   2.1338061016707650E-13   2.2153430943068957E-13
   2.2999957782684167E-13   2.3878832103429927E-13   2.4791289967158850E-13
   2.5738614668115284E-13   2.6722138537779209E-13   2.7743244818676977E-13
   2.8803369609794156E-13   2.9904003886326163E-13   3.1046695596607914E-13
   3.2233051839171346E-13   3.3464741122992295E-13   3.4743495714106461E-13
   3.6071114071893674E-13   3.7449463378458065E-13   3.8880482164660220E-13
   4.0366183036495897E-13   4.1908655505654677E-13   4.3510068928240067E-13
   4.5172675555784146E-13   4.6898813702847195E-13   4.8690911035657822E-13
   5.0551487986418846E-13   5.2483161298080026E-13   5.4488647704564259E-13
   5.6570767751622162E-13   5.8732449763689195E-13   6.0976733962324602E-13
   6.3306776742023524E-13   6.5725855109417389E-13   6.8237371292103672E-13
   7.0844857523589598E-13   7.3551981011077147E-13   7.6362549093077568E-13
   7.9280514594108235E-13   8.2309981384003601E-13   8.5455210149657928E-13
   8.8720624387318667E-13   9.2110816623856218E-13   9.5630554875762101E-13
   9.9284789354957142E-13   1.0307865943084266E-12   1.0701750085838531E-12
   1.1110685328240177E-12   1.1535246802859660E-12   1.1976031619231143E-12
   1.2433659703636186E-12   1.2908774670977118E-12   1.3402044729966579E-12
   1.3914163622906123E-12   1.4445851601375544E-12   1.4997856439205298E-12
   1.5570954484156709E-12   1.6165951749788799E-12   1.6783685049047634E-12
   1.7425023171172455E-12   1.8090868103573501E-12   1.8782156300400510E-12
   1.9499859999585517E-12   2.0244988590212603E-12   2.1018590032137594E-12
   2.1821752329854077E-12   2.2655605062679116E-12   2.3521320973409928E-12
   2.4420117617686906E-12   2.5353259076381453E-12   2.6322057733418039E-12
   2.7327876121530288E-12   2.8372128838546779E-12   2.9456284536902455E-12
   3.0581867989172776E-12   3.1750462232536300E-12   3.2963710795181419E-12
   3.4223320007788426E-12   3.5531061403338079E-12   3.6888774208621450E-12
   3.8298367930955411E-12   3.9761825043741904E-12   4.1281203774647359E-12
   4.2858641000324127E-12   4.4496355251745451E-12   4.6196649834379408E-12
   4.7961916067591764E-12   4.9794636647832216E-12   5.1697389140335403E-12
   5.3672849604245596E-12   5.5723796356266144E-12   5.7853113878123892E-12
   6.0063796873347173E-12   6.2358954479059696E-12   6.4741814638717250E-12
   6.7215728641933252E-12   6.9784175837782780E-12   7.2450768528208352E-12
   7.5219257048414950E-12   7.8093535041395592E-12   8.1077644934007518E-12
   8.4175783622299991E-12   8.7392308374090386E-12   9.0731742957088288E-12
   9.4198784001188643E-12   9.7798307603879587E-12   1.0153537618805724E-11
   1.0541524562189021E-11   1.0944337261074924E-11   1.1362542237159605E-11
   1.1796727660062681E-11   1.2247504174537471E-11   1.2715505759290595E-11
   1.3201390618618760E-11   1.3705842108116885E-11   1.4229569695759083E-11
   1.4773309959704826E-11   1.5337827624233014E-11   1.5923916635261150E-11
   1.6532401276962448E-11   1.7164137331050757E-11   1.7820013280364320E-11
   1.8500951558440931E-11   1.9207909846841489E-11   1.9941882422047189E-11
   2.0703901553824126E-11   2.1495038957022289E-11   2.2316407298850704E-11
   2.3169161763748351E-11   2.4054501678052159E-11   2.4973672196746578E-11
   2.5927966054667339E-11   2.6918725384622018E-11   2.7947343604984751E-11
   2.9015267379419619E-11   3.0123998651488972E-11   3.1275096757007928E-11
   3.2470180617116596E-11   3.3710931015153290E-11   3.4999092960532339E-11
   3.6336478142949589E-11   3.7724967480368466E-11   3.9166513764369224E-11
   4.0663144406582746E-11   4.2216964290070381E-11   4.3830158729661201E-11
   4.5504996545409078E-11   4.7243833253492865E-11   4.9049114379047496E-11
   5.0923378895584070E-11   5.2869262795837874E-11   5.4889502799065041E-11
   5.6986940200001977E-11   5.9164524864901916E-11   6.1425319380267575E-11
   6.3772503360114689E-11   6.6209377917824776E-11   6.8739370308876852E-11
   7.1366038750985616E-11   7.4093077428427935E-11   7.6924321687593934E-11
   7.9863753431069910E-11   8.2915506717840506E-11   8.6083873577485179E-11
   8.9373310046546444E-11   9.2788442435559903E-11   9.6334073835558773E-11
   1.0001519087320637E-10   1.0383697072405389E-10   1.0780478839378969E-10
   1.1192422427771792E-10   1.1620107200910084E-10   1.2064134660740138E-10
   1.2525129293788517E-10   1.3003739449448149E-10   1.3500638251825399E-10
   1.4016524546430494E-10   1.4552123883043092E-10   1.5108189536134770E-10
   1.5685503564283987E-10   1.6284877910073316E-10   1.6907155542015917E-10
   1.7553211640117189E-10   1.8223954826739038E-10   1.8920328444497826E-10
   1.9643311882993468E-10   2.0393921956234935E-10   2.1173214332700513E-10
   2.1982285020042842E-10   2.2822271906527702E-10   2.3694356361373997E-10
   2.4599764896245987E-10   2.5539770890234172E-10   2.6515696380750977E-10
   2.7528913922860247E-10   2.8580848519654974E-10   2.9672979626398537E-10
   3.0806843231248281E-10   3.1984034015487155E-10   3.3206207596302107E-10
   3.4475082855263173E-10   3.5792444355778469E-10   3.7160144852924380E-10
   3.8580107899181614E-10   4.0054330549740452E-10   4.1584886171181947E-10
   4.3173927357483633E-10   4.4823688957450920E-10   4.6536491217833107E-10
   4.8314743046543267E-10   5.0160945400571912E-10   5.2077694803359543E-10
   5.4067686996574361E-10   5.6133720731431074E-10   5.8278701704883285E-10
   6.0505646646225209E-10   6.2817687559849871E-10   6.5218076130130719E-10
   6.7710188294622985E-10   7.0297528992013963E-10   7.2983737091502223E-10
   7.5772590510537711E-10   7.8668011528119406E-10   8.1674072301123802E-10
   8.4795000591423752E-10   8.8035185711848137E-10   9.1399184699351408E-10
   9.4891728724067395E-10   9.8517729743266906E-10   1.0228228740957469E-09
   1.0619069624316091E-09   1.1024845307799670E-09   1.1446126479264239E-09
   1.1883505633644444E-09   1.2337597906242763E-09   1.2809041937860065E-09
   1.3298500772984505E-09   1.3806662792301667E-09   1.4334242680837635E-09
   1.4881982433096496E-09   1.5450652396605815E-09   1.6041052355338069E-09
   1.6654012654531107E-09   1.7290395368490162E-09   1.7951095513013796E-09
   1.8637042304148093E-09   1.9349200465040777E-09   2.0088571582731883E-09
   2.0856195516789789E-09   2.1653151861774040E-09   2.2480561465580438E-09
   2.3339588005805717E-09   2.4231439626346884E-09   2.5157370636538015E-09
   2.6118683275214106E-09   2.7116729542182184E-09   2.8152913099676282E-09
   2.9228691246470073E-09   3.0345576967423171E-09   3.1505141061344419E-09
   3.2709014350163569E-09   3.3958889972519514E-09   3.5256525764989688E-09
   3.6603746734309894E-09   3.8002447624062198E-09   3.9454595579438638E-09
   4.0962232913830825E-09   4.2527479981134442E-09   4.4152538157808607E-09
   4.5839692938885274E-09   4.7591317152279968E-09   4.9409874295927416E-09
   5.1297922002433642E-09   5.3258115636116535E-09   5.5293212027496080E-09
   5.7406073350482494E-09   5.9599671147719133E-09   6.1877090509738162E-09
   6.4241534413807154E-09   6.6696328228570574E-09   6.9244924390816455E-09
   7.1890907260951667E-09   7.4637998164009341E-09   7.7490060623279440E-09
   8.0451105793924353E-09   8.3525298104217241E-09   8.6716961112341621E-09
   9.0030583586983559E-09   9.3470825820274257E-09   9.7042526181951527E-09
   1.0075070792396877E-08   1.0460058624511288E-08   1.0859757562556855E-08
   1.1274729744174681E-08   1.1705558787207914E-08   1.2152850610490553E-08
   1.2617234285998908E-08   1.3099362923564927E-08   1.3599914589395219E-08
   1.4119593259687195E-08   1.4659129810684105E-08   1.5219283046560875E-08
   1.5800840766585840E-08   1.6404620873060409E-08   1.7031472521593033E-08
   1.7682277315326654E-08   1.8357950544798193E-08   1.9059442475173579E-08
   1.9787739682669811E-08   2.0543866442041007E-08   2.1328886167082379E-08
   2.2143902906176151E-08   2.2990062894982635E-08   2.3868556168461414E-08
   2.4780618234486956E-08   2.5727531811415109E-08   2.6710628632041758E-08
   2.7731291316491540E-08   2.8790955316670393E-08   2.9891110935015115E-08
   3.1033305420380525E-08   3.2219145144010744E-08   3.3450297858653343E-08
   3.4728495043995924E-08   3.6055534341720063E-08   3.7433282083599623E-08
   3.8863675916197054E-08   4.0348727525848227E-08   4.1890525467769477E-08
   4.3491238103262308E-08   4.5153116649148896E-08   4.6878498343724962E-08
   4.8669809733681199E-08   5.0529570086618402E-08   5.2460394933949335E-08
   5.4464999749175570E-08   5.6546203766706593E-08   5.8706933946593815E-08
   6.0950229090753171E-08   6.3279244116464521E-08   6.5697254493156602E-08
   6.8207660848718154E-08   7.0813993751808129E-08   7.3519918676894938E-08
   7.6329241158999581E-08   7.9245912145397194E-08   8.2274033551797165E-08
   8.5417864030815986E-08   8.8681824960854108E-08   9.2070506663796850E-08
   9.5588674860280905E-08   9.9241277371604902E-08   1.0303345107770440E-07
   1.0697052914097806E-07   1.1105804850611696E-07   1.1530175768648438E-07
   1.1970762484799572E-07   1.2428184620185965E-07   1.2903085471798273E-07
   1.3396132917129173E-07   1.3908020353368096E-07   1.4439467672480493E-07
   1.4991222273541066E-07   1.5564060113745123E-07   1.6158786799575353E-07
   1.6776238719657678E-07   1.7417284220899915E-07   1.8082824829565088E-07
   1.8773796518997757E-07   1.9491171025784424E-07   2.0235957216198097E-07
   2.1009202504849524E-07   2.1811994327537057E-07   2.2645461670367684E-07
   2.3510776657297977E-07   2.4409156198325608E-07   2.5341863700650488E-07
   2.6310210845208810E-07   2.7315559431078136E-07   2.8359323290346915E-07
   2.9442970276137362E-07   3.0568024326579587E-07   3.1736067607635414E-07
   3.2948742737784658E-07   3.4207755097701742E-07   3.5514875228166395E-07
   3.6871941319581848E-07   3.8280861796596843E-07   3.9743618001465770E-07
   4.1262266979917775E-07   4.2838944373448538E-07   4.4475867422102634E-07
   4.6175338081963481E-07   4.7939746261733330E-07   4.9771573182952278E-07
   5.1673394868575816E-07   5.3647885764816606E-07   5.5697822501337615E-07
   5.7826087795079956E-07   6.0035674503214904E-07   6.2329689830907258E-07
   6.4711359699811779E-07   6.7184033283432698E-07   6.9751187715722973E-07
   7.2416432979538752E-07   7.5183516981812523E-07   7.8056330822582193E-07
   8.1038914265271915E-07   8.4135461415913749E-07   8.7350326619286725E-07
   9.0688030580254421E-07   9.4153266718902655E-07   9.7750907768402840E-07
   1.0148601262486677E-06   1.0536383345881794E-06   1.0938982309826217E-06
   1.1356964269373268E-06   1.1790916967607080E-06   1.2241450601811897E-06
   1.2709198681193029E-06   1.3194818917353299E-06   1.3698994148776377E-06
   1.4222433300614300E-06   1.4765872381127173E-06   1.5330075516174366E-06
   1.5915836023208620E-06   1.6523977526282354E-06   1.7155355113630158E-06
   1.7810856539453427E-06   1.8491403471593450E-06   1.9197952786844690E-06
   1.9931497915726166E-06   2.0693070238598613E-06   2.1483740535086160E-06
   2.2304620488837747E-06   2.3156864249738486E-06   2.4041670055764346E-06
   2.4960281916755302E-06   2.5913991362469022E-06   2.6904139257368841E-06
   2.7932117684689764E-06   2.8999371902428227E-06   3.0107402373996771E-06
   3.1257766876393418E-06   3.2452082688842543E-06   3.3692028864974489E-06
   3.4979348591733439E-06   3.6315851638319148E-06   3.7703416898596123E-06
   3.9143995030536389E-06   4.0639611196393689E-06   4.2192367907452010E-06
   4.3804447977335841E-06   4.5478117588019238E-06   4.7215729472833283E-06
   4.9019726220929956E-06   5.0892643707833173E-06   5.2837114656884755E-06
   5.4855872336570801E-06   5.6951754398912714E-06   5.9127706864292680E-06
   6.1386788258300245E-06   6.3732173906388585E-06   6.6167160392355073E-06
   6.8695170186888417E-06   7.1319756452660744E-06   7.4044608032689408E-06
   7.6873554628951934E-06   7.9810572178498144E-06   8.2859788434583325E-06
   8.6025488760628152E-06   8.9312122145110325E-06   9.2724307445801922E-06
   9.6266839872081136E-06   9.9944697714384627E-06   1.0376304933020431E-05
   1.0772726039639687E-05   1.1184290143793983E-05   1.1611575564365080E-05
   1.2055182697979626E-05   1.2515734861291379E-05   1.2993879165361830E-05
   1.3490287423359840E-05   1.4005657092847453E-05   1.4540712253967261E-05
   1.5096204624896267E-05   1.5672914615983164E-05   1.6271652424039575E-05
   1.6893259168311356E-05   1.7538608069713932E-05   1.8208605674975694E-05
   1.8904193127395360E-05   1.9626347485984639E-05   2.0376083094833060E-05
   2.1154453004603357E-05   2.1962550448135129E-05   2.2801510372212443E-05
   2.3672511027626685E-05   2.4576775619746303E-05   2.5515574021890522E-05
   2.6490224553888253E-05   2.7502095828296072E-05   2.8552608666839678E-05
   2.9643238089742892E-05   3.0775515380705556E-05   3.1951030230398439E-05
   3.3171432961450435E-05   3.4438436838014578E-05   3.5753820463116956E-05
   3.7119430267112115E-05   3.8537183090694536E-05   4.0009068866044170E-05
   4.1537153399820812E-05   4.3123581261858958E-05   4.4770578783561429E-05
   4.6480457170139211E-05   4.8255615731001075E-05   5.0098545232758106E-05
   5.2011831379474400E-05   5.3998158424971601E-05   5.6060312922170193E-05
   5.8201187614643230E-05   6.0423785475746512E-05   6.2731223900892015E-05
   6.5126739058740123E-05   6.7613690407300033E-05   7.0195565381153368E-05
   7.2875984256246258E-05   7.5658705198936369E-05   7.8547629506229172E-05
   8.1546807044399308E-05   8.4660441893454465E-05   8.7892898205185445E-05
   9.1248706282823152E-05   9.4732568890631990E-05   9.8349367802067465E-05
   1.0210417059545479E-04   1.0600223770647188E-04   1.1004902974706559E-04
   1.1425021510078439E-04   1.1861167780488071E-04   1.2313952572992102E-04
   1.2784009906803139E-04   1.3271997914132293E-04   1.3778599754246182E-04
   1.4304524561979014E-04   1.4850508431986113E-04   1.5417315440072196E-04
   1.6005738702976735E-04   1.6616601478049213E-04   1.7250758304299655E-04
   1.7909096186363938E-04   1.8592535822979880E-04   1.9302032881627422E-04
   2.0038579321047782E-04   2.0803204763416777E-04   2.1596977918014702E-04
   2.2421008058298608E-04   2.3276446554355100E-04   2.4164488462780531E-04
   2.5086374176111015E-04   2.6043391134000771E-04   2.7036875598425246E-04
   2.8068214495269842E-04   2.9138847324746146E-04   3.0250268143167878E-04
   3.1404027618708006E-04   3.2601735163851730E-04   3.3845061147357171E-04
   3.5135739188634765E-04   3.6475568537560254E-04   3.7866416542842136E-04
   3.9310221212175039E-04   4.0808993867523589E-04   4.2364821898999703E-04
   4.3979871620915446E-04   4.5656391233722915E-04   4.7396713895676081E-04
   4.9203260908188518E-04   5.1078545018995870E-04   5.3025173847371244E-04
   5.5045853435796497E-04   5.7143391932631667E-04   5.9320703410493253E-04
   6.1580811825201454E-04   6.3926855120328909E-04   6.6362089482552929E-04
   6.8889893753184812E-04   7.1513774001437727E-04   7.4237368265173478E-04
   7.7064451465065273E-04   7.9998940498311028E-04   8.3044899518228783E-04
   8.6206545406284209E-04   8.9488253443306546E-04   9.2894563186870648E-04
   9.6430184562059013E-04   1.0010000417303557E-03   1.0390909184311331E-03
   1.0786270739124287E-03   1.1196630765308877E-03   1.1622555375513815E-03
   1.2064631865052954E-03   1.2523469492558075E-03   1.2999700288625637E-03
   1.3493979893410397E-03   1.4006988424149548E-03   1.4539431373626966E-03
   1.5092040540621368E-03   1.5665574993412364E-03   1.6260822067446056E-03
   1.6878598398302174E-03   1.7519750991128210E-03   1.8185158327746140E-03
   1.8875731512670983E-03   1.9592415459309073E-03   2.0336190117648386E-03
   2.1108071744780407E-03   2.1909114219633165E-03   2.2740410403334680E-03
   2.3603093546653913E-03   2.4498338746014830E-03   2.5427364449608554E-03
   2.6391434015168732E-03   2.7391857321018343E-03   2.8429992432024175E-03
   2.9507247322144475E-03   3.0625081655286713E-03   3.1785008626231178E-03
   3.2988596863418773E-03   3.4237472395431839E-03   3.5533320683041117E-03
   3.6877888718722354E-03   3.8272987195587397E-03   3.9720492747706178E-03
   4.1222350263830729E-03   4.2780575276565912E-03   4.4397256429063604E-03
   4.6074558021343866E-03   4.7814722638379690E-03   4.9620073862101498E-03
   5.1493019069510215E-03   5.3436052319096646E-03   5.5451757327796142E-03
   5.7542810540714131E-03   5.9711984295867642E-03   6.1962150086211070E-03
   6.4296281921191909E-03   6.6717459790106085E-03   6.9228873229503054E-03
   7.1833824996872346E-03   7.4535734852849492E-03   7.7338143454118748E-03
   8.0244716359188957E-03   8.3259248149167159E-03   8.6385666665589819E-03
   8.9628037367351417E-03   9.2990567808656673E-03   9.6477612239874704E-03
   1.0009367633308505E-02   1.0384342203396438E-02   1.0773167254160349E-02
   1.1176341741766040E-02   1.1594381782613392E-02   1.2027821190489466E-02
   1.2477212026987780E-02   1.2943125165270500E-02   1.3426150867223494E-02
   1.3926899374031356E-02   1.4446001510175220E-02   1.4984109300822253E-02
   1.5541896602549477E-02   1.6120059747306178E-02   1.6719318199482872E-02
   1.7340415225915760E-02   1.7984118578608259E-02   1.8651221189906479E-02
   1.9342541879813862E-02   2.0058926075071579E-02   2.0801246539577076E-02
   2.1570404115643853E-02   2.2367328475539707E-02   2.3192978882665961E-02
   2.4048344961659970E-02   2.4934447476620922E-02   2.5852339116564701E-02
   2.6803105287121567E-02   2.7787864907380957E-02   2.8807771210684081E-02
   2.9864012548043141E-02   3.0957813192741809E-02   3.2090434144544197E-02
   3.3263173931788646E-02   3.4477369409504348E-02   3.5734396551524258E-02
   3.7035671234399450E-02   3.8382650010750509E-02   3.9776830869492213E-02
   4.1219753980182357E-02   4.2713002418531459E-02   4.4258202869886284E-02
   4.5857026307281785E-02   4.7511188640398133E-02   4.9222451331513498E-02
   5.0992621974280138E-02   5.2823554830852319E-02   5.4717151322627708E-02
   5.6675360469532698E-02   5.8700179272474111E-02   6.0793653033252841E-02
   6.2957875605863314E-02   6.5194989572770867E-02   6.7507186339361938E-02
   6.9896706139378900E-02   7.2365837943758726E-02   7.4916919264860660E-02
   7.7552335847653309E-02   8.0274521238990162E-02   8.3085956225632182E-02
   8.5989168131239982E-02   8.8986729962055588E-02   9.2081259390527082E-02
   9.5275417565634568E-02   9.8571907738167722E-02   1.0197347368871956E-01
   1.0548289794563770E-01   1.0910299977967823E-01   1.1283663296159963E-01
   1.1668668326842843E-01   1.2065606572364555E-01   1.2474772155605146E-01
   1.2896461486160579E-01   1.3330972895208207E-01   1.3778606237397592E-01
   1.4239662458067159E-01   1.4714443124055476E-01   1.5203249916341446E-01
   1.5706384082719757E-01   1.6224145848700527E-01   1.6756833784800720E-01
   1.7304744128391747E-01   1.7868170058265928E-01   1.8447400920090931E-01
   1.9042721400945473E-01   1.9654410651155463E-01   2.0282741351693556E-01
   2.0927978725465773E-01   2.1590379490872622E-01   2.2270190756130556E-01
   2.2967648852937120E-01   2.3682978108194547E-01   2.4416389552655562E-01
   2.5168079565519208E-01   2.5938228454209339E-01   2.6726998968783877E-01
   2.7534534750677153E-01   2.8360958715762014E-01   2.9206371372028322E-01
   3.0070849072528000E-01   3.0954442204621846E-01   3.1857173316986226E-01
   3.2779035186307187E-01   3.3719988826093555E-01   3.4679961440595319E-01
   3.5658844327410200E-01   3.6656490733007646E-01   3.7672713666094265E-01
   3.8707283674485882E-01   3.9759926591950073E-01   4.0830321262322344E-01
   4.1918097249101710E-01   4.3022832539672312E-01   4.4144051254294103E-01
   4.5281221371053393E-01   4.6433752479042295E-01   4.7600993573178657E-01
   4.8782230905236312E-01   4.9976685906860058E-01   5.1183513201572850E-01
   5.2401798724019788E-01   5.3630557965964742E-01   5.4868734369809491E-01
   5.6115197891652813E-01   5.7368743757148966E-01   5.8628091434596274E-01
   5.9891883850840444E-01   6.1158686876637480E-01   6.2426989109087261E-01
   6.3695201979627869E-01   6.4961660216782302E-01   6.6224622693425572E-01
   6.7482273688706496E-01   6.8732724594896921E-01   6.9974016099355496E-01
   7.1204120871388188E-01   7.2420946783090090E-01   7.3622340692191079E-01
   7.4806092813465219E-01   7.5969941703392507E-01   7.7111579880406345E-01
   7.8228660100209690E-01   7.9318802302268665E-01   8.0379601239616294E-01
   8.1408634799562296E-01   8.2403473017709405E-01   8.3361687781846128E-01
   8.4280863215794499E-01   8.5158606726112562E-01   8.5992560686714803E-01
   8.6780414727959942E-01   8.7519918587607604E-01   8.8208895471285165E-01
   8.8845255859784045E-01   8.9427011689691260E-01   8.9952290822629988E-01
   9.0419351706841733E-01   9.0826598123109981E-01   9.1172593895237275E-01
   9.1456077433627436E-01   9.1675975969152235E-01   9.1831419323634844E-01
   9.1921753053173061E-01   9.1946550791414350E-01   9.1905625612059716E-01
   9.1799040223595729E-01   9.1627115804846215E-01   9.1390439287707681E-01
   9.1089868893710391E-01   9.0726537734139923E-01   9.0301855289689226E-01
   8.9817506595264884E-01   8.9275448968927873E-01   8.8677906141243235E-01
   8.8027359662715410E-01   8.7326537492662015E-01   8.6578399702853337E-01
   8.5786121263524662E-01   8.4953071917841871E-01   8.4082793193326322E-01
   8.3178972644831073E-01   8.2245415472930361E-01   8.1286013713454852E-01
   8.0304713247706150E-01   7.9305478937712570E-01   7.8292258245846347E-01
   7.7268943752078945E-01   7.6239335033940403E-01   7.5207100422623507E-01
   7.4175739192271162E-01   7.3148544776999891E-01   7.2128569640283902E-01
   7.1118592442657336E-01   7.0121088165117951E-01   6.9138201846033909E-01
   6.8171726577906888E-01   6.7223086386286035E-01   6.6293324575780554E-01
   6.5383098077680768E-01   6.4492678270638504E-01   6.3621958669924972E-01
   6.2770469792594163E-01   6.1937401406208259E-01   6.1121632258388991E-01
   6.0321767264010340E-01   5.9536181996809978E-01   5.8763074192624754E-01
   5.8000521821817896E-01   5.7246547127475378E-01   5.6499185851321521E-01
   5.5756560677723777E-01   5.5016957712901249E-01   5.4278904567559227E-01
   5.3541248335295111E-01   5.2803231518713145E-01   5.2064562913808521E-01
   5.1325414058367413E-01   5.0586124875096283E-01   4.9847028306555741E-01
   4.9108445284268176E-01   4.8370683846277046E-01   4.7634038556008196E-01
   4.6898790068243384E-01   4.6165204870483534E-01   4.5433535223340449E-01
   4.4704019313856269E-01   4.3976881623815722E-01   4.3252333502384704E-01
   4.2530573920172637E-01   4.1811790371386565E-01   4.1096159883280214E-01
   4.0383850088248419E-01   3.9675020313863657E-01   3.8969822649585389E-01
   3.8268402955031605E-01   3.7570901782657390E-01   3.6877455196383080E-01
   3.6188195476221602E-01   3.5503251706560196E-01   3.4822750251952728E-01
   3.4146815128886704E-01   3.3475568284991619E-01   3.2809129798713793E-01
   3.2147618012869500E-01   3.1491149614978364E-01   3.0839839676178943E-01
   3.0193801659085601E-01   2.9553147403363755E-01   2.8917987096239789E-01
   2.8288429233713042E-01   2.7664580576972153E-01   2.7046546107449770E-01
   2.6434428983092412E-01   2.5828330497751484E-01   2.5228350045099990E-01
   2.4634585088114419E-01   2.4047131134900621E-01   2.3466081721462989E-01
   2.2891528401881656E-01   2.2323560746251278E-01   2.1762266346628770E-01
   2.1207730831104910E-01   2.0660037885951740E-01   2.0119269285583194E-01
   1.9585504929782521E-01   1.9058822887305288E-01   1.8539299444535018E-01
   1.8027009157363186E-01   1.7522024903895078E-01   1.7024417934939384E-01
   1.6534257918576864E-01   1.6051612974420776E-01   1.5576549692543948E-01
   1.5109133131500335E-01   1.4649426789464959E-01   1.4197492542339651E-01
   1.3753390542775115E-01   1.3317179074508786E-01   1.2888914357268652E-01
   1.2468650298742778E-01   1.2056438191823780E-01   1.1652326357313310E-01
   1.1256359734657885E-01   1.0868579425752013E-01   1.0489022199336571E-01
   1.0117719965879454E-01   9.7546992348519990E-02   9.3999805678679813E-02
   9.0535780421209217E-02   8.7154987388543548E-02   8.3857422712166535E-02
   8.0643003648143571E-02   7.7511565026635115E-02   7.4462856441682643E-02
   7.1496540253636956E-02   6.8612190450968280E-02   6.5809292392281962E-02
   6.3087243424436737E-02   6.0445354349766597E-02   5.7882851695311724E-02
   5.5398880720164301E-02   5.2992509083744178E-02   5.0662731088084424E-02
   4.8408472400842804E-02   4.6228595162473671E-02   4.4121903380493578E-02
   4.2087148515581076E-02   4.0123035168074798E-02   3.8228226778833363E-02
   3.6401351265094133E-02   3.4641006519659623E-02   3.2945765710133516E-02
   3.1314182323896565E-02   2.9744794913823074E-02   2.8236131509235700E-02
   2.6786713666167361E-02   2.5395060140432045E-02   2.4059690176187896E-02
   2.2779126411432093E-02   2.1551897409992353E-02   2.0376539836954460E-02
   1.9251600300877574E-02   1.8175636891468117E-02   1.7147220445517416E-02
   1.6164935576725922E-02   1.5227381506582306E-02   1.4333172733701155E-02
   1.3480939578064908E-02   1.2669328634588216E-02   1.1897003167465307E-02
   1.1162643473107099E-02   1.0464947235302120E-02   9.8026298917715058E-03
   9.1744250267406739E-03   8.5790847996863404E-03   8.0153804162101244E-03
   7.4821026431519805E-03   6.9780623666818855E-03   6.5020911892559180E-03
   6.0530420590149707E-03   5.6297899234437707E-03   5.2312323978708801E-03
   4.8562904386386680E-03   4.5039090104562907E-03   4.1730577375067189E-03
   3.8627315282563713E-03   3.5719511645438051E-03   3.2997638463525894E-03
   3.0452436846403891E-03   2.8074921356586171E-03   2.5856383713108106E-03
   2.3788395812236922E-03   2.1862812033190933E-03   2.0071770807476722E-03
   1.8407695440604351E-03   1.6863294184402435E-03   1.5431559566770952E-03
   1.4105766993491721E-03   1.2879472643589017E-03   1.1746510685692938E-03
   1.0700989847963491E-03   9.7372893783486498E-04   8.8500544353734998E-04
   8.0341909523157359E-04   7.2848600195526145E-04   6.5974718311708749E-04
   5.9676792426197414E-04   5.3913709863551650E-04   4.8646645921206016E-04
   4.3838990577743485E-04   3.9456273154907332E-04   3.5466085367549040E-04
   3.1838003179029565E-04   2.8543507860740038E-04   2.5555906633712350E-04
   2.2850253248240748E-04   2.0403268834315853E-04   1.8193263331920748E-04
   1.6200057788153677E-04   1.4404907786957376E-04   1.2790428035838291E-04
   1.1340523156246383E-04
       </PP_GIPAW_WFS_PS>
     </PP_GIPAW_ORBITAL.3>
     <PP_GIPAW_ORBITAL.4 index="4" label="4S" l="0" cutoff_radius="  1.65519033232162" ultrasoft_cutoff_radius="  1.65519033232162">
       <PP_GIPAW_WFS_AE size="1078">
   0.0000000000000000E+00  -1.5856379639106732E-04  -1.6052981089446767E-04
  -1.6252016548478758E-04  -1.6453515952909219E-04  -1.6657509763867622E-04
  -1.6864028852044979E-04  -1.7073104470371117E-04  -1.7284768257321782E-04
  -1.7499052241579170E-04  -1.7715988846836729E-04  -1.7935610896651402E-04
  -1.8157951619353485E-04  -1.8383044653015837E-04  -1.8610924050483635E-04
  -1.8841624284464999E-04  -1.9075180252683464E-04  -1.9311627283092955E-04
  -1.9551001139156014E-04  -1.9793338025186024E-04  -2.0038674591754205E-04
  -2.0287047941162109E-04  -2.0538495632980595E-04  -2.0793055689655672E-04
  -2.1050766602182430E-04  -2.1311667335847606E-04  -2.1575797336041762E-04
  -2.1843196534141688E-04  -2.2113905353464134E-04  -2.2387964715291515E-04
  -2.2665416044970470E-04  -2.2946301278084285E-04  -2.3230662866699899E-04
  -2.3518543785690322E-04  -2.3809987539133673E-04  -2.4105038166789396E-04
  -2.4403740250652700E-04  -2.4706138921588204E-04  -2.5012279866043702E-04
  -2.5322209332844864E-04  -2.5635974140072066E-04  -2.5953621682019991E-04
  -2.6275199936241409E-04  -2.6600757470675686E-04  -2.6930343450863321E-04
  -2.7264007647247380E-04  -2.7601800442562913E-04  -2.7943772839315319E-04
  -2.8289976467348808E-04  -2.8640463591505930E-04  -2.8995287119379143E-04
  -2.9354500609155877E-04  -2.9718158277557572E-04  -3.0086315007874491E-04
  -3.0459026358096720E-04  -3.0836348569143171E-04  -3.1218338573188947E-04
  -3.1605054002093158E-04  -3.1996553195927304E-04  -3.2392895211606299E-04
  -3.2794139831622755E-04  -3.3200347572885988E-04  -3.3611579695666706E-04
  -3.4027898212648936E-04  -3.4449365898090145E-04  -3.4876046297090834E-04
  -3.5308003734975060E-04  -3.5745303326782760E-04  -3.6188010986875605E-04
  -3.6636193438657332E-04  -3.7089918224410024E-04  -3.7549253715247588E-04
  -3.8014269121187775E-04  -3.8485034501344018E-04  -3.8961620774238625E-04
  -3.9444099728238414E-04  -3.9932544032114398E-04  -4.0427027245726750E-04
  -4.0927623830836575E-04  -4.1434409162045729E-04  -4.1947459537866486E-04
  -4.2466852191921716E-04  -4.2992665304278133E-04  -4.3524978012913010E-04
  -4.4063870425316477E-04  -4.4609423630230744E-04  -4.5161719709527616E-04
  -4.5720841750226070E-04  -4.6286873856650999E-04  -4.6859901162735228E-04
  -4.7440009844465964E-04  -4.8027287132477189E-04  -4.8621821324790069E-04
  -4.9223701799702290E-04  -4.9833019028828584E-04  -5.0449864590293545E-04
  -5.1074331182078818E-04  -5.1706512635525973E-04  -5.2346503928996817E-04
  -5.2994401201693136E-04  -5.3650301767636940E-04  -5.4314304129813565E-04
  -5.4986507994478969E-04  -5.5667014285633223E-04  -5.6355925159661435E-04
  -5.7053344020144931E-04  -5.7759375532843050E-04  -5.8474125640848782E-04
  -5.9197701579918969E-04  -5.9930211893981613E-04  -6.0671766450821690E-04
  -6.1422476457947885E-04  -6.2182454478641302E-04  -6.2951814448188904E-04
  -6.3730671690303078E-04  -6.4519142933729535E-04  -6.5317346329045293E-04
  -6.6125401465648599E-04  -6.6943429388943568E-04  -6.7771552617720290E-04
  -6.8609895161733398E-04  -6.9458582539480801E-04  -7.0317741796184637E-04
  -7.1187501521976398E-04  -7.2067991870288536E-04  -7.2959344576454556E-04
  -7.3861692976519560E-04  -7.4775172026263692E-04  -7.5699918320440223E-04
  -7.6636070112230735E-04  -7.7583767332919755E-04  -7.8543151611790206E-04
  -7.9514366296242834E-04  -8.0497556472141675E-04  -8.1492868984386793E-04
  -8.2500452457718047E-04  -8.3520457317751108E-04  -8.4553035812248191E-04
  -8.5598342032625963E-04  -8.6656531935703075E-04  -8.7727763365689246E-04
  -8.8812196076418085E-04  -8.9909991753827116E-04  -9.1021314038685665E-04
  -9.2146328549574203E-04  -9.3285202906117476E-04  -9.4438106752472940E-04
  -9.5605211781077772E-04  -9.6786691756656424E-04  -9.7982722540491301E-04
  -9.9193482114958765E-04  -1.0041915060833343E-03  -1.0165991031986206E-03
  -1.0291594574511126E-03  -1.0418744360158941E-03  -1.0547459285464712E-03
  -1.0677758474365731E-03  -1.0809661280847787E-03  -1.0943187291619992E-03
  -1.1078356328818359E-03  -1.1215188452738281E-03  -1.1353703964596441E-03
  -1.1493923409322052E-03  -1.1635867578377965E-03  -1.1779557512611746E-03
  -1.1925014505136955E-03  -1.2072260104244983E-03  -1.2221316116347639E-03
  -1.2372204608950645E-03  -1.2524947913658503E-03  -1.2679568629210727E-03
  -1.2836089624549915E-03  -1.2994534041921751E-03  -1.3154925300007234E-03
  -1.3317287097087418E-03  -1.3481643414240856E-03  -1.3648018518574003E-03
  -1.3816436966484842E-03  -1.3986923606959950E-03  -1.4159503584905229E-03
  -1.4334202344510648E-03  -1.4511045632649064E-03  -1.4690059502309469E-03
  -1.4871270316064908E-03  -1.5054704749575237E-03  -1.5240389795124966E-03
  -1.5428352765196501E-03  -1.5618621296078813E-03  -1.5811223351512075E-03
  -1.6006187226368046E-03  -1.6203541550366908E-03  -1.6403315291830445E-03
  -1.6605537761471790E-03  -1.6810238616222154E-03  -1.7017447863094542E-03
  -1.7227195863084733E-03  -1.7439513335109778E-03  -1.7654431359984044E-03
  -1.7871981384433200E-03  -1.8092195225146235E-03  -1.8315105072865558E-03
  -1.8540743496515710E-03  -1.8769143447370431E-03  -1.9000338263258473E-03
  -1.9234361672808478E-03  -1.9471247799732658E-03  -1.9711031167149850E-03
  -1.9953746701947819E-03  -2.0199429739184965E-03  -2.0448116026531775E-03
  -2.0699841728751894E-03  -2.0954643432223017E-03  -2.1212558149497763E-03
  -2.1473623323904553E-03  -2.1737876834188627E-03  -2.2005356999193300E-03
  -2.2276102582581437E-03  -2.2550152797597223E-03  -2.2827547311868529E-03
  -2.3108326252249483E-03  -2.3392530209703608E-03  -2.3680200244227492E-03
  -2.3971377889814879E-03  -2.4266105159461262E-03  -2.4564424550209013E-03
  -2.4866379048232952E-03  -2.5172012133966278E-03  -2.5481367787266837E-03
  -2.5794490492623886E-03  -2.6111425244404805E-03  -2.6432217552142053E-03
  -2.6756913445860173E-03  -2.7085559481442485E-03  -2.7418202746037706E-03
  -2.7754890863506058E-03  -2.8095671999904697E-03  -2.8440594869012393E-03
  -2.8789708737893150E-03  -2.9143063432498510E-03  -2.9500709343308483E-03
  -2.9862697431010466E-03  -3.0229079232216133E-03  -3.0599906865215972E-03
  -3.0975233035770849E-03  -3.1355111042940679E-03  -3.1739594784949343E-03
  -3.2128738765085695E-03  -3.2522598097640288E-03  -3.2921228513876945E-03
  -3.3324686368039380E-03  -3.3733028643391440E-03  -3.4146312958291238E-03
  -3.4564597572298017E-03  -3.4987941392311517E-03  -3.5416403978742891E-03
  -3.5850045551716731E-03  -3.6288926997303282E-03  -3.6733109873780113E-03
  -3.7182656417922844E-03  -3.7637629551323382E-03  -3.8098092886735524E-03
  -3.8564110734446537E-03  -3.9035748108673901E-03  -3.9513070733986546E-03
  -3.9996145051748944E-03  -4.0485038226587442E-03  -4.0979818152877727E-03
  -4.1480553461251887E-03  -4.1987313525124427E-03  -4.2500168467235156E-03
  -4.3019189166208678E-03  -4.3544447263128196E-03  -4.4076015168122724E-03
  -4.4613966066966021E-03  -4.5158373927686075E-03  -4.5709313507182672E-03
  -4.6266860357852780E-03  -4.6831090834220622E-03  -4.7402082099571681E-03
  -4.7979912132588278E-03  -4.8564659733984971E-03  -4.9156404533142036E-03
  -4.9755226994734328E-03  -5.0361208425354267E-03  -5.0974430980126285E-03
  -5.1594977669310255E-03  -5.2222932364892269E-03  -5.2858379807159388E-03
  -5.3501405611257125E-03  -5.4152096273725686E-03  -5.4810539179013240E-03
  -5.5476822605963448E-03  -5.6151035734273600E-03  -5.6833268650921471E-03
  -5.7523612356557069E-03  -5.8222158771856561E-03  -5.8929000743835032E-03
  -5.9644232052114528E-03  -6.0367947415144460E-03  -6.1100242496370111E-03
  -6.1841213910346325E-03  -6.2590959228792124E-03  -6.3349576986582341E-03
  -6.4117166687672651E-03  -6.4893828810953435E-03  -6.5679664816028467E-03
  -6.6474777148914158E-03  -6.7279269247654495E-03  -6.8093245547846907E-03
  -6.8916811488075446E-03  -6.9750073515244329E-03  -7.0593139089808934E-03
  -7.1446116690897302E-03  -7.2309115821317781E-03  -7.3182247012446924E-03
  -7.4065621828991934E-03  -7.4959352873622291E-03  -7.5863553791463180E-03
  -7.6778339274446517E-03  -7.7703825065511762E-03  -7.8640127962650141E-03
  -7.9587365822786291E-03  -8.0545657565489533E-03  -8.1515123176508462E-03
  -8.2495883711120495E-03  -8.3488061297291062E-03  -8.4491779138631089E-03
  -8.5507161517148714E-03  -8.6534333795784887E-03  -8.7573422420724779E-03
  -8.8624554923477528E-03  -8.9687859922713310E-03  -9.0763467125851739E-03
  -9.1851507330389173E-03  -9.2952112424958024E-03  -9.4065415390107258E-03
  -9.5191550298792879E-03  -9.6330652316570457E-03  -9.7482857701478021E-03
  -9.8648303803597227E-03  -9.9827129064284648E-03  -1.0101947301505904E-02
  -1.0222547627613406E-02  -1.0344528055458525E-02  -1.0467902864213707E-02
  -1.0592686441256039E-02  -1.0718893281866315E-02  -1.0846537988886585E-02
  -1.0975635272334538E-02  -1.1106199948973354E-02  -1.1238246941835782E-02
  -1.1371791279700684E-02  -1.1506848096520892E-02  -1.1643432630800660E-02
  -1.1781560224921089E-02  -1.1921246324412221E-02  -1.2062506477169735E-02
  -1.2205356332614919E-02  -1.2349811640796135E-02  -1.2495888251429806E-02
  -1.2643602112879439E-02  -1.2792969271070580E-02  -1.2944005868339966E-02
  -1.3096728142216948E-02  -1.3251152424135076E-02  -1.3407295138072097E-02
  -1.3565172799115885E-02  -1.3724802011954676E-02  -1.3886199469289122E-02
  -1.4049381950163999E-02  -1.4214366318217589E-02  -1.4381169519845869E-02
  -1.4549808582279843E-02  -1.4720300611573053E-02  -1.4892662790497094E-02
  -1.5066912376342598E-02  -1.5243066698622977E-02  -1.5421143156678410E-02
  -1.5601159217177503E-02  -1.5783132411513617E-02  -1.5967080333093353E-02
  -1.6153020634514050E-02  -1.6340971024627771E-02  -1.6530949265488395E-02
  -1.6722973169179024E-02  -1.6917060594516663E-02  -1.7113229443630751E-02
  -1.7311497658412601E-02  -1.7511883216832298E-02  -1.7714404129119760E-02
  -1.7919078433806579E-02  -1.8125924193625121E-02  -1.8334959491261182E-02
  -1.8546202424957008E-02  -1.8759671103960457E-02  -1.8975383643816953E-02
  -1.9193358161500272E-02  -1.9413612770377994E-02  -1.9636165575008323E-02
  -1.9861034665763312E-02  -2.0088238113275217E-02  -2.0317793962701381E-02
  -2.0549720227803159E-02  -2.0784034884835212E-02  -2.1020755866239967E-02
  -2.1259901054143396E-02  -2.1501488273647167E-02  -2.1745535285912540E-02
  -2.1992059781031578E-02  -2.2241079370680358E-02  -2.2492611580549833E-02
  -2.2746673842549088E-02  -2.3003283486775754E-02  -2.3262457733249114E-02
  -2.3524213683399936E-02  -2.3788568311312173E-02  -2.4055538454711433E-02
  -2.4325140805693805E-02  -2.4597391901190806E-02  -2.4872308113163794E-02
  -2.5149905638522770E-02  -2.5430200488763776E-02  -2.5713208479318520E-02
  -2.5998945218611152E-02  -2.6287426096815506E-02  -2.6578666274307161E-02
  -2.6872680669804097E-02  -2.7169483948189511E-02  -2.7469090508010927E-02
  -2.7771514468648825E-02  -2.8076769657148764E-02  -2.8384869594710274E-02
  -2.8695827482825745E-02  -2.9009656189063426E-02  -2.9326368232487059E-02
  -2.9645975768705715E-02  -2.9968490574547434E-02  -3.0293924032348787E-02
  -3.0622287113854629E-02  -3.0953590363720394E-02  -3.1287843882609828E-02
  -3.1625057309881834E-02  -3.1965239805858213E-02  -3.2308400033666314E-02
  -3.2654546140648638E-02  -3.3003685739332551E-02  -3.3355825887952828E-02
  -3.3710973070519609E-02  -3.4069133176424717E-02  -3.4430311479579083E-02
  -3.4794512617073725E-02  -3.5161740567357429E-02  -3.5531998627923153E-02
  -3.5905289392497000E-02  -3.6281614727721213E-02  -3.6660975749325080E-02
  -3.7043372797775913E-02  -3.7428805413403043E-02  -3.7817272310987991E-02
  -3.8208771353813668E-02  -3.8603299527165180E-02  -3.9000852911276383E-02
  -3.9401426653713927E-02  -3.9805014941193331E-02  -4.0211610970819892E-02
  -4.0621206920747860E-02  -4.1033793920251818E-02  -4.1449362019203545E-02
  -4.1867900156948745E-02  -4.2289396130577604E-02  -4.2713836562582951E-02
  -4.3141206867901308E-02  -4.3571491220330535E-02  -4.4004672518319604E-02
  -4.4440732350125349E-02  -4.4879650958331477E-02  -4.5321407203725628E-02
  -4.5765978528529892E-02  -4.6213340918981972E-02  -4.6663468867262213E-02
  -4.7116335332764478E-02  -4.7571911702707734E-02  -4.8030167752085122E-02
  -4.8491071602950159E-02  -4.8954589683037036E-02  -4.9420686683714590E-02
  -4.9889325517273292E-02  -5.0360467273544797E-02  -5.0834071175854444E-02
  -5.1310094536308463E-02  -5.1788492710415801E-02  -5.2269219051048366E-02
  -5.2752224861741005E-02  -5.3237459349335672E-02  -5.3724869575973368E-02
  -5.4214400410438283E-02  -5.4705994478861104E-02  -5.5199592114785596E-02
  -5.5695131308608210E-02  -5.6192547656396689E-02  -5.6691774308097534E-02
  -5.7192741915142377E-02  -5.7695378577463416E-02  -5.8199609789930211E-02
  -5.8705358388220767E-02  -5.9212544494140623E-02  -5.9721085460405485E-02
  -6.0230895814902929E-02  -6.0741887204451651E-02  -6.1253968338076309E-02
  -6.1767044929818493E-02  -6.2281019641104884E-02  -6.2795792022695876E-02
  -6.3311258456238681E-02  -6.3827312095450672E-02  -6.4343842806960927E-02
  -6.4860737110837993E-02  -6.5377878120835592E-02  -6.5895145484387505E-02
  -6.6412415322387189E-02  -6.6929560168786567E-02  -6.7446448910053067E-02
  -6.7962946724524076E-02  -6.8478915021700601E-02  -6.8994211381524895E-02
  -6.9508689493686424E-02  -7.0022199097006077E-02  -7.0534585918948137E-02
  -7.1045691615312295E-02  -7.1555353710162556E-02  -7.2063405536048369E-02
  -7.2569676174580197E-02  -7.3073990397420116E-02  -7.3576168607754580E-02
  -7.4076026782316076E-02  -7.4573376414024686E-02  -7.5068024455323568E-02
  -7.5559773262284219E-02  -7.6048420539561096E-02  -7.6533759286278411E-02
  -7.7015577742934549E-02  -7.7493659339412005E-02  -7.7967782644186093E-02
  -7.8437721314826708E-02  -7.8903244049892046E-02  -7.9364114542316497E-02
  -7.9820091434397861E-02  -8.0270928274492850E-02  -8.0716373475534384E-02
  -8.1156170275485426E-02  -8.1590056699851157E-02  -8.2017765526372050E-02
  -8.2439024252025844E-02  -8.2853555062470066E-02  -8.3261074804060489E-02
  -8.3661294958584584E-02  -8.4053921620854358E-02  -8.4438655479304667E-02
  -8.4815191799749751E-02  -8.5183220412453603E-02  -8.5542425702672967E-02
  -8.5892486604838933E-02  -8.6233076600542871E-02  -8.6563863720502204E-02
  -8.6884510550679805E-02  -8.7194674242740119E-02  -8.7494006529025975E-02
  -8.7782153742246322E-02  -8.8058756840067282E-02  -8.8323451434806369E-02
  -8.8575867828429453E-02  -8.8815631053058813E-02  -8.9042360917200664E-02
  -8.9255672057907728E-02  -8.9455173999094140E-02  -8.9640471216225467E-02
  -8.9811163207609374E-02  -8.9966844572516538E-02  -9.0107105096365381E-02
  -9.0231529843207148E-02  -9.0339699255751582E-02  -9.0431189263176351E-02
  -9.0505571396967244E-02  -9.0562412915037610E-02  -9.0601276934380220E-02
  -9.0621722572505017E-02  -9.0623305097920562E-02  -9.0605576089917955E-02
  -9.0568083607917696E-02  -9.0510372370642342E-02  -9.0431983945378477E-02
  -9.0332456947592454E-02  -9.0211327251165485E-02  -9.0068128209513501E-02
  -8.9902390887857300E-02  -8.9713644306907911E-02  -8.9501415698231612E-02
  -8.9265230771557402E-02  -8.9004613994287635E-02  -8.8719088883471131E-02
  -8.8408178310494537E-02  -8.8071404818744842E-02  -8.7708290954491744E-02
  -8.7318359611234478E-02  -8.6901134387752127E-02  -8.6456139960091438E-02
  -8.5982902467719002E-02  -8.5480949914058205E-02  -8.4949812581622625E-02
  -8.4389023461950527E-02  -8.3798118700533525E-02  -8.3176638056924268E-02
  -8.2524125380196239E-02  -8.1840129099915712E-02  -8.1124202732775666E-02
  -8.0375905405024164E-02  -7.9594802390808336E-02  -7.8780465666537541E-02
  -7.7932474481352043E-02  -7.7050415943767714E-02  -7.6133885624546094E-02
  -7.5182488175821266E-02  -7.4195837966491845E-02  -7.3173559733865981E-02
  -7.2115289251522816E-02  -7.1020674013328941E-02  -6.9889373933523777E-02
  -6.8721062062760199E-02  -6.7515425319957051E-02  -6.6272165239793984E-02
  -6.4990998735644012E-02  -6.3671658877710771E-02  -6.2313895686103141E-02
  -6.0917476938542062E-02  -5.9482188992364127E-02  -5.8007837620444286E-02
  -5.6494248860622640E-02  -5.4941269878183145E-02  -5.3348769840885588E-02
  -5.1716640806014721E-02  -5.0044798618861741E-02  -4.8333183822011967E-02
  -4.6581762574765047E-02  -4.4790527581960088E-02  -4.2959499031441896E-02
  -4.1088725539341002E-02  -3.9178285102291245E-02  -3.7228286055669989E-02
  -3.5238868036864122E-02  -3.3210202952543857E-02  -3.1142495948847451E-02
  -2.9035986383327300E-02  -2.6890948797470952E-02  -2.4707693888526117E-02
  -2.2486569479330486E-02  -2.0227961484781246E-02  -1.7932294873517968E-02
  -1.5600034623370212E-02  -1.3231686669039908E-02  -1.0827798840470030E-02
  -8.3889617903023343E-03  -5.9158099087790166E-03  -3.4090222244378995E-03
  -8.6932328889542090E-04   1.7025159559915339E-03   4.3056773303144259E-03
   6.9392945894052342E-03   9.6024526199779432E-03   1.2294186660892494E-02
   1.5013481550306768E-02   1.7759271001008270E-02   2.0530436905725064E-02
   2.3325808674243650E-02   2.6144162604198631E-02   2.8984221287451328E-02
   3.1844653054035776E-02   3.4724071455747983E-02   3.7621034791549574E-02
   4.0534045677103621E-02   4.3461550660892349E-02   4.6401939889561317E-02
   4.9353546825317056E-02   5.2314648018412346E-02   5.5283462938001890E-02
   5.8258153864846431E-02   6.1236825849615997E-02   6.4217526740750028E-02
   6.7198247286036294E-02   7.0176921312282162E-02   7.3151425987542110E-02
   7.6119582170480343E-02   7.9079154851430786E-02   8.2027853689613434E-02
   8.4963333650816333E-02   8.7883195749521997E-02   9.0784987899108077E-02
   9.3666205873297631E-02   9.6524294381498246E-02   9.9356648260191971E-02
   1.0216061378199377E-01   1.0493349008356471E-01   1.0767253071320775E-01
   1.1037494529866977E-01   1.1303790133555688E-01   1.1565852609667567E-01
   1.1823390866265059E-01   1.2076110207426008E-01   1.2323712560702295E-01
   1.2565896716871153E-01   1.2802358582053966E-01   1.3032791442282921E-01
   1.3256886240595872E-01   1.3474331866731304E-01   1.3684815459483290E-01
   1.3888022721756837E-01   1.4083638248339150E-01   1.4271345866375551E-01
   1.4450828988506279E-01   1.4621770978588158E-01   1.4783855529890691E-01
   1.4936767055621664E-01   1.5080191091603848E-01   1.5213814710890344E-01
   1.5337326950074967E-01   1.5450419247021885E-01   1.5552785889709841E-01
   1.5644124475856960E-01   1.5724136382963952E-01   1.5792527248387142E-01
   1.5849007459024522E-01   1.5893292650172872E-01   1.5925104213086053E-01
   1.5944169810738676E-01   1.5950223901271290E-01   1.5943008268566003E-01
   1.5922272559372463E-01   1.5887774826374909E-01   1.5839282076561098E-01
   1.5776570824221947E-01   1.5699427647879516E-01   1.5607649750407079E-01
   1.5501045521570717E-01   1.5379435102187292E-01   1.5242650949056097E-01
   1.5090538399785011E-01   1.4922956236593249E-01   1.4739777248132177E-01
   1.4540888788327511E-01   1.4326193331202097E-01   1.4095609020598251E-01
   1.3849070213675296E-01   1.3586528017013361E-01   1.3307950814112662E-01
   1.3013324783031735E-01   1.2702654402864638E-01   1.2375962947714932E-01
   1.2033292966778729E-01   1.1674706749110514E-01   1.1300286771603388E-01
   1.0910136128678129E-01   1.0504378942141609E-01   1.0083160749641452E-01
   9.6466488701187347E-02   9.1950327446369995E-02   8.7285242509498900E-02
   8.2473579901607558E-02   7.7517915438245183E-02   7.2421056998498087E-02
   6.7186046455750173E-02   6.1816161264183836E-02   5.6314915685364210E-02
   5.0686061639765134E-02   4.4933589168613550E-02   3.9061726492137579E-02
   3.3074939651059274E-02   2.6977931718949737E-02   2.0775641573989308E-02
   1.4473242219486223E-02   8.0761386433593364E-03   1.5899652075868928E-03
  -4.9794174407791266E-03  -1.1625925944859679E-02  -1.8343258306915688E-02
  -2.5124898458280118E-02  -3.1964121337182357E-02  -3.8853998481168647E-02
  -4.5787404140012020E-02  -5.2757021913621881E-02  -5.9755351916785104E-02
  -6.6774718467931621E-02  -7.3807278291976669E-02  -8.0845029216544684E-02
  -8.7879819326044578E-02  -9.4903356518575607E-02  -1.0190721838654988E-01
  -1.0888286231431471E-01  -1.1582163565704799E-01  -1.2271478583851794E-01
  -1.2955347018633845E-01  -1.3632876531874805E-01  -1.4303167591436916E-01
  -1.4965314274320932E-01  -1.5618404991919729E-01  -1.6261523145422185E-01
  -1.6893747734772485E-01  -1.7514153962278481E-01  -1.8121813889618449E-01
  -1.8715797221021366E-01  -1.9295172291094775E-01  -1.9859007328397868E-01
  -2.0406372042426568E-01  -2.0936339543240670E-01  -2.1447988556027736E-01
  -2.1940405848514449E-01  -2.2412688759407248E-01  -2.2863947709178947E-01
  -2.3293308591260639E-01  -2.3699914975276098E-01  -2.4082930093365848E-01
  -2.4441538615434749E-01  -2.4774948242822306E-01  -2.5082391160863626E-01
  -2.5363125391271235E-01  -2.5616436079061183E-01  -2.5841636739662066E-01
  -2.6038070482629022E-01  -2.6205111220531169E-01  -2.6342164865617834E-01
  -2.6448670512686778E-01  -2.6524101603820394E-01  -2.6567967068921722E-01
  -2.6579812434935918E-01  -2.6559220896066282E-01  -2.6505814337050415E-01
  -2.6419254301587236E-01  -2.6299242898261682E-01  -2.6145523636780760E-01
  -2.5957882187981257E-01  -2.5736147061863945E-01  -2.5480190198810754E-01
  -2.5189927470100487E-01  -2.4865319084816637E-01  -2.4506369901196123E-01
  -2.4113129641365982E-01  -2.3685693009241765E-01  -2.3224199712091853E-01
  -2.2728834386910854E-01  -2.2199826433282646E-01  -2.1637449754861568E-01
  -2.1042022411961339E-01  -2.0413906188025008E-01  -1.9753506072967117E-01
  -1.9061269666535693E-01  -1.8337686504950290E-01  -1.7583287314137003E-01
  -1.6798643192907706E-01  -1.5984364729430164E-01  -1.5141101054304121E-01
  -1.4269538833508078E-01  -1.3370401204413360E-01  -1.2444446657971991E-01
  -1.1492467870097198E-01  -1.0515290485140202E-01  -9.5137718542609911E-02
  -8.4887997313787322E-02  -7.4412909292633542E-02  -6.3721899382333108E-02
  -5.2824675098081683E-02  -4.1731192075748366E-02  -3.0451639274499804E-02
  -1.8996423894430788E-02  -7.3761560299468419E-03   4.3983669207098928E-03
   1.6316176069381971E-02   2.8366147054569833E-02   4.0537016239465935E-02
   5.2817397069240754E-02   6.5195796564298511E-02   7.7660631924818271E-02
   9.0200247220022955E-02   1.0280293013387520E-01   1.1545692873660097E-01
   1.2815046824920967E-01   1.4087176776595459E-01   1.5360905689719645E-01
   1.6635059229316321E-01   1.7908467400706440E-01   1.9179966165446125E-01
   2.0448399032474918E-01   2.1712618619990570E-01   2.2971488183578623E-01
   2.4223883106182195E-01   2.5468692345621735E-01   2.6704819835550397E-01
   2.7931185835930117E-01   2.9146728229334956E-01   3.0350403759572464E-01
   3.1541189209239712E-01   3.2718082512851521E-01   3.3880103802032890E-01
   3.5026296378938820E-01   3.6155727613494965E-01   3.7267489759254208E-01
   3.8360700681638438E-01   3.9434504491150102E-01   4.0488072072911846E-01
   4.1520601502775689E-01   4.2531318339500812E-01   4.3519475782390693E-01
   4.4484354684647204E-01   4.5425263414886374E-01   4.6341537563014135E-01
   4.7232539492213116E-01   4.8097657746090366E-01   4.8936306328851314E-01
   4.9747923886155937E-01   5.0531972824196514E-01   5.1287938413446055E-01
   5.2015327930198185E-01   5.2713669892257020E-01   5.3382513444028268E-01
   5.4021427940294553E-01   5.4630002767317376E-01   5.5207847425387691E-01
   5.5754591879955218E-01   5.6269887170828947E-01   5.6753406252526650E-01
   5.7204845025383277E-01   5.7623923507723385E-01   5.8010387094847082E-01
   5.8364007850727584E-01   5.8684585782520349E-01   5.8971950055222033E-01
   5.9225960112895870E-01   5.9446506682609346E-01   5.9633512646623543E-01
   5.9786933776684792E-01   5.9906759331063630E-01   5.9993012520084499E-01
   6.0045750849333601E-01   6.0065066351708063E-01   6.0051085720249875E-01
   6.0003970353585501E-01   5.9923916325059945E-01   5.9811154285560697E-01
   5.9665949308773047E-01   5.9488600686350601E-01   5.9279441679323031E-01
   5.9038839231058760E-01   5.8767193646286575E-01   5.8464938240053932E-01
   5.8132538960050051E-01   5.7770493985415461E-01   5.7379333304961688E-01
   5.6959618277589463E-01   5.6511941177573055E-01   5.6036924727225312E-01
   5.5535221619214625E-01   5.5007514030426297E-01   5.4454513128690907E-01
   5.3876958572885825E-01   5.3275618005818060E-01   5.2651286537864816E-01
   5.2004786217556964E-01   5.1336965483142882E-01   5.0648698586645324E-01
   4.9940884979110983E-01   4.9214448642687997E-01   4.8470337352013282E-01
   4.7709521844315311E-01   4.6932994874855821E-01   4.6141770132142385E-01
   4.5336880986020334E-01   4.4519379041618035E-01   4.3690332473479537E-01
   4.2850824116793246E-01   4.2001949299906527E-01   4.1144813403937408E-01
   4.0280529149062783E-01   3.9410213614525391E-01   3.8534985009724865E-01
   3.7655959225365465E-01   3.6774246204027344E-01   3.5890946178965916E-01
   3.5007145837671799E-01   3.4123914472191458E-01   3.3242300181098411E-01
   3.2363326188162939E-01   3.1487987340251589E-01   3.0617246842050799E-01
   2.9752033278228324E-01   2.8893237965113105E-01   2.8041712664419555E-01
   2.7198267681490240E-01   2.6363670360466612E-01   2.5538643979134479E-01
   2.4723867037253663E-01   2.3919972924198846E-01   2.3127549944868764E-01
   2.2347141677122173E-01   2.1579247629481946E-01   2.0824324164487604E-01
   2.0082785650779228E-01   1.9355005805705819E-01   1.8641319189854491E-01
   1.7942022815310374E-01   1.7257377830608805E-01   1.6587611247129738E-01
   1.5932917674067817E-01   1.5293461032010230E-01   1.4669376218501257E-01
   1.4060770702720912E-01   1.3467726030453439E-01   1.2890299224803256E-01
   1.2328524072529312E-01   1.1782412290290328E-01   1.1251954569423975E-01
   1.0737121501979728E-01   1.0237864394470976E-01   9.7541159791034157E-02
   9.2857910349525896E-02   8.8327869336614726E-02   8.3949841256366314E-02
   7.9722465834414794E-02   7.5644222191381880E-02   7.1713432917495795E-02
   6.7928268198934161E-02   6.4286750130621531E-02   6.0786757330933180E-02
   5.7426029952142542E-02   5.4202175157500740E-02   5.1112673112663584E-02
   4.8154883516623684E-02   4.5326052676123461E-02   4.2623321108320074E-02
   4.0043731639626816E-02   3.7584237954444578E-02   3.5241713536017738E-02
   3.3012960932894367E-02   3.0894721278338595E-02   2.8883683986319526E-02
   2.6976496546193669E-02   2.5169774338585124E-02   2.3460110397022376E-02
   2.1844085043277124E-02   2.0318275328831792E-02   1.8879264220214079E-02
   1.7523649471824693E-02   1.6248052136183255E-02   1.5049124668007780E-02
   1.3923558585088149E-02   1.2868091655402460E-02   1.1879514586212381E-02
   1.0954677196923805E-02   1.0090494063219796E-02   9.2839496253173687E-03
   8.5321027581663940E-03   7.8320908059327874E-03   7.1811330872198825E-03
   6.5765338811635179E-03   6.0156849077810833E-03   5.4960673188072838E-03
   5.0152532176849594E-03   4.5709067294444324E-03   4.1607846429125650E-03
   3.7827366490507889E-03   3.4347052002771362E-03   3.1147250163804769E-03
   2.8209222631219210E-03   2.5515134298607824E-03   2.3048039325557265E-03
   2.0791864683065014E-03   1.8731391472340553E-03   1.6852234269782952E-03
   1.5140818746358664E-03   1.3584357804817292E-03   1.2170826262195163E-03
   1.0888938911526363E-03
       </PP_GIPAW_WFS_AE>
       <PP_GIPAW_WFS_PS size="1078">
   0.0000000000000000E+00  -1.0876469081736152E-05  -1.1013278221328606E-05
  -1.1151808208055911E-05  -1.1292080687507929E-05  -1.1434117577544783E-05
  -1.1577941071719483E-05  -1.1723573642745594E-05  -1.1871038046008583E-05
  -1.2020357323121475E-05  -1.2171554805525070E-05  -1.2324654118133576E-05
  -1.2479679183026048E-05  -1.2636654223184255E-05  -1.2795603766277531E-05
  -1.2956552648495359E-05  -1.3119526018427991E-05  -1.3284549340996027E-05
  -1.3451648401429288E-05  -1.3620849309295933E-05  -1.3792178502582008E-05
  -1.3965662751822475E-05  -1.4141329164284209E-05  -1.4319205188201502E-05
  -1.4499318617064928E-05  -1.4681697593964148E-05  -1.4866370615985309E-05
  -1.5053366538663744E-05  -1.5242714580492782E-05  -1.5434444327489131E-05
  -1.5628585737815771E-05  -1.5825169146462985E-05  -1.6024225269988265E-05
  -1.6225785211315827E-05  -1.6429880464596510E-05  -1.6636542920128798E-05
  -1.6845804869341754E-05  -1.7057699009840597E-05  -1.7272258450515810E-05
  -1.7489516716716454E-05  -1.7709507755488513E-05  -1.7932265940879307E-05
  -1.8157826079308402E-05  -1.8386223415006239E-05  -1.8617493635521089E-05
  -1.8851672877295332E-05  -1.9088797731311809E-05  -1.9328905248811294E-05
  -1.9572032947081774E-05  -1.9818218815320622E-05  -2.0067501320570481E-05
  -2.0319919413729869E-05  -2.0575512535639203E-05  -2.0834320623243688E-05
  -2.1096384115833365E-05  -2.1361743961361995E-05  -2.1630441622845164E-05
  -2.1902519084838963E-05  -2.2178018860000194E-05  -2.2456983995729051E-05
  -2.2739458080895380E-05  -2.3025485252649478E-05  -2.3315110203318655E-05
  -2.3608378187390497E-05  -2.3905335028583918E-05  -2.4206027127009337E-05
  -2.4510501466418633E-05  -2.4818805621546547E-05  -2.5130987765544310E-05
  -2.5447096677506802E-05  -2.5767181750094368E-05  -2.6091292997250524E-05
  -2.6419481062016742E-05  -2.6751797224445546E-05  -2.7088293409613113E-05
  -2.7429022195732615E-05  -2.7774036822369771E-05  -2.8123391198761585E-05
  -2.8477139912239711E-05  -2.8835338236760009E-05  -2.9198042141539004E-05
  -2.9565308299799327E-05  -2.9937194097624998E-05  -3.0313757642928056E-05
  -3.0695057774528132E-05  -3.1081154071346036E-05  -3.1472106861713197E-05
  -3.1867977232797964E-05  -3.2268827040150655E-05  -3.2674718917368642E-05
  -3.3085716285883003E-05  -3.3501883364868040E-05  -3.3923285181275994E-05
  -3.4349987579997333E-05  -3.4782057234149311E-05  -3.5219561655493709E-05
  -3.5662569204985749E-05  -3.6111149103455575E-05  -3.6565371442424182E-05
  -3.7025307195055308E-05  -3.7491028227245205E-05  -3.7962607308851781E-05
  -3.8440118125065025E-05  -3.8923635287920536E-05  -3.9413234347957737E-05
  -3.9908991806024771E-05  -4.0410985125232062E-05  -4.0919292743055924E-05
  -4.1433994083594644E-05  -4.1955169569978624E-05  -4.2482900636936704E-05
  -4.3017269743520501E-05  -4.3558360385988716E-05  -4.4106257110853713E-05
  -4.4661045528091982E-05  -4.5222812324520971E-05  -4.5791645277343964E-05
  -4.6367633267865465E-05  -4.6950866295379211E-05  -4.7541435491230606E-05
  -4.8139433133056142E-05  -4.8744952659202148E-05  -4.9358088683324523E-05
  -4.9978937009172491E-05  -5.0607594645557890E-05  -5.1244159821513302E-05
  -5.1888732001640226E-05  -5.2541411901650853E-05  -5.3202301504104984E-05
  -5.3871504074345049E-05  -5.4549124176631484E-05  -5.5235267690481159E-05
  -5.5930041827211191E-05  -5.6633555146691025E-05  -5.7345917574305058E-05
  -5.8067240418128715E-05  -5.8797636386320593E-05  -5.9537219604733184E-05
  -6.0286105634745605E-05  -6.1044411491319839E-05  -6.1812255661284932E-05
  -6.2589758121850623E-05  -6.3377040359354002E-05  -6.4174225388242208E-05
  -6.4981437770293289E-05  -6.5798803634079661E-05  -6.6626450694675559E-05
  -6.7464508273613115E-05  -6.8313107319088791E-05  -6.9172380426424542E-05
  -7.0042461858786003E-05  -7.0923487568161326E-05  -7.1815595216603994E-05
  -7.2718924197742767E-05  -7.3633615658562248E-05  -7.4559812521457345E-05
  -7.5497659506565339E-05  -7.6447303154378264E-05  -7.7408891848640567E-05
  -7.8382575839534296E-05  -7.9368507267155747E-05  -8.0366840185287861E-05
  -8.1377730585471545E-05  -8.2401336421379157E-05  -8.3437817633495720E-05
  -8.4487336174109444E-05  -8.5550056032617273E-05  -8.6626143261148624E-05
  -8.7715766000511267E-05  -8.8819094506463518E-05  -8.9936301176317271E-05
  -9.1067560575875298E-05  -9.2213049466707578E-05  -9.3372946833770432E-05
  -9.4547433913373468E-05  -9.5736694221497962E-05  -9.6940913582471802E-05
  -9.8160280158004592E-05  -9.9394984476588620E-05  -1.0064521946326869E-04
  -1.0191118046978814E-04  -1.0319306530511152E-04  -1.0449107426633393E-04
  -1.0580541016997690E-04  -1.0713627838367920E-04  -1.0848388685828605E-04
  -1.0984844616034158E-04  -1.1123016950499048E-04  -1.1262927278929308E-04
  -1.1404597462595975E-04  -1.1548049637750942E-04  -1.1693306219085837E-04
  -1.1840389903234276E-04  -1.1989323672318341E-04  -1.2140130797539528E-04
  -1.2292834842814933E-04  -1.2447459668459143E-04  -1.2604029434912486E-04
  -1.2762568606516079E-04  -1.2923101955334516E-04  -1.3085654565026490E-04
  -1.3250251834764177E-04  -1.3416919483201875E-04  -1.3585683552494649E-04
  -1.3756570412367397E-04  -1.3929606764235227E-04  -1.4104819645375559E-04
  -1.4282236433152794E-04  -1.4461884849295992E-04  -1.4643792964230538E-04
  -1.4827989201464164E-04  -1.5014502342028117E-04  -1.5203361528974348E-04
  -1.5394596271929025E-04  -1.5588236451703649E-04  -1.5784312324963805E-04
  -1.5982854528956921E-04  -1.6183894086299364E-04  -1.6387462409823777E-04
  -1.6593591307487393E-04  -1.6802312987342056E-04  -1.7013660062566830E-04
  -1.7227665556563855E-04  -1.7444362908118223E-04  -1.7663785976622970E-04
  -1.7885969047369608E-04  -1.8110946836905249E-04  -1.8338754498457087E-04
  -1.8569427627425247E-04  -1.8803002266944561E-04  -1.9039514913516314E-04
  -1.9279002522711020E-04  -1.9521502514942648E-04  -1.9767052781315700E-04
  -2.0015691689545718E-04  -2.0267458089954349E-04  -2.0522391321539714E-04
  -2.0780531218123207E-04  -2.1041918114573569E-04  -2.1306592853109329E-04
  -2.1574596789680433E-04  -2.1845971800430123E-04  -2.2120760288238194E-04
  -2.2399005189346528E-04  -2.2680749980067899E-04  -2.2966038683579212E-04
  -2.3254915876800224E-04  -2.3547426697358663E-04  -2.3843616850643178E-04
  -2.4143532616944724E-04  -2.4447220858688076E-04  -2.4754729027753962E-04
  -2.5066105172893635E-04  -2.5381397947236485E-04  -2.5700656615892112E-04
  -2.6023931063648181E-04  -2.6351271802764882E-04  -2.6682729980867498E-04
  -2.7018357388938438E-04  -2.7358206469409467E-04  -2.7702330324355976E-04
  -2.8050782723794323E-04  -2.8403618114083236E-04  -2.8760891626431303E-04
  -2.9122659085511273E-04  -2.9488977018182554E-04  -2.9859902662323831E-04
  -3.0235493975776326E-04  -3.0615809645399860E-04  -3.1000909096242800E-04
  -3.1390852500827064E-04  -3.1785700788550394E-04  -3.2185515655206381E-04
  -3.2590359572624638E-04  -3.3000295798432048E-04  -3.3415388385936749E-04
  -3.3835702194136557E-04  -3.4261302897853205E-04  -3.4692256997994150E-04
  -3.5128631831943247E-04  -3.5570495584082319E-04  -3.6017917296445100E-04
  -3.6470966879504838E-04  -3.6929715123098134E-04  -3.7394233707485673E-04
  -3.7864595214552301E-04  -3.8340873139148173E-04  -3.8823141900571988E-04
  -3.9311476854199395E-04  -3.9805954303257033E-04  -4.0306651510744936E-04
  -4.0813646711509137E-04  -4.1327019124465486E-04  -4.1846848964977859E-04
  -4.2373217457391751E-04  -4.2906206847725519E-04  -4.3445900416521380E-04
  -4.3992382491857886E-04  -4.4545738462526329E-04  -4.5106054791372457E-04
  -4.5673419028806426E-04  -4.6247919826482542E-04  -4.6829646951150958E-04
  -4.7418691298683666E-04  -4.8015144908276935E-04  -4.8619100976832284E-04
  -4.9230653873518729E-04  -4.9849899154517506E-04  -5.0476933577952784E-04
  -5.1111855119010112E-04  -5.1754762985244725E-04  -5.2405757632082892E-04
  -5.3064940778517684E-04  -5.3732415423002518E-04  -5.4408285859544625E-04
  -5.5092657694000605E-04  -5.5785637860577511E-04  -5.6487334638540660E-04
  -5.7197857669132502E-04  -5.7917317972703728E-04  -5.8645827966059805E-04
  -5.9383501480026217E-04  -6.0130453777233804E-04  -6.0886801570128753E-04
  -6.1652663039208201E-04  -6.2428157851486250E-04  -6.3213407179190870E-04
  -6.4008533718697244E-04  -6.4813661709698549E-04  -6.5628916954617864E-04
  -6.6454426838265018E-04  -6.7290320347739203E-04  -6.8136728092583413E-04
  -6.8993782325191375E-04  -6.9861616961471604E-04  -7.0740367601771414E-04
  -7.1630171552063669E-04  -7.2531167845400204E-04  -7.3443497263635759E-04
  -7.4367302359423565E-04  -7.5302727478489479E-04  -7.6249918782184676E-04
  -7.7209024270322852E-04  -7.8180193804304379E-04  -7.9163579130531409E-04
  -8.0159333904117618E-04  -8.1167613712895522E-04  -8.2188576101726273E-04
  -8.3222380597115406E-04  -8.4269188732137210E-04  -8.5329164071674306E-04
  -8.6402472237972279E-04  -8.7489280936517845E-04  -8.8589759982241360E-04
  -8.9704081326048943E-04  -9.0832419081689274E-04  -9.1974949552956343E-04
  -9.3131851261236281E-04  -9.4303304973399917E-04  -9.5489493730045055E-04
  -9.6690602874096416E-04  -9.7906820079762379E-04  -9.9138335381858075E-04
  -1.0038534120549618E-03  -1.0164803239615145E-03  -1.0292660625010358E-03
  -1.0422126254526218E-03  -1.0553220357237987E-03  -1.0685963416665852E-03
  -1.0820376173975139E-03  -1.0956479631216989E-03  -1.1094295054609553E-03
  -1.1233843977860646E-03  -1.1375148205532029E-03  -1.1518229816446176E-03
  -1.1663111167135713E-03  -1.1809814895336304E-03  -1.1958363923523490E-03
  -1.2108781462493979E-03  -1.2261091014991942E-03  -1.2415316379380977E-03
  -1.2571481653362157E-03  -1.2729611237738932E-03  -1.2889729840229345E-03
  -1.3051862479326064E-03  -1.3216034488205204E-03  -1.3382271518684059E-03
  -1.3550599545228703E-03  -1.3721044869012009E-03  -1.3893634122022639E-03
  -1.4068394271225756E-03  -1.4245352622776002E-03  -1.4424536826283443E-03
  -1.4605974879133270E-03  -1.4789695130859638E-03  -1.4975726287574597E-03
  -1.5164097416452832E-03  -1.5354837950272455E-03  -1.5547977692013275E-03
  -1.5743546819512611E-03  -1.5941575890179743E-03  -1.6142095845769735E-03
  -1.6345138017216990E-03  -1.6550734129529955E-03  -1.6758916306747031E-03
  -1.6969717076954981E-03  -1.7183169377370433E-03  -1.7399306559485071E-03
  -1.7618162394275826E-03  -1.7839771077480266E-03  -1.8064167234938481E-03
  -1.8291385928002133E-03  -1.8521462659011319E-03  -1.8754433376840522E-03
  -1.8990334482514122E-03  -1.9229202834892534E-03  -1.9471075756429942E-03
  -1.9715991039004109E-03  -1.9963986949819825E-03  -2.0215102237386303E-03
  -2.0469376137569810E-03  -2.0726848379722432E-03  -2.0987559192887704E-03
  -2.1251549312084417E-03  -2.1518859984669264E-03  -2.1789532976779500E-03
  -2.2063610579856788E-03  -2.2341135617252456E-03  -2.2622151450916511E-03
  -2.2906701988170135E-03  -2.3194831688563597E-03  -2.3486585570820233E-03
  -2.3782009219867665E-03  -2.4081148793957440E-03  -2.4384051031874163E-03
  -2.4690763260235035E-03  -2.5001333400881481E-03  -2.5315809978363069E-03
  -2.5634242127516088E-03  -2.5956679601136876E-03  -2.6283172777751781E-03
  -2.6613772669484815E-03  -2.6948530930023789E-03  -2.7287499862686960E-03
  -2.7630732428590640E-03  -2.7978282254919663E-03  -2.8330203643301731E-03
  -2.8686551578286619E-03  -2.9047381735932344E-03  -2.9412750492498903E-03
  -2.9782714933251180E-03  -3.0157332861372589E-03  -3.0536662806990426E-03
  -3.0920764036314772E-03  -3.1309696560892042E-03  -3.1703521146974681E-03
  -3.2102299325008818E-03  -3.2506093399240475E-03  -3.2914966457442880E-03
  -3.3328982380765801E-03  -3.3748205853708240E-03  -3.4172702374216908E-03
  -3.4602538263910649E-03  -3.5037780678433875E-03  -3.5478497617939691E-03
  -3.5924757937704620E-03  -3.6376631358876442E-03  -3.6834188479357077E-03
  -3.7297500784821891E-03  -3.7766640659877390E-03  -3.8241681399358617E-03
  -3.8722697219768882E-03  -3.9209763270862232E-03  -3.9702955647371776E-03
  -4.0202351400885012E-03  -4.0708028551867765E-03  -4.1220066101839582E-03
  -4.1738544045700982E-03  -4.2263543384215988E-03  -4.2795146136650726E-03
  -4.3333435353570668E-03  -4.3878495129798575E-03  -4.4430410617533975E-03
  -4.4989268039638116E-03  -4.5555154703084775E-03  -4.6128159012579859E-03
  -4.6708370484351679E-03  -4.7295879760113849E-03  -4.7890778621203110E-03
  -4.8493160002894527E-03  -4.9103118008895635E-03  -4.9720747926022329E-03
  -5.0346146239058373E-03  -5.0979410645801051E-03  -5.1620640072295243E-03
  -5.2269934688257838E-03  -5.2927395922695861E-03  -5.3593126479719155E-03
  -5.4267230354551697E-03  -5.4949812849742867E-03  -5.5640980591581410E-03
  -5.6340841546715049E-03  -5.7049505038977606E-03  -5.7767081766426321E-03
  -5.8493683818592835E-03  -5.9229424693948958E-03  -5.9974419317591508E-03
  -6.0728784059147578E-03  -6.1492636750903338E-03  -6.2266096706159787E-03
  -6.3049284737817391E-03  -6.3842323177192833E-03  -6.4645335893070456E-03
  -6.5458448310991698E-03  -6.6281787432785179E-03  -6.7115481856340007E-03
  -6.7959661795626387E-03  -6.8814459100965085E-03  -6.9680007279550021E-03
  -7.0556441516226483E-03  -7.1443898694528293E-03  -7.2342517417976811E-03
  -7.3252438031645084E-03  -7.4173802643990863E-03  -7.5106755148960820E-03
  -7.6051441248369770E-03  -7.7008008474558996E-03  -7.7976606213335320E-03
  -7.8957385727195066E-03  -7.9950500178838368E-03  -8.0956104654972914E-03
  -8.1974356190415813E-03  -8.3005413792492308E-03  -8.4049438465738681E-03
  -8.5106593236911159E-03  -8.6177043180304183E-03  -8.7260955443383414E-03
  -8.8358499272734991E-03  -8.9469846040337187E-03  -9.0595169270156171E-03
  -9.1734644665071620E-03  -9.2888450134134149E-03  -9.4056765820160343E-03
  -9.5239774127667647E-03  -9.6437659751155060E-03  -9.7650609703731888E-03
  -9.8878813346099468E-03  -1.0012246241589029E-02  -1.0138175105736773E-02
  -1.0265687585149169E-02  -1.0394803584635376E-02  -1.0525543258798621E-02
  -1.0657927015154908E-02  -1.0791975517290034E-02  -1.0927709688055242E-02
  -1.1065150712802063E-02  -1.1204320042656757E-02  -1.1345239397834718E-02
  -1.1487930770995447E-02  -1.1632416430638422E-02  -1.1778718924540450E-02
  -1.1926861083234760E-02  -1.2076866023532574E-02  -1.2228757152087346E-02
  -1.2382558169002425E-02  -1.2538293071482362E-02  -1.2695986157528462E-02
  -1.2855662029679136E-02  -1.3017345598795258E-02  -1.3181062087891417E-02
  -1.3346837036013177E-02  -1.3514696302161098E-02  -1.3684666069261799E-02
  -1.3856772848186705E-02  -1.4031043481818915E-02  -1.4207505149168761E-02
  -1.4386185369538366E-02  -1.4567112006735853E-02  -1.4750313273339730E-02
  -1.4935817735013767E-02  -1.5123654314873097E-02  -1.5313852297901800E-02
  -1.5506441335422635E-02  -1.5701451449619291E-02  -1.5898913038111789E-02
  -1.6098856878585376E-02  -1.6301314133473480E-02  -1.6506316354695134E-02
  -1.6713895488447480E-02  -1.6924083880053637E-02  -1.7136914278866620E-02
  -1.7352419843229532E-02  -1.7570634145492644E-02  -1.7791591177087809E-02
  -1.8015325353660516E-02  -1.8241871520260213E-02  -1.8471264956589066E-02
  -1.8703541382309820E-02  -1.8938736962413015E-02  -1.9176888312643813E-02
  -1.9418032504989205E-02  -1.9662207073225513E-02  -1.9909450018526689E-02
  -2.0159799815133887E-02  -2.0413295416086285E-02  -2.0669976259013789E-02
  -2.0929882271991496E-02  -2.1193053879456480E-02  -2.1459532008186833E-02
  -2.1729358093343365E-02  -2.2002574084573925E-02  -2.2279222452180534E-02
  -2.2559346193349320E-02  -2.2842988838443472E-02  -2.3130194457358862E-02
  -2.3421007665942767E-02  -2.3715473632475184E-02  -2.4013638084212585E-02
  -2.4315547313994421E-02  -2.4621248186911207E-02  -2.4930788147034980E-02
  -2.5244215224210775E-02  -2.5561578040909038E-02  -2.5882925819138775E-02
  -2.6208308387420085E-02  -2.6537776187816147E-02  -2.6871380283023362E-02
  -2.7209172363518865E-02  -2.7551204754764688E-02  -2.7897530424467045E-02
  -2.8248202989890045E-02  -2.8603276725222018E-02  -2.8962806568993190E-02
  -2.9326848131543286E-02  -2.9695457702537013E-02  -3.0068692258525643E-02
  -3.0446609470552697E-02  -3.0829267711801295E-02  -3.1216726065281086E-02
  -3.1609044331551386E-02  -3.2006283036478747E-02  -3.2408503439024954E-02
  -3.2815767539062152E-02  -3.3228138085212876E-02  -3.3645678582708838E-02
  -3.4068453301266018E-02  -3.4496527282972117E-02  -3.4929966350178795E-02
  -3.5368837113397472E-02  -3.5813206979189875E-02  -3.6263144158048856E-02
  -3.6718717672264201E-02  -3.7179997363764136E-02  -3.7647053901928310E-02
  -3.8119958791362360E-02  -3.8598784379626237E-02  -3.9083603864909479E-02
  -3.9574491303640873E-02  -4.0071521618025449E-02  -4.0574770603496776E-02
  -4.1084314936072626E-02  -4.1600232179604631E-02  -4.2122600792905404E-02
  -4.2651500136742508E-02  -4.3187010480683317E-02  -4.3729213009775177E-02
  -4.4278189831045256E-02  -4.4834023979801733E-02  -4.5396799425718198E-02
  -4.5966601078680849E-02  -4.6543514794378293E-02  -4.7127627379610897E-02
  -4.7719026597296127E-02  -4.8317801171144203E-02  -4.8924040789978557E-02
  -4.9537836111670307E-02  -5.0159278766659002E-02  -5.0788461361025272E-02
  -5.1425477479083465E-02  -5.2070421685455781E-02  -5.2723389526591315E-02
  -5.3384477531688845E-02  -5.4053783212978719E-02  -5.4731405065321134E-02
  -5.5417442565068357E-02  -5.6111996168142719E-02  -5.6815167307274060E-02
  -5.7527058388337861E-02  -5.8247772785736514E-02  -5.8977414836753568E-02
  -5.9716089834815585E-02  -6.0463904021589264E-02  -6.1220964577831959E-02
  -6.1987379612920446E-02  -6.2763258152965615E-02  -6.3548710127423455E-02
  -6.4343846354107961E-02  -6.5148778522497300E-02  -6.5963619175231525E-02
  -6.6788481687681339E-02  -6.7623480245468048E-02  -6.8468729819809560E-02
  -6.9324346140549567E-02  -7.0190445666732895E-02  -7.1067145554571262E-02
  -7.1954563622639051E-02  -7.2852818314132609E-02  -7.3762028656008699E-02
  -7.4682314214817802E-02  -7.5613795049029348E-02  -7.6556591657638062E-02
  -7.7510824924831273E-02  -7.8476616060478163E-02  -7.9454086536195637E-02
  -8.0443358016729638E-02  -8.1444552286372623E-02  -8.2457791170130759E-02
  -8.3483196449330999E-02  -8.4520889771346600E-02  -8.5570992553100217E-02
  -8.6633625877985870E-02  -8.7708910385833588E-02  -8.8796966155517826E-02
  -8.9897912579794403E-02  -9.1011868231922588E-02  -9.2138950723614305E-02
  -9.3279276553822024E-02  -9.4432960947853875E-02  -9.5600117686285430E-02
  -9.6780858923096805E-02  -9.7975294992451362E-02  -9.9183534203492962E-02
  -1.0040568262251170E-01  -1.0164184384179906E-01  -1.0289211873447543E-01
  -1.0415660519454512E-01  -1.0543539786139740E-01  -1.0672858782793154E-01
  -1.0803626233145580E-01  -1.0935850442646243E-01  -1.1069539263834542E-01
  -1.1204700059709345E-01  -1.1341339664993176E-01  -1.1479464345186600E-01
  -1.1619079753301810E-01  -1.1760190884160814E-01  -1.1902802026139751E-01
  -1.2046916710234257E-01  -1.2192537656318428E-01  -1.2339666716463557E-01
  -1.2488304815178411E-01  -1.2638451886428856E-01  -1.2790106807288310E-01
  -1.2943267328067154E-01  -1.3097929998763758E-01  -1.3254090091674900E-01
  -1.3411741519999767E-01  -1.3570876752265981E-01  -1.3731486722402905E-01
  -1.3893560735283000E-01  -1.4057086367547827E-01  -1.4222049363532699E-01
  -1.4388433526099928E-01  -1.4556220602188422E-01  -1.4725390162885094E-01
  -1.4895919477821490E-01  -1.5067783383698583E-01  -1.5240954146741822E-01
  -1.5415401318889255E-01  -1.5591091587516498E-01  -1.5767988618505768E-01
  -1.5946052892467685E-01  -1.6125241533931600E-01  -1.6305508133324401E-01
  -1.6486802561566005E-01  -1.6669070777119560E-01  -1.6852254625343915E-01
  -1.7036291630010339E-01  -1.7221114776860044E-01  -1.7406652289095753E-01
  -1.7592827394722113E-01  -1.7779558085671007E-01  -1.7966756868673681E-01
  -1.8154330507871871E-01  -1.8342179759189281E-01  -1.8530199096524266E-01
  -1.8718276429861075E-01  -1.8906292815442463E-01  -1.9094122158195176E-01
  -1.9281630906650837E-01  -1.9468677740664705E-01  -1.9655113252296533E-01
  -1.9840779620286500E-01  -2.0025510278634351E-01  -2.0209129579868970E-01
  -2.0391452453683240E-01  -2.0572284061701798E-01  -2.0751419449248928E-01
  -2.0928643195091642E-01  -2.1103729060245768E-01  -2.1276439637055522E-01
  -2.1446525999884528E-01  -2.1613727358893731E-01  -2.1777770718524700E-01
  -2.1938370542458294E-01  -2.2095228426977701E-01  -2.2248032784830291E-01
  -2.2396458541856301E-01  -2.2540166848831480E-01  -2.2678804811156664E-01
  -2.2812005239218697E-01  -2.2939386422443073E-01  -2.3060551930259146E-01
  -2.3175090443401689E-01  -2.3282575619177370E-01  -2.3382565994530768E-01
  -2.3474604930947435E-01  -2.3558220605434010E-01  -2.3632926052010339E-01
  -2.3698219258337350E-01  -2.3753583322283667E-01  -2.3798486673398667E-01
  -2.3832383364410242E-01  -2.3854713437995112E-01  -2.3864903374176727E-01
  -2.3862366623784997E-01  -2.3846504233459437E-01  -2.3816705567688234E-01
  -2.3772349133344067E-01  -2.3712803512099526E-01  -2.3637428405972186E-01
  -2.3545575801059554E-01  -2.3436591254266484E-01  -2.3309815307499074E-01
  -2.3164585033392074E-01  -2.3000235716142384E-01  -2.2816102670436145E-01
  -2.2611523200771830E-01  -2.2385838702689076E-01  -2.2138396906512264E-01
  -2.1868554263193851E-01  -2.1575678470699364E-01  -2.1259151138104476E-01
  -2.0918370583169890E-01  -2.0552754757627495E-01  -2.0161744292740774E-01
  -1.9744805655905387E-01  -1.9301434407129150E-01  -1.8831158542184639E-01
  -1.8333541907071441E-01  -1.7808187666170283E-01  -1.7254741804139059E-01
  -1.6672896639206192E-01  -1.6062394323094087E-01  -1.5423030300380283E-01
  -1.4754656697714436E-01  -1.4057185611003536E-01  -1.3330592256497487E-01
  -1.2574917949714282E-01  -1.1790272874401314E-01  -1.0976838602294964E-01
  -1.0134870323411201E-01  -9.2646987460244745E-02  -8.3667316254847440E-02
  -7.4414548816550796E-02  -6.4894332661038875E-02  -5.5113105423776884E-02
  -4.5078091457507227E-02  -3.4797292929112905E-02  -2.4279475171543365E-02
  -1.3534146108372351E-02  -2.5715296419423573E-03   8.5974670195434113E-03
   1.9961292025130632E-02   3.1507793357706086E-02   4.3224268832633701E-02
   5.5097521204546217E-02   6.7113917841050669E-02   7.9259454292579551E-02
   9.1519820959382922E-02   1.0388047193470751E-01   1.1632669499199069E-01
   1.2884368158983173E-01   1.4141659569798448E-01   1.5403064020743767E-01
   1.6667111968589521E-01   1.7932349828360883E-01   1.9197345169148339E-01
   2.0460691221051716E-01   2.1721010621473541E-01   2.2976958358370020E-01
   2.4227223904747275E-01   2.5470532582961425E-01   2.6705646250273640E-01
   2.7931363455575636E-01   2.9146519277827915E-01   3.0349985140557062E-01
   3.1540669116517822E-01   3.2717516792771345E-01   3.3879512881118512E-01
   3.5025684151415049E-01   3.6155095848339325E-01   3.7266840145111374E-01
   3.8360034877774535E-01   3.9433824123541839E-01   4.0487378733540469E-01
   4.1519896748064866E-01   4.2530603688910146E-01   4.3518752717185261E-01
   4.4483624646842479E-01   4.5424527806368548E-01   4.6340797744835605E-01
   4.7231796784062091E-01   4.8096913425931964E-01   4.8935561632735447E-01
   4.9747180008183639E-01   5.0531230916632885E-01   5.1287199586963694E-01
   5.2014593254230856E-01   5.2712940395439367E-01   5.3381790114695249E-01
   5.4020711727013160E-01   5.4629294579423515E-01   5.5207148133503881E-01
   5.5753902316469162E-01   5.6269208130317616E-01   5.6752738492117827E-01
   5.7204189265051175E-01   5.7623280430522283E-01   5.8009757347089708E-01
   5.8363392042120288E-01   5.8683984486267626E-01   5.8971363808114408E-01
   5.9225389415394858E-01   5.9445951998941415E-01   5.9632974404893868E-01
   5.9786412369019093E-01   5.9906255113784657E-01   5.9992525813927855E-01
   6.0045281939705042E-01   6.0064615488984940E-01   6.0050653120125708E-01
   6.0003556197458241E-01   5.9923520760462479E-01   5.9810777426632444E-01
   5.9665591236770665E-01   5.9488261450196844E-01   5.9279121296191062E-01
   5.9038537686991233E-01   5.8766910896846969E-01   5.8464674211009138E-01
   5.8132293548082303E-01   5.7770267058862323E-01   5.7379124704582274E-01
   5.6959427817356201E-01   5.6511768645486926E-01   5.6036769886153803E-01
   5.5535084207751040E-01   5.5007393763769663E-01   5.4454409699545625E-01
   5.3876871652380132E-01   5.3275547244441712E-01   5.2651231566425172E-01
   5.2004746648154643E-01   5.1336940910166939E-01   5.0648688587789992E-01
   4.9940889116414822E-01   4.9214466463598139E-01   4.8470368390476470E-01
   4.7709565621898709E-01   4.6933050901900530E-01   4.6141837908951289E-01
   4.5336960004083637E-01   4.4519468784876676E-01   4.3690432419613950E-01
   4.2850933739094216E-01   4.2002068067876847E-01   4.1144940784739464E-01
   4.0280664609169820E-01   3.9410356621180104E-01   3.8535135032397921E-01
   3.7656115737208851E-01   3.6774408683308496E-01   3.5891114110468036E-01
   3.5007318714045343E-01   3.4124091795241757E-01   3.3242481462995355E-01
   3.2363510952559876E-01   3.1488175123302453E-01   3.0617437193316938E-01
   2.9752225761468509E-01   2.8893432158953458E-01   2.8041908162902202E-01
   2.7198464094502267E-01   2.6363867314053269E-01   2.5538841115702282E-01
   2.4724064015671135E-01   2.3920169419803483E-01   2.3127745649390194E-01
   2.2347336298531828E-01   2.1579440891779897E-01   2.0824515807437269E-01
   2.0082975429600261E-01   1.9355193490735104E-01   1.8641504566184305E-01
   1.7942205682412241E-01   1.7257558001950390E-01   1.6587788549790983E-01
   1.5933091948361983E-01   1.5293632131113760E-01   1.4669544008095708E-01
   1.4060935060649002E-01   1.3467886846390251E-01   1.2890456399942604E-01
   1.2328677519284610E-01   1.1782561932008337E-01   1.1252100340109289E-01
   1.0737263346027398E-01   1.0238002266404256E-01   9.7542498433133742E-02
   9.2859208654364381E-02   8.8329127137564231E-02   8.3951058477462856E-02
   7.9723642487521909E-02   7.5645358373232441E-02   7.1714528806593139E-02
   6.7929324052302481E-02   6.4287766280397979E-02   6.0787734180801342E-02
   5.7426967973610937E-02   5.4203074886036103E-02   5.1113535143692337E-02
   4.8155708501418315E-02   4.5326841317594915E-02   4.2624074156738065E-02
   4.0044449888292928E-02   3.7584922235342939E-02   3.5242364715468995E-02
   3.3013579907238598E-02   3.0895308969671156E-02   2.8884241338303848E-02
   2.6977024519972772E-02   2.5170273908811942E-02   2.3460582548027280E-02
   2.1844530765388649E-02   2.0318695614864733E-02   1.8879660062136445E-02
   1.7524021857613412E-02   1.6248402046875925E-02   1.5049453074955935E-02
   1.3923866447415624E-02   1.2868379917670529E-02   1.1879784176291666E-02
   1.0954929024071580E-02   1.0090729016359745E-02   9.2841685715177452E-03
   8.5323065413113984E-03   7.8322802455810872E-03   7.1813089776432649E-03
   6.5766969905581701E-03   6.0158359776433454E-03   5.4962070634652031E-03
   5.0153823239768320E-03   4.5710258565351131E-03   4.1608944222382826E-03
   3.7828376843830878E-03   3.4347980678966204E-03   3.1148102653510705E-03
   2.8210004156565254E-03   2.5515849817693793E-03   2.3048693537672158E-03
   2.0792462034558406E-03   1.8731936163065442E-03   1.6852730260032360E-03
   1.5141269764221491E-03   1.3584767353874404E-03   1.2171197629507529E-03
   1.0889275175682408E-03
       </PP_GIPAW_WFS_PS>
     </PP_GIPAW_ORBITAL.4>
   </PP_GIPAW_ORBITALS>
   <PP_GIPAW_VLOCAL>
     <PP_GIPAW_VLOCAL_AE size="1078">
   0.0000000000000000E+00  -2.3004418188154826E+01  -2.3004174479438205E+01
  -2.3004363264984466E+01  -2.3004508884300137E+01  -2.3004667785504758E+01
  -2.3004831917598263E+01  -2.3005000766252042E+01  -2.3005174381404792E+01
  -2.3005352857139442E+01  -2.3005536285392548E+01  -2.3005724757114788E+01
  -2.3005918362494338E+01  -2.3006117190863513E+01  -2.3006321330497816E+01
  -2.3006530868456839E+01  -2.3006745890399745E+01  -2.3006966480396365E+01
  -2.3007192720719690E+01  -2.3007424691657004E+01  -2.3007662471273584E+01
  -2.3007906135230186E+01  -2.3008155756504564E+01  -2.3008411405215661E+01
  -2.3008673148333109E+01  -2.3008941049465673E+01  -2.3009215168593318E+01
  -2.3009495561799859E+01  -2.3009782281038113E+01  -2.3010075373826947E+01
  -2.3010374883002441E+01  -2.3010680846425561E+01  -2.3010993296715199E+01
  -2.3011312260939881E+01  -2.3011637760356688E+01  -2.3011969810107587E+01
  -2.3012308418939359E+01  -2.3012653588894882E+01  -2.3013005315053114E+01
  -2.3013363585203340E+01  -2.3013728379597296E+01  -2.3014099670641073E+01
  -2.3014477422618452E+01  -2.3014861591433696E+01  -2.3015252124322100E+01
  -2.3015648959597431E+01  -2.3016052026409575E+01  -2.3016461244493232E+01
  -2.3016876523929582E+01  -2.3017297764932565E+01  -2.3017724857655974E+01
  -2.3018157681959583E+01  -2.3018596107290023E+01  -2.3019039992459380E+01
  -2.3019489185549705E+01  -2.3019943523757753E+01  -2.3020402833313295E+01
  -2.3020866929379789E+01  -2.3021335616012625E+01  -2.3021808686093795E+01
  -2.3022285921375879E+01  -2.3022767092417052E+01  -2.3023251958708332E+01
  -2.3023740268677638E+01  -2.3024231759834134E+01  -2.3024726158847155E+01
  -2.3025223181759326E+01  -2.3025722534138662E+01  -2.3026223911296618E+01
  -2.3026726998558665E+01  -2.3027231471535369E+01  -2.3027736996440183E+01
  -2.3028243230415391E+01  -2.3028749821966805E+01  -2.3029256411268282E+01
  -2.3029762630756096E+01  -2.3030268105417825E+01  -2.3030772453456184E+01
  -2.3031275286724540E+01  -2.3031776211288928E+01  -2.3032274828076382E+01
  -2.3032770733404213E+01  -2.3033263519692049E+01  -2.3033752776048928E+01
  -2.3034238089000773E+01  -2.3034719043181781E+01  -2.3035195222053499E+01
  -2.3035666208586925E+01  -2.3036131586105835E+01  -2.3036590938947864E+01
  -2.3037043853291348E+01  -2.3037489917897847E+01  -2.3037928724903246E+01
  -2.3038359870577800E+01  -2.3038782956117451E+01  -2.3039197588423320E+01
  -2.3039603380837683E+01  -2.3039999953924241E+01  -2.3040386936223225E+01
  -2.3040763964917510E+01  -2.3041130686648234E+01  -2.3041486758109308E+01
  -2.3041831846787883E+01  -2.3042165631536488E+01  -2.3042487803283951E+01
  -2.3042798065543682E+01  -2.3043096135024403E+01  -2.3043381742095431E+01
  -2.3043654631343312E+01  -2.3043914561975587E+01  -2.3044161308244831E+01
  -2.3044394659827567E+01  -2.3044614422147166E+01  -2.3044820416624486E+01
  -2.3045012481029783E+01  -2.3045190469556537E+01  -2.3045354253047815E+01
  -2.3045503719080408E+01  -2.3045638772080203E+01  -2.3045759333220715E+01
  -2.3045865340594261E+01  -2.3045956748914751E+01  -2.3046033529606927E+01
  -2.3046095670525169E+01  -2.3046143175810997E+01  -2.3046176065646652E+01
  -2.3046194375974018E+01  -2.3046198158189913E+01  -2.3046187478812307E+01
  -2.3046162419039661E+01  -2.3046123074434796E+01  -2.3046069554363086E+01
  -2.3046001981634753E+01  -2.3045920491916917E+01  -2.3045825233262210E+01
  -2.3045716365535370E+01  -2.3045594059879654E+01  -2.3045458498101542E+01
  -2.3045309872117528E+01  -2.3045148383312256E+01  -2.3044974241930049E+01
  -2.3044787666463062E+01  -2.3044588883021031E+01  -2.3044378124672324E+01
  -2.3044155630858985E+01  -2.3043921646699900E+01  -2.3043676422430426E+01
  -2.3043420212722623E+01  -2.3043153276103165E+01  -2.3042875874330477E+01
  -2.3042588271791651E+01  -2.3042290734927040E+01  -2.3041983531650391E+01
  -2.3041666930808443E+01  -2.3041341201593738E+01  -2.3041006613082153E+01
  -2.3040663433662147E+01  -2.3040311930593575E+01  -2.3039952369523458E+01
  -2.3039585014020052E+01  -2.3039210125172261E+01  -2.3038827961166898E+01
  -2.3038438776900541E+01  -2.3038042823637532E+01  -2.3037640348641329E+01
  -2.3037231594873571E+01  -2.3036816800696247E+01  -2.3036396199581120E+01
  -2.3035970019878079E+01  -2.3035538484570083E+01  -2.3035101811061374E+01
  -2.3034660210995760E+01  -2.3034213890077250E+01  -2.3033763047930201E+01
  -2.3033307877959977E+01  -2.3032848567246273E+01  -2.3032385296445820E+01
  -2.3031918239720262E+01  -2.3031447564670504E+01  -2.3030973432296999E+01
  -2.3030495996971336E+01  -2.3030015406417537E+01  -2.3029531801722150E+01
  -2.3029045317332880E+01  -2.3028556081091232E+01  -2.3028064214279826E+01
  -2.3027569831640282E+01  -2.3027073041468118E+01  -2.3026573945652505E+01
  -2.3026072639751906E+01  -2.3025569213100422E+01  -2.3025063748871926E+01
  -2.3024556324191604E+01  -2.3024047010234295E+01  -2.3023535872329749E+01
  -2.3023022970082277E+01  -2.3022508357478369E+01  -2.3021992083015558E+01
  -2.3021474189819454E+01  -2.3020954715755590E+01  -2.3020433693601117E+01
  -2.3019911151104015E+01  -2.3019387111184685E+01  -2.3018861592010730E+01
  -2.3018334607152756E+01  -2.3017806165708244E+01  -2.3017276272441013E+01
  -2.3016744927883394E+01  -2.3016212128495710E+01  -2.3015677866761681E+01
  -2.3015142131346437E+01  -2.3014604907172689E+01  -2.3014066175608338E+01
  -2.3013525914489886E+01  -2.3012984098337217E+01  -2.3012440698408454E+01
  -2.3011895682809790E+01  -2.3011349016628667E+01  -2.3010800662024430E+01
  -2.3010250578321255E+01  -2.3009698722139920E+01  -2.3009145047432867E+01
  -2.3008589505658168E+01  -2.3008032045781448E+01  -2.3007472614423527E+01
  -2.3006911155948757E+01  -2.3006347612461422E+01  -2.3005781923997823E+01
  -2.3005214028512817E+01  -2.3004643861978394E+01  -2.3004071358483117E+01
  -2.3003496450217224E+01  -2.3002919067632050E+01  -2.3002339139407717E+01
  -2.3001756592572079E+01  -2.3001171352535007E+01  -2.3000583343109799E+01
  -2.2999992486599890E+01  -2.2999398703832203E+01  -2.2998801914172063E+01
  -2.2998202035620697E+01  -2.2997598984775504E+01  -2.2996992676915490E+01
  -2.2996383026056115E+01  -2.2995769944887478E+01  -2.2995153344910200E+01
  -2.2994533136385353E+01  -2.2993909228376399E+01  -2.2993281528805827E+01
  -2.2992649944402803E+01  -2.2992014380819537E+01  -2.2991374742540298E+01
  -2.2990730932961309E+01  -2.2990082854419533E+01  -2.2989430408118988E+01
  -2.2988773494242317E+01  -2.2988112011882563E+01  -2.2987445859072572E+01
  -2.2986774932820442E+01  -2.2986099129067920E+01  -2.2985418342708396E+01
  -2.2984732467605923E+01  -2.2984041396561043E+01  -2.2983345021360535E+01
  -2.2982643232703005E+01  -2.2981935920272036E+01  -2.2981222972679770E+01
  -2.2980504277458969E+01  -2.2979779721125375E+01  -2.2979049189077990E+01
  -2.2978312565633491E+01  -2.2977569734057067E+01  -2.2976820576459943E+01
  -2.2976064973890900E+01  -2.2975302806240411E+01  -2.2974533952286581E+01
  -2.2973758289653269E+01  -2.2972975694790961E+01  -2.2972186043008762E+01
  -2.2971389208396467E+01  -2.2970585063845942E+01  -2.2969773481049476E+01
  -2.2968954330435899E+01  -2.2968127481200760E+01  -2.2967292801266751E+01
  -2.2966450157255533E+01  -2.2965599414508368E+01  -2.2964740437012150E+01
  -2.2963873087431026E+01  -2.2962997227062839E+01  -2.2962112715803610E+01
  -2.2961219412173403E+01  -2.2960317173240252E+01  -2.2959405854644849E+01
  -2.2958485310544553E+01  -2.2957555393611226E+01  -2.2956615955006360E+01
  -2.2955666844349484E+01  -2.2954707909700513E+01  -2.2953738997539872E+01
  -2.2952759952728240E+01  -2.2951770618510228E+01  -2.2950770836453920E+01
  -2.2949760446466993E+01  -2.2948739286726902E+01  -2.2947707193679527E+01
  -2.2946664002032040E+01  -2.2945609544677488E+01  -2.2944543652702517E+01
  -2.2943466155361648E+01  -2.2942376880022959E+01  -2.2941275652179282E+01
  -2.2940162295366772E+01  -2.2939036631201628E+01  -2.2937898479288741E+01
  -2.2936747657223318E+01  -2.2935583980582155E+01  -2.2934407262831115E+01
  -2.2933217315360828E+01  -2.2932013947416028E+01  -2.2930796966067639E+01
  -2.2929566176214358E+01  -2.2928321380495234E+01  -2.2927062379307429E+01
  -2.2925788970734125E+01  -2.2924500950562258E+01  -2.2923198112190093E+01
  -2.2921880246627147E+01  -2.2920547142460624E+01  -2.2919198585799776E+01
  -2.2917834360279890E+01  -2.2916454246970545E+01  -2.2915058024404075E+01
  -2.2913645468481032E+01  -2.2912216352466267E+01  -2.2910770446954434E+01
  -2.2909307519812270E+01  -2.2907827336149740E+01  -2.2906329658302162E+01
  -2.2904814245753297E+01  -2.2903280855122595E+01  -2.2901729240123920E+01
  -2.2900159151507637E+01  -2.2898570337056061E+01  -2.2896962541491543E+01
  -2.2895335506494920E+01  -2.2893688970606110E+01  -2.2892022669221362E+01
  -2.2890336334537686E+01  -2.2888629695496043E+01  -2.2886902477780293E+01
  -2.2885154403711415E+01  -2.2883385192261642E+01  -2.2881594558966512E+01
  -2.2879782215902679E+01  -2.2877947871639979E+01  -2.2876091231187512E+01
  -2.2874211995938559E+01  -2.2872309863660657E+01  -2.2870384528397448E+01
  -2.2868435680452968E+01  -2.2866463006337490E+01  -2.2864466188701993E+01
  -2.2862444906318114E+01  -2.2860398833993045E+01  -2.2858327642553707E+01
  -2.2856230998756711E+01  -2.2854108565269936E+01  -2.2851960000604873E+01
  -2.2849784959051590E+01  -2.2847583090665815E+01  -2.2845354041156888E+01
  -2.2843097451887729E+01  -2.2840812959773778E+01  -2.2838500197266939E+01
  -2.2836158792264921E+01  -2.2833788368085951E+01  -2.2831388543374352E+01
  -2.2828958932087435E+01  -2.2826499143394116E+01  -2.2824008781641748E+01
  -2.2821487446287406E+01  -2.2818934731834474E+01  -2.2816350227789947E+01
  -2.2813733518575610E+01  -2.2811084183487445E+01  -2.2808401796623997E+01
  -2.2805685926818857E+01  -2.2802936137598408E+01  -2.2800151987085322E+01
  -2.2797333027964790E+01  -2.2794478807401582E+01  -2.2791588866972727E+01
  -2.2788662742617632E+01  -2.2785699964554031E+01  -2.2782700057214797E+01
  -2.2779662539195993E+01  -2.2776586923160721E+01  -2.2773472715797840E+01
  -2.2770319417732445E+01  -2.2767126523463507E+01  -2.2763893521301821E+01
  -2.2760619893279710E+01  -2.2757305115109052E+01  -2.2753948656074950E+01
  -2.2750549978992755E+01  -2.2747108540120692E+01  -2.2743623789085472E+01
  -2.2740095168828024E+01  -2.2736522115501732E+01  -2.2732904058418466E+01
  -2.2729240419974346E+01  -2.2725530615559602E+01  -2.2721774053498308E+01
  -2.2717970134970287E+01  -2.2714118253924280E+01  -2.2710217797027006E+01
  -2.2706268143555739E+01  -2.2702268665346143E+01  -2.2698218726704852E+01
  -2.2694117684332966E+01  -2.2689964887254856E+01  -2.2685759676733682E+01
  -2.2681501386204715E+01  -2.2677189341182697E+01  -2.2672822859198618E+01
  -2.2668401249716631E+01  -2.2663923814055902E+01  -2.2659389845314415E+01
  -2.2654798628296689E+01  -2.2650149439424037E+01  -2.2645441546674952E+01
  -2.2640674209490939E+01  -2.2635846678712241E+01  -2.2630958196497446E+01
  -2.2626007996242990E+01  -2.2620995302520509E+01  -2.2615919330984049E+01
  -2.2610779288309818E+01  -2.2605574372111821E+01  -2.2600303770872308E+01
  -2.2594966663874079E+01  -2.2589562221112580E+01  -2.2584089603242862E+01
  -2.2578547961489097E+01  -2.2572936437589597E+01  -2.2567254163716520E+01
  -2.2561500262418107E+01  -2.2555673846531601E+01  -2.2549774019142696E+01
  -2.2543799873496614E+01  -2.2537750492943715E+01  -2.2531624950878406E+01
  -2.2525422310665544E+01  -2.2519141625596898E+01  -2.2512781938812132E+01
  -2.2506342283259695E+01  -2.2499821681625264E+01  -2.2493219146283508E+01
  -2.2486533679246026E+01  -2.2479764272105900E+01  -2.2472909905996111E+01
  -2.2465969551529678E+01  -2.2458942168767660E+01  -2.2451826707162990E+01
  -2.2444622105532783E+01  -2.2437327292004742E+01  -2.2429941183996949E+01
  -2.2422462688165854E+01  -2.2414890700395478E+01  -2.2407224105748750E+01
  -2.2399461778453976E+01  -2.2391602581878935E+01  -2.2383645368507747E+01
  -2.2375588979929429E+01  -2.2367432246816911E+01  -2.2359173988924635E+01
  -2.2350813015071779E+01  -2.2342348123145449E+01  -2.2333778100099902E+01
  -2.2325101721952041E+01  -2.2316317753803467E+01  -2.2307424949834409E+01
  -2.2298422053329897E+01  -2.2289307796695198E+01  -2.2280080901478296E+01
  -2.2270740078397441E+01  -2.2261284027375549E+01  -2.2251711437569984E+01
  -2.2242020987422194E+01  -2.2232211344694701E+01  -2.2222281166524652E+01
  -2.2212229099480510E+01  -2.2202053779617376E+01  -2.2191753832548756E+01
  -2.2181327873507033E+01  -2.2170774507428280E+01  -2.2160092329024771E+01
  -2.2149279922874737E+01  -2.2138335863514801E+01  -2.2127258715532626E+01
  -2.2116047033669446E+01  -2.2104699362933843E+01  -2.2093214238706249E+01
  -2.2081590186863735E+01  -2.2069825723903211E+01  -2.2057919357071313E+01
  -2.2045869584504175E+01  -2.2033674895363156E+01  -2.2021333769990179E+01
  -2.2008844680055951E+01  -2.1996206088721163E+01  -2.1983416450805777E+01
  -2.1970474212952453E+01  -2.1957377813814240E+01  -2.1944125684226851E+01
  -2.1930716247403478E+01  -2.1917147919127405E+01  -2.1903419107952690E+01
  -2.1889528215405146E+01  -2.1875473636199867E+01  -2.1861253758449838E+01
  -2.1846866963892140E+01  -2.1832311628110041E+01  -2.1817586120765451E+01
  -2.1802688805834663E+01  -2.1787618041844958E+01  -2.1772372182125295E+01
  -2.1756949575044263E+01  -2.1741348564272396E+01  -2.1725567489029046E+01
  -2.1709604684345560E+01  -2.1693458481326768E+01  -2.1677127207411399E+01
  -2.1660609186645001E+01  -2.1643902739940685E+01  -2.1627006185355782E+01
  -2.1609917838359376E+01  -2.1592636012105665E+01  -2.1575159017705307E+01
  -2.1557485164501838E+01  -2.1539612760336631E+01  -2.1521540111826095E+01
  -2.1503265524626670E+01  -2.1484787303704788E+01  -2.1466103753599921E+01
  -2.1447213178684954E+01  -2.1428113883428452E+01  -2.1408804172640643E+01
  -2.1389282351727417E+01  -2.1369546726930462E+01  -2.1349595605562669E+01
  -2.1329427296240357E+01  -2.1309040109100845E+01  -2.1288432356019207E+01
  -2.1267602350809021E+01  -2.1246548409419539E+01  -2.1225268850118468E+01
  -2.1203761993662987E+01  -2.1182026163462325E+01  -2.1160059685726704E+01
  -2.1137860889596737E+01  -2.1115428107270095E+01  -2.1092759674101721E+01
  -2.1069853928696489E+01  -2.1046709212983359E+01  -2.1023323872268332E+01
  -2.0999696255278895E+01  -2.0975824714179826E+01  -2.0951707604578594E+01
  -2.0927343285506918E+01  -2.0902730119383396E+01  -2.0877866471958658E+01
  -2.0852750712233526E+01  -2.0827381212362496E+01  -2.0801756347534170E+01
  -2.0775874495826951E+01  -2.0749734038047343E+01  -2.0723333357545268E+01
  -2.0696670840005833E+01  -2.0669744873224065E+01  -2.0642553846852181E+01
  -2.0615096152133422E+01  -2.0587370181609650E+01  -2.0559374328813146E+01
  -2.0531106987939168E+01  -2.0502566553498053E+01  -2.0473751419956226E+01
  -2.0444659981355468E+01  -2.0415290630924275E+01  -2.0385641760674289E+01
  -2.0355711760986672E+01  -2.0325499020191280E+01  -2.0295001924141129E+01
  -2.0264218855780427E+01  -2.0233148194716708E+01  -2.0201788316791902E+01
  -2.0170137593661202E+01  -2.0138194392382317E+01  -2.0105957075013471E+01
  -2.0073423998234489E+01  -2.0040593512982941E+01  -2.0007463964120252E+01
  -1.9974033690125015E+01  -1.9940301022821860E+01  -1.9906264287150968E+01
  -1.9871921800978399E+01  -1.9837271874960479E+01  -1.9802312812458933E+01
  -1.9767042909518572E+01  -1.9731460454907165E+01  -1.9695563730227637E+01
  -1.9659351010101826E+01  -1.9622820562437155E+01  -1.9585970648772136E+01
  -1.9548799524712557E+01  -1.9511305440456873E+01  -1.9473486641414656E+01
  -1.9435341368921872E+01  -1.9396867861049653E+01  -1.9358064353515321E+01
  -1.9318929080684924E+01  -1.9279460276674289E+01  -1.9239656176543221E+01
  -1.9199515017574797E+01  -1.9159035040644920E+01  -1.9118214491664322E+01
  -1.9077051623096899E+01  -1.9035544695540953E+01  -1.8993691979366130E+01
  -1.8951491756400014E+01  -1.8908942321656003E+01  -1.8866041985093695E+01
  -1.8822789073411631E+01  -1.8779181931865043E+01  -1.8735218926116467E+01
  -1.8690898444122560E+01  -1.8646218898074274E+01  -1.8601178726415625E+01
  -1.8555776395971286E+01  -1.8510010404240038E+01  -1.8463879281913435E+01
  -1.8417381595704796E+01  -1.8370515951602499E+01  -1.8323280998664252E+01
  -1.8275675433525741E+01  -1.8227698005807657E+01  -1.8179347524624557E+01
  -1.8130622866473281E+01  -1.8081522984751800E+01  -1.8032046921226378E+01
  -1.7982193819782502E+01  -1.7931962942777062E+01  -1.7881353690352892E+01
  -1.7830365623032847E+01  -1.7778998487874688E+01  -1.7727252248440372E+01
  -1.7675127118691858E+01  -1.7622623600851103E+01  -1.7569742527080368E+01
  -1.7516485104626650E+01  -1.7462852963875687E+01  -1.7408848208450049E+01
  -1.7354473466200631E+01  -1.7299731939652805E+01  -1.7244627453995921E+01
  -1.7189164501040153E+01  -1.7133348275382694E+01  -1.7077184702526377E+01
  -1.7020680453933583E+01  -1.6963842947830845E+01  -1.6906680332686360E+01
  -1.6849201451245317E+01  -1.6791415783272821E+01  -1.6733333365799403E+01
  -1.6674964690288427E+01  -1.6616320576928107E+01  -1.6557412027060465E+01
  -1.6498250055531702E+01  -1.6438845505526068E+01  -1.6379208849168553E+01
  -1.6319349977798780E+01  -1.6259277986487909E+01  -1.6199000957993370E+01
  -1.6138525752002927E+01  -1.6077857806359706E+01  -1.6017000957735256E+01
  -1.5955957290098329E+01  -1.5894727020049809E+01  -1.5833308428356659E+01
  -1.5771697846772470E+01  -1.5709889707943910E+01  -1.5647876663800270E+01
  -1.5585649774300252E+01  -1.5523198763692911E+01  -1.5460512336221498E+01
  -1.5397578537865185E+01  -1.5334385146039581E+01  -1.5270920066072380E+01
  -1.5207171712015910E+01  -1.5143129350490748E+01  -1.5078783389592481E+01
  -1.5014125599880213E+01  -1.4949149260650856E+01  -1.4883849231012233E+01
  -1.4818221951016895E+01  -1.4752265382772555E+01  -1.4685978904418102E+01
  -1.4619363171277280E+01  -1.4552419958384498E+01  -1.4485151997199205E+01
  -1.4417562817198938E+01  -1.4349656600428780E+01  -1.4281438054370106E+01
  -1.4212912306042350E+01  -1.4144084818032583E+01  -1.4074961325498792E+01
  -1.4005547791966118E+01  -1.3935850380929338E+01  -1.3865875439956342E+01
  -1.3795629493888997E+01  -1.3725119243931415E+01  -1.3654351569792130E+01
  -1.3583333532454303E+01  -1.3512072375664770E+01  -1.3440575524727972E+01
  -1.3368850581615661E+01  -1.3296905315843464E+01  -1.3224747650897386E+01
  -1.3152385646237123E+01  -1.3079827475166276E+01  -1.3007081398944010E+01
  -1.2934155737653601E+01  -1.2861058838371996E+01  -1.2787799041189970E+01
  -1.2714384643654045E+01  -1.2640823864143291E+01  -1.2567124804664424E+01
  -1.2493295413525518E+01  -1.2419343448269792E+01  -1.2345276439234626E+01
  -1.2271101654069200E+01  -1.2196826063472630E+01  -1.2122456308445587E+01
  -1.2047998669284640E+01  -1.1973459036546920E+01  -1.1898842884233723E+01
  -1.1824155245387063E+01  -1.1749400690347422E+01  -1.1674583307901090E+01
  -1.1599706689543435E+01  -1.1524773917135199E+01  -1.1449787554192815E+01
  -1.1374749641091372E+01  -1.1299661694480339E+01  -1.1224524711171110E+01
  -1.1149339176813172E+01  -1.1074105079634835E+01  -1.0998821929505665E+01
  -1.0923488782587381E+01  -1.0848104271746472E+01  -1.0772666642873720E+01
  -1.0697173797161788E+01  -1.0621623339247702E+01  -1.0546012631012340E+01
  -1.0470338850602294E+01  -1.0394599056003997E+01  -1.0318790252233196E+01
  -1.0242909460815124E+01  -1.0166953789881553E+01  -1.0090920502754345E+01
  -1.0014807082407572E+01  -9.9386112887707565E+00  -9.8623312053557033E+00
  -9.7859652713700704E+00  -9.7095122952971433E+00  -9.6329714459771285E+00
  -9.5563422177293269E+00  -9.4796243668955089E+00  -9.4028178198888526E+00
  -9.3259225525323153E+00  -9.2489384500171372E+00  -9.1718651550515418E+00
  -9.0947019242598266E+00  -9.0174475182899716E+00  -8.9401001620569982E+00
  -8.8626576223220574E+00  -8.7851174614011427E+00  -8.7074775346849336E+00
  -8.6297368077550942E+00  -8.5518965656361132E+00  -8.4739620762632342E+00
  -8.3959447406288596E+00  -8.3178647126101808E+00  -8.2397538972458815E+00
  -8.1616591377830225E+00  -8.0836452846358213E+00  -8.0057977157970477E+00
  -7.9282237676967267E+00  -7.8510524623288527E+00  -7.7744319064220662E+00
  -7.6985238156787874E+00  -7.6234948034869312E+00  -7.5495043927490046E+00
  -7.4766901889825039E+00  -7.4051513119781252E+00  -7.3349319933563342E+00
  -7.2660080649331915E+00  -7.1982795779682744E+00  -7.1315725712209730E+00
  -7.0656516860733127E+00  -7.0002429392558394E+00  -6.9350631452887210E+00
  -6.8698503372257163E+00  -6.8043890887195575E+00  -6.7385261920776260E+00
  -6.6721750364141528E+00  -6.6053100221213912E+00  -6.5379543438885346E+00
  -6.4701650300559601E+00  -6.4020184873901824E+00  -6.3335985728969106E+00
  -6.2649879791674161E+00  -6.1962628181421158E+00  -6.1274898054025577E+00
  -6.0587253058882977E+00  -5.9900155689566503E+00  -5.9213976362850058E+00
  -5.8529005711131843E+00  -5.7845467926885856E+00  -5.7163533945697793E+00
  -5.6483333838309928E+00  -5.5804968101959398E+00  -5.5128517698182318E+00
  -5.4454052756952578E+00  -5.3781639906514833E+00  -5.3111348221036057E+00
  -5.2443253813677746E+00  -5.1777443141360022E+00  -5.1114015124203567E+00
  -5.0453082213470628E+00  -4.9794770562829358E+00  -4.9139219467593129E+00
  -4.8486580236159096E+00  -4.7837014648338156E+00  -4.7190693139437636E+00
  -4.6547792829492982E+00  -4.5908495495736368E+00  -4.5272985565645865E+00
  -4.4641448188051829E+00  -4.4014067426175636E+00  -4.3391024593250576E+00
  -4.2772496755769964E+00  -4.2158655402505563E+00  -4.1549665285253887E+00
  -4.0945683425200965E+00  -4.0346858278446511E+00  -3.9753329052011925E+00
  -3.9165225160737553E+00  -3.8582665815501653E+00  -3.8005759733315019E+00
  -3.7434604960339155E+00  -3.6869288799765352E+00  -3.6309887836975796E+00
  -3.5756468055266843E+00  -3.5209085036211509E+00  -3.4667784238969452E+00
  -3.4132601353767194E+00  -3.3603562724826093E+00  -3.3080685838271080E+00
  -3.2563979870889668E+00  -3.2053446295142725E+00  -3.1549079535943436E+00
  -3.1050867674425788E+00  -3.0558793190867317E+00  -3.0072833751631998E+00
  -2.9592963003657462E+00  -2.9119151415291968E+00  -2.8651367107361287E+00
  -2.8189576693538294E+00  -2.7733746105507229E+00  -2.7283841399416819E+00
  -2.6839829516123772E+00  -2.6401678995430147E+00  -2.5969360619835573E+00
  -2.5542847976674379E+00  -2.5122117924566436E+00  -2.4707150952439543E+00
  -2.4297931422694439E+00  -2.3894447694215164E+00  -2.3496692126478402E+00
  -2.3104660973025477E+00  -2.2718354180212530E+00  -2.2337775117443406E+00
  -2.1962930270381307E+00  -2.1593828945593585E+00  -2.1230483033906578E+00
  -2.0872906893585799E+00  -2.0521117413397811E+00  -2.0175134315240300E+00
  -1.9834980747485642E+00  -1.9500684204463645E+00  -1.9172277782159870E+00
  -1.8849801744698347E+00  -1.8533305330521852E+00  -1.8222848672148972E+00
  -1.7918504642102555E+00  -1.7620360375824791E+00  -1.7328518166928057E+00
  -1.7043095392642418E+00  -1.6764223119501551E+00  -1.6492043073550788E+00
  -1.6226702747660564E+00  -1.5968348564596313E+00  -1.5717117216371721E+00
  -1.5473125542424357E+00  -1.5236459563012577E+00  -1.5007163511851445E+00
  -1.4785229867857999E+00  -1.4570591428677944E+00  -1.4363116371488924E+00
  -1.4162607003471275E+00  -1.3968802540650325E+00  -1.3781385819938781E+00
  -1.3599993412961127E+00  -1.3424228245076277E+00  -1.3253673585790071E+00
  -1.3087907200581035E+00  -1.2926514540261733E+00  -1.2769100061129004E+00
  -1.2615296070050956E+00  -1.2464768815608356E+00  -1.2317221848420146E+00
  -1.2172396915162880E+00  -1.2030072811175139E+00  -1.1890062695289496E+00
  -1.1752210378403818E+00  -1.1616386051460257E+00  -1.1482481840805270E+00
  -1.1350407486284326E+00  -1.1220086344857907E+00  -1.1091451840207585E+00
  -1.0964444410688787E+00  -1.0839008957081164E+00  -1.0715092756457345E+00
  -1.0592643786892757E+00  -1.0471609397463013E+00  -1.0351935255783933E+00
  -1.0233564508478792E+00  -1.0116437097428193E+00  -1.0000489183148358E+00
  -9.8856526369636122E-01  -9.7718545736547269E-01  -9.6590169060746089E-01
  -9.5470559130917043E-01  -9.4358818213030704E-01  -9.3253984099208775E-01
  -9.2155026572452514E-01  -9.1060844555982046E-01  -8.9970264302967262E-01
  -8.8882039067041974E-01  -8.7794850769571331E-01  -8.6707314250126599E-01
  -8.5617984736396413E-01  -8.4525369190753952E-01  -8.3427942179532544E-01
  -8.2324166839158841E-01  -8.1212521385397163E-01  -8.0091531403142857E-01
  -7.8959807864248133E-01  -7.7816090452280751E-01  -7.6659295330176969E-01
  -7.5488565997955859E-01  -7.4303325390044916E-01  -7.3103326934151336E-01
  -7.1888701670635369E-01  -7.0659999158220743E-01  -6.9418218297556833E-01
  -6.8164826281489654E-01  -6.6901762994670710E-01  -6.5631429492028781E-01
  -6.4356659906651559E-01  -6.3080677124661533E-01  -6.1807033531759936E-01
  -6.0539539012524024E-01  -5.9282179084309006E-01  -5.8039026514554115E-01
  -5.6814149971326444E-01  -5.5611523200912305E-01  -5.4434937942269879E-01
  -5.3287923329806663E-01  -5.2173673968752143E-01  -5.1094988253508411E-01
  -5.0054217898851783E-01  -4.9053229110411750E-01  -4.8093375365938529E-01
  -4.7175481426924193E-01  -4.6299837953349976E-01  -4.5466205945267246E-01
  -4.4673830165872219E-01  -4.3921460694404729E-01  -4.3207381790934740E-01
  -4.2529447307484469E-01  -4.1885121935963310E-01  -4.1271527622640847E-01
  -4.0685494495107910E-01  -4.0123615631819304E-01  -3.9582304953507758E-01
  -3.9057857436655030E-01  -3.8546510745411822E-01  -3.8044507263638666E-01
  -3.7548155398619237E-01  -3.7053888935741880E-01  -3.6558323168716567E-01
  -3.6058306525124412E-01  -3.5550966462850564E-01  -3.5033748535433817E-01
  -3.4504447711935249E-01  -3.3961231280806176E-01  -3.3402652956247747E-01
  -3.2827658117936348E-01  -3.2235580432938632E-01  -3.1626130408545000E-01
  -3.0999376688058478E-01  -3.0355721113227541E-01  -2.9695868725503993E-01
  -2.9020793960145652E-01  -2.8331704303143163E-01  -2.7630002636715939E-01
  -2.6917249405014815E-01  -2.6195125599346847E-01  -2.5465397404384998E-01
  -2.4729883176582462E-01  -2.3990423253844120E-01  -2.3248852931044767E-01
  -2.2506978786214454E-01  -2.1766558411356760E-01  -2.1029283492963899E-01
  -2.0296766100641744E-01  -1.9570527977332294E-01  -1.8851992579669041E-01
  -1.8142479589546920E-01  -1.7443201605382544E-01  -1.6755262720978722E-01
  -1.6079658708579464E-01  -1.5417278538311396E-01  -1.4768906986437738E-01
  -1.4135228107960490E-01  -1.3516829373612380E-01  -1.2914206295978567E-01
  -1.2327767393546289E-01  -1.1757839364270355E-01  -1.1204672361318535E-01
  -1.0668445282828184E-01  -1.0149271004609592E-01  -9.6472014997733377E-02
  -9.1622328023206273E-02  -8.6943097828828794E-02  -8.2433307142209242E-02
  -7.8091516119289064E-02  -7.3915903421999912E-02  -6.9904304936964368E-02
  -6.6054250146507565E-02  -6.2362996194915574E-02  -5.8827559716623831E-02
  -5.5444746510094595E-02  -5.2211179152857001E-02  -4.9123322660322974E-02
  -4.6177508294538788E-02  -4.3369955629814917E-02  -4.0696792980658654E-02
  -3.8154076294306491E-02  -3.5737806605802003E-02  -3.3443945042102789E-02
  -3.1268336892276198E-02  -2.9205174562506472E-02  -2.7202197398976287E-02
  -2.5279359714415722E-02
     </PP_GIPAW_VLOCAL_AE>
     <PP_GIPAW_VLOCAL_PS size="1078">
   0.0000000000000000E+00  -3.9793935598088121E-04  -4.0295742443207505E-04
  -4.0802645603138174E-04  -4.1315964538430109E-04  -4.1835658187701699E-04
  -4.2361877760720834E-04  -4.2894729085456439E-04  -4.3434288300937530E-04
  -4.3980606761413331E-04  -4.4533819706900921E-04  -4.5093994522324004E-04
  -4.5661203294530481E-04  -4.6235566161395060E-04  -4.6817121315419983E-04
  -4.7405993964722720E-04  -4.8002323459179775E-04  -4.8606085044676977E-04
  -4.9217493191120907E-04  -4.9836567343649663E-04  -5.0463451010544194E-04
  -5.1098166032890904E-04  -5.1740938462519100E-04  -5.2391744900583083E-04
  -5.3050751756022856E-04  -5.3718055438570971E-04  -5.4393741302751614E-04
  -5.5077923162180956E-04  -5.5770732190923305E-04  -5.6472229238846980E-04
  -5.7182561918991590E-04  -5.7901847963025656E-04  -5.8630148679692494E-04
  -5.9367631097901100E-04  -6.0114383476291390E-04  -6.0870521970944028E-04
  -6.1636179822104954E-04  -6.2411479190308157E-04  -6.3196508882124806E-04
  -6.3991436073576147E-04  -6.4796340886255437E-04  -6.5611364479321291E-04
  -6.6436683805543462E-04  -6.7272334728337823E-04  -6.8118528524498524E-04
  -6.8975338890729372E-04  -6.9842947360372566E-04  -7.0721470044674147E-04
  -7.1611030649122406E-04  -7.2511795367006507E-04  -7.3423870898051016E-04
  -7.4347433473973424E-04  -7.5282613198880970E-04  -7.6229548711045350E-04
  -7.7188397115457799E-04  -7.8159307040667411E-04  -7.9142439979609108E-04
  -8.0137918821105499E-04  -8.1145932037454520E-04  -8.2166621686542045E-04
  -8.3200154947491150E-04  -8.4246680980327364E-04  -8.5306380482871424E-04
  -8.6379390811139312E-04  -8.7465922238216451E-04  -8.8566101547938214E-04
  -8.9680122123832998E-04  -9.0808170648588892E-04  -9.1950387404481256E-04
  -9.3106984842985488E-04  -9.4278124863255092E-04  -9.5464003432912383E-04
  -9.6664782898862769E-04  -9.7880684189243102E-04  -9.9111875608889075E-04
  -1.0035853244963644E-03  -1.0162091224895020E-03  -1.0289912347038711E-03
  -1.0419344799776594E-03  -1.0550403281194816E-03  -1.0683111565068519E-03
  -1.0817488783617225E-03  -1.0953555381954135E-03  -1.1091335075972646E-03
  -1.1230845253513526E-03  -1.1372113616895747E-03  -1.1515157058613738E-03
  -1.1659999051893265E-03  -1.1806663688455352E-03  -1.1955174296936336E-03
  -1.2105550733858199E-03  -1.2257820778463658E-03  -1.2412005149158366E-03
  -1.2568128389672897E-03  -1.2726216472784097E-03  -1.2886292221877668E-03
  -1.3048382332802866E-03  -1.3212509833832118E-03  -1.3378703864350356E-03
  -1.3546986551894766E-03  -1.3717386974566378E-03  -1.3889930353225995E-03
  -1.4064644249891548E-03  -1.4241555572595775E-03  -1.4420692402019875E-03
  -1.4602082537206137E-03  -1.4785754065145249E-03  -1.4971735853405420E-03
  -1.5160056761466868E-03  -1.5350747514812652E-03  -1.5543835892293792E-03
  -1.5739353415610189E-03  -1.5937329440895095E-03  -1.6137797264937153E-03
  -1.6340785289554796E-03  -1.6546327210236352E-03  -1.6754454515478300E-03
  -1.6965199128275371E-03  -1.7178595686403334E-03  -1.7394675412653682E-03
  -1.7613473522210966E-03  -1.7835024367034145E-03  -1.8059360712050522E-03
  -1.8286519531962248E-03  -1.8516535853195315E-03  -1.8749444975758650E-03
  -1.8985284175141483E-03  -1.9224089764491464E-03  -1.9465898760568819E-03
  -1.9710750074359001E-03  -1.9958680102739935E-03  -2.0209730366102740E-03
  -2.0463936648413839E-03  -2.0721341577283493E-03  -2.0981983691280592E-03
  -2.1245905022256695E-03  -2.1513145368199441E-03  -2.1783747644477619E-03
  -2.2057753316537913E-03  -2.2335205760011007E-03  -2.2616147905327000E-03
  -2.2900624054671480E-03  -2.3188678887752397E-03  -2.3480356179509452E-03
  -2.3775702420872225E-03  -2.4074764462946319E-03  -2.4377587592260713E-03
  -2.4684220067207330E-03  -2.4994708764229526E-03  -2.5309103892331170E-03
  -2.5627453395034908E-03  -2.5949806771601689E-03  -2.6276215362276414E-03
  -2.6606729385730021E-03  -2.6941400937862442E-03  -2.7280281808359768E-03
  -2.7623425444880390E-03  -2.7970885879937935E-03  -2.8322716100463215E-03
  -2.8678971737003600E-03  -2.9039709258604348E-03  -2.9404983241355779E-03
  -2.9774852830732361E-03  -3.0149374312665421E-03  -3.0528606901189395E-03
  -3.0912609255678999E-03  -3.1301441784946831E-03  -3.1695166086416790E-03
  -3.2093841877166990E-03  -3.2497532615986440E-03  -3.2906301588913559E-03
  -3.3320211481443741E-03  -3.3739328498896396E-03  -3.4163716573042610E-03
  -3.4593443852730344E-03  -3.5028575268215693E-03  -3.5469180559245719E-03
  -3.5915328365050928E-03  -3.6367087025866822E-03  -3.6824529104399263E-03
  -3.7287724521023516E-03  -3.7756746167016400E-03  -3.8231667806372677E-03
  -3.8712562834876479E-03  -3.9199507114052153E-03  -3.9692575907709447E-03
  -4.0191847354821494E-03  -4.0697398387615005E-03  -4.1209308747905751E-03
  -4.1727657920561630E-03  -4.2252527253918721E-03  -4.2783998633340072E-03
  -4.3322154993310335E-03  -4.3867080890755790E-03  -4.4418860420310314E-03
  -4.4977581353253518E-03  -4.5543329372060458E-03  -4.6116193873087605E-03
  -4.6696264468897523E-03  -4.7283630854028959E-03  -4.7878386011048308E-03
  -4.8480621656938512E-03  -4.9090432906960611E-03  -4.9707914560475387E-03
  -5.0333163161394275E-03  -5.0966276279701015E-03  -5.1607353191130065E-03
  -5.2256493734111620E-03  -5.2913799635107544E-03  -5.3579373097236037E-03
  -5.4253318582112844E-03  -5.4935741546659183E-03  -5.5626747849339625E-03
  -5.6326446337269650E-03  -5.7034945694906360E-03  -5.7752357013786757E-03
  -5.8478792342156801E-03  -5.9214364688749592E-03  -5.9959189962131444E-03
  -6.0713383429050836E-03  -6.1477063872247256E-03  -6.2250350216967497E-03
  -6.3033363045397525E-03  -6.3826225209527862E-03  -6.4629060194771387E-03
  -6.5441993665398329E-03  -6.6265152591219048E-03  -6.7098665539954885E-03
  -6.7942662845232281E-03  -6.8797276241683858E-03  -6.9662639442624047E-03
  -7.0538887493570264E-03  -7.1426157513743028E-03  -7.2324587799986635E-03
  -7.3234319125549943E-03  -7.4155493356911038E-03  -7.5088254697705985E-03
  -7.6032748412251158E-03  -7.6989122776369937E-03  -7.7957526581458551E-03
  -7.8938111526596841E-03  -7.9931030643684182E-03  -8.0936439058305800E-03
  -8.1954494184719538E-03  -8.2985354668429611E-03  -8.4029181918835218E-03
  -8.5086138740509670E-03  -8.6156390629994629E-03  -8.7240104391213217E-03
  -8.8337449719152715E-03  -8.9448598042484225E-03  -9.0573722692730268E-03
  -9.1712999864762747E-03  -9.2866607251556686E-03  -9.4034725121737682E-03
  -9.5217536385554559E-03  -9.6415225326781408E-03  -9.7627979475577581E-03
  -9.8855988110375607E-03  -1.0009944329686172E-02  -1.0135853900651760E-02
  -1.0263347235560589E-02  -1.0392444237939273E-02  -1.0523165087237954E-02
  -1.0655530169529354E-02  -1.0789560229659007E-02  -1.0925276178767190E-02
  -1.1062699211758871E-02  -1.1201850814356977E-02  -1.1342752724486463E-02
  -1.1485426978316927E-02  -1.1629895834229891E-02  -1.1776181894934189E-02
  -1.1924307997526216E-02  -1.2074297306038866E-02  -1.2226173245335944E-02
  -1.2379959537892412E-02  -1.2535680223534157E-02  -1.2693359659360578E-02
  -1.2853022421563937E-02  -1.3014693509550760E-02  -1.3178398162921580E-02
  -1.3344161981958683E-02  -1.3512010832263475E-02  -1.3681970963571830E-02
  -1.3854068940273986E-02  -1.4028331628430653E-02  -1.4204786270958511E-02
  -1.4383460451796556E-02  -1.4564382056328082E-02  -1.4747579386250508E-02
  -1.4933081048961926E-02  -1.5120916034484903E-02  -1.5311113688469054E-02
  -1.5503703728856035E-02  -1.5698716256113739E-02  -1.5896181742337322E-02
  -1.6096131032023054E-02  -1.6298595363376571E-02  -1.6503606398135265E-02
  -1.6711196134031780E-02  -1.6921397020358730E-02  -1.7134241938597326E-02
  -1.7349764075483703E-02  -1.7567997164313856E-02  -1.7788975280660702E-02
  -1.8012732955883116E-02  -1.8239305152361558E-02  -1.8468727268282512E-02
  -1.8701035166572521E-02  -1.8936265125243160E-02  -1.9174453912070882E-02
  -1.9415638736136255E-02  -1.9659857303216496E-02  -1.9907147729600443E-02
  -2.0157548707661545E-02  -2.0411099322838334E-02  -2.0667839220306152E-02
  -2.0927808489512287E-02  -2.1191047770277190E-02  -2.1457598187479755E-02
  -2.1727501392794384E-02  -2.2000799551332773E-02  -2.2277535376360329E-02
  -2.2557752099804311E-02  -2.2841493508810685E-02  -2.3128803941593768E-02
  -2.3419728284129894E-02  -2.3714311998176245E-02  -2.4012601114642238E-02
  -2.4314642233822334E-02  -2.4620482554929265E-02  -2.4930169868421441E-02
  -2.5243752557848765E-02  -2.5561279615091925E-02  -2.5882800677877578E-02
  -2.6208365948046000E-02  -2.6538026329009135E-02  -2.6871833311651331E-02
  -2.7209839060586372E-02  -2.7552096380003981E-02  -2.7898658758135578E-02
  -2.8249580345005052E-02  -2.8604915966714006E-02  -2.8964721142129952E-02
  -2.9329052100404773E-02  -2.9697965765202998E-02  -3.0071519769872077E-02
  -3.0449772497593747E-02  -3.0832783034966883E-02  -3.1220611242723753E-02
  -3.1613317702970364E-02  -3.2010963791046752E-02  -3.2413611627735636E-02
  -3.2821324134216928E-02  -3.3234165008373444E-02  -3.3652198758938975E-02
  -3.4075490712254276E-02  -3.4504106992231741E-02  -3.4938114578895896E-02
  -3.5377581290843778E-02  -3.5822575777363024E-02  -3.6273167583789075E-02
  -3.6729427111705806E-02  -3.7191425645647820E-02  -3.7659235377427117E-02
  -3.8132929398808225E-02  -3.8612581726204256E-02  -3.9098267301900247E-02
  -3.9590062020373476E-02  -4.0088042714054278E-02  -4.0592287195726363E-02
  -4.1102874254793080E-02  -4.1619883670064993E-02  -4.2143396217343122E-02
  -4.2673493699348038E-02  -4.3210258945778811E-02  -4.3753775813387193E-02
  -4.4304129239068180E-02  -4.4861405203648244E-02  -4.5425690788781926E-02
  -4.5997074152831122E-02  -4.6575644584322097E-02  -4.7161492472871540E-02
  -4.7754709358164102E-02  -4.8355387934640684E-02  -4.8963622049668407E-02
  -4.9579506736067050E-02  -5.0203138232579499E-02  -5.0834613971848040E-02
  -5.1474032621299515E-02  -5.2121494084893555E-02  -5.2777099534965587E-02
  -5.3440951394687533E-02  -5.4113153398495581E-02  -5.4793810569554305E-02
  -5.5483029253935390E-02  -5.6180917147185691E-02  -5.6887583284421894E-02
  -5.7603138080706349E-02  -5.8327693337356892E-02  -5.9061362259450474E-02
  -5.9804259480512705E-02  -6.0556501079420670E-02  -6.1318204574383438E-02
  -6.2089488992726087E-02  -6.2870474833269963E-02  -6.3661284119452904E-02
  -6.4462040414344182E-02  -6.5272868827307345E-02  -6.6093896040802250E-02
  -6.6925250341230341E-02  -6.7767061615927174E-02  -6.8619461388257544E-02
  -6.9482582847171445E-02  -7.0356560835707238E-02  -7.1241531917094938E-02
  -7.2137634351137153E-02  -7.3045008146701312E-02  -7.3963795073559380E-02
  -7.4894138680496519E-02  -7.5836184326536424E-02  -7.6790079194332617E-02
  -7.7755972314140623E-02  -7.8734014606294797E-02  -7.9724358865643150E-02
  -8.0727159832467157E-02  -8.1742574171344659E-02  -8.2770760536298185E-02
  -8.3811879561348598E-02  -8.4866093907462234E-02  -8.5933568283862130E-02
  -8.7014469462897162E-02  -8.8108966324123919E-02  -8.9217229859553646E-02
  -9.0339433222617185E-02  -9.1475751735903318E-02  -9.2626362929617387E-02
  -9.3791446571675569E-02  -9.4971184675932893E-02  -9.6165761562965982E-02
  -9.7375363858907424E-02  -9.8600180539070006E-02  -9.9840402960879815E-02
  -1.0109622487831817E-01  -1.0236784248976012E-01  -1.0365545445790007E-01
  -1.0495926193990987E-01  -1.0627946862912352E-01  -1.0761628077407041E-01
  -1.0896990721975801E-01  -1.1034055943753640E-01  -1.1172845155395490E-01
  -1.1313380039151812E-01  -1.1455682549934909E-01  -1.1599774918171878E-01
  -1.1745679654474996E-01  -1.1893419552069266E-01  -1.2043017690751820E-01
  -1.2194497440654875E-01  -1.2347882465531239E-01  -1.2503196726986837E-01
  -1.2660464487340636E-01  -1.2819710314394880E-01  -1.2980959084834348E-01
  -1.3144235987523320E-01  -1.3309566528565853E-01  -1.3476976534471205E-01
  -1.3646492156472156E-01  -1.3818139874409915E-01  -1.3991946501244837E-01
  -1.4167939186679199E-01  -1.4346145422063863E-01  -1.4526593043668062E-01
  -1.4709310238632403E-01  -1.4894325547502588E-01  -1.5081667869985951E-01
  -1.5271366469073600E-01  -1.5463450975229520E-01  -1.5657951391706548E-01
  -1.5854898098693332E-01  -1.6054321858012574E-01  -1.6256253818513766E-01
  -1.6460725520109304E-01  -1.6667768899366572E-01  -1.6877416293944622E-01
  -1.7089700448235015E-01  -1.7304654517580603E-01  -1.7522312074523416E-01
  -1.7742707113164821E-01  -1.7965874054822265E-01  -1.8191847753254070E-01
  -1.8420663500167428E-01  -1.8652357030927039E-01  -1.8886964529507899E-01
  -1.9124522634789076E-01  -1.9365068445744693E-01  -1.9608639527612406E-01
  -1.9855273917375710E-01  -2.0105010130038653E-01  -2.0357887164117797E-01
  -2.0613944508450921E-01  -2.0873222147475856E-01  -2.1135760568093415E-01
  -2.1401600765579998E-01  -2.1670784250289418E-01  -2.1943353053680864E-01
  -2.2219349735243304E-01  -2.2498817388828815E-01  -2.2781799649507997E-01
  -2.3068340700286133E-01  -2.3358485278891392E-01  -2.3652278684782890E-01
  -2.3949766786291440E-01  -2.4250996027536140E-01  -2.4556013435575055E-01
  -2.4864866628113771E-01  -2.5177603820317240E-01  -2.5494273832795855E-01
  -2.5814926098772262E-01  -2.6139610671987268E-01  -2.6468378234415807E-01
  -2.6801280103924585E-01  -2.7138368242510180E-01  -2.7479695264156762E-01
  -2.7825314443005705E-01  -2.8175279721426677E-01  -2.8529645719007601E-01
  -2.8888467740046320E-01  -2.9251801782781733E-01  -2.9619704547981518E-01
  -2.9992233447325806E-01  -3.0369446612646095E-01  -3.0751402904876352E-01
  -3.1138161922744090E-01  -3.1529784012707096E-01  -3.1926330277280263E-01
  -3.2327862585504802E-01  -3.2734443581606937E-01  -3.3146136695213790E-01
  -3.3563006150865105E-01  -3.3985116977998531E-01  -3.4412535020849305E-01
  -3.4845326948871563E-01  -3.5283560266428393E-01  -3.5727303323992482E-01
  -3.6176625327771517E-01  -3.6631596350952872E-01  -3.7092287344278202E-01
  -3.7558770146921006E-01  -3.8031117497388817E-01  -3.8509403044970486E-01
  -3.8993701360706257E-01  -3.9484087949125535E-01  -3.9980639259464018E-01
  -4.0483432697715543E-01  -4.0992546638179567E-01  -4.1508060435606065E-01
  -4.2030054437341358E-01  -4.2558609995401425E-01  -4.3093809479243600E-01
  -4.3635736287878640E-01  -4.4184474862947615E-01  -4.4740110701512253E-01
  -4.5302730368845046E-01  -4.5872421511948391E-01  -4.6449272872589309E-01
  -4.7033374300948388E-01  -4.7624816769260264E-01  -4.8223692385399386E-01
  -4.8830094407202734E-01  -4.9444117256335679E-01  -5.0065856532585062E-01
  -5.0695409028508831E-01  -5.1332872743790170E-01  -5.1978346900427574E-01
  -5.2631931957109612E-01  -5.3293729625086872E-01  -5.3963842882789148E-01
  -5.4642375991837022E-01  -5.5329434512406095E-01  -5.6025125319228442E-01
  -5.6729556617571675E-01  -5.7442837959390891E-01  -5.8165080259888380E-01
  -5.8896395813821312E-01  -5.9636898312678288E-01  -6.0386702861200936E-01
  -6.1145925994773576E-01  -6.1914685696813698E-01  -6.2693101416078600E-01
  -6.3481294084598727E-01  -6.4279386135533934E-01  -6.5087501521237456E-01
  -6.5905765731652477E-01  -6.6734305812817829E-01  -6.7573250385553296E-01
  -6.8422729664446347E-01  -6.9282875476905925E-01  -7.0153821282588713E-01
  -7.1035702192847805E-01  -7.1928654990580088E-01  -7.2832818150139933E-01
  -7.3748331857457683E-01  -7.4675338030537086E-01  -7.5613980340030607E-01
  -7.6564404229918825E-01  -7.7526756938757735E-01  -7.8501187520697790E-01
  -7.9487846867152123E-01  -8.0486887728289991E-01  -8.1498464735088239E-01
  -8.2522734421340416E-01  -8.3559855246051240E-01  -8.4609987615971327E-01
  -8.5673293908388259E-01  -8.6749938494101853E-01  -8.7840087760705587E-01
  -8.8943910135916204E-01  -9.0061576111407549E-01  -9.1193258266524480E-01
  -9.2339131292517729E-01  -9.3499372016802407E-01  -9.4674159427587656E-01
  -9.5863674698551060E-01  -9.7068101213939251E-01  -9.8287624593720058E-01
  -9.9522432719009113E-01  -1.0077271575782589E+00  -1.0203866619080897E+00
  -1.0332047883742401E+00  -1.0461835088224731E+00  -1.0593248190144307E+00
  -1.0726307388950935E+00  -1.0861033128621786E+00  -1.0997446100377626E+00
  -1.1135567245415425E+00  -1.1275417757657475E+00  -1.1417019086541913E+00
  -1.1560392939802795E+00  -1.1705561286286847E+00  -1.1852546358791114E+00
  -1.2001370656908728E+00  -1.2152056949902981E+00  -1.2304628279587382E+00
  -1.2459107963235945E+00  -1.2615519596499916E+00  -1.2773887056344182E+00
  -1.2934234504001514E+00  -1.3096586387936000E+00  -1.3260967446825971E+00
  -1.3427402712554817E+00  -1.3595917513220837E+00  -1.3766537476152241E+00
  -1.3939288530938947E+00  -1.4114196912466308E+00  -1.4291289163968739E+00
  -1.4470592140080207E+00  -1.4652133009896771E+00  -1.4835939260046518E+00
  -1.5022038697757503E+00  -1.5210459453934546E+00  -1.5401229986233109E+00
  -1.5594379082135847E+00  -1.5789935862025810E+00  -1.5987929782256720E+00
  -1.6188390638218209E+00  -1.6391348567393482E+00  -1.6596834052408458E+00
  -1.6804877924067851E+00  -1.7015511364381852E+00  -1.7228765909569910E+00
  -1.7444673453054422E+00  -1.7663266248426157E+00  -1.7884576912389620E+00
  -1.8108638427680550E+00  -1.8335484145952625E+00  -1.8565147790631547E+00
  -1.8797663459731537E+00  -1.9033065628631340E+00  -1.9271389152805096E+00
  -1.9512669270504575E+00  -1.9756941605388030E+00  -2.0004242169089967E+00
  -2.0254607363729726E+00  -2.0508073984349289E+00  -2.0764679221277982E+00
  -2.1024460662419173E+00  -2.1287456295446043E+00  -2.1553704509909415E+00
  -2.1823244099243966E+00  -2.2096114262662483E+00  -2.2372354606944742E+00
  -2.2652005148090875E+00  -2.2935106312850260E+00  -2.3221698940107953E+00
  -2.3511824282110227E+00  -2.3805524005540817E+00  -2.4102840192413337E+00
  -2.4403815340775443E+00  -2.4708492365230357E+00  -2.5016914597223292E+00
  -2.5329125785120232E+00  -2.5645170094036658E+00  -2.5965092105410061E+00
  -2.6288936816295476E+00  -2.6616749638376049E+00  -2.6948576396645181E+00
  -2.7284463327784945E+00  -2.7624457078148743E+00  -2.7968604701413198E+00
  -2.8316953655790318E+00  -2.8669551800832180E+00  -2.9026447393781107E+00
  -2.9387689085421664E+00  -2.9753325915430464E+00  -3.0123407307179528E+00
  -3.0497983061938507E+00  -3.0877103352479591E+00  -3.1260818716011554E+00
  -3.1649180046402097E+00  -3.2042238585682541E+00  -3.2440045914732702E+00
  -3.2842653943130191E+00  -3.3250114898123440E+00  -3.3662481312613695E+00
  -3.4079806012165248E+00  -3.4502142100925006E+00  -3.4929542946376344E+00
  -3.5362062162933703E+00  -3.5799753594186292E+00  -3.6242671293822557E+00
  -3.6690869505070420E+00  -3.7144402638598182E+00  -3.7603325248788342E+00
  -3.8067692008257552E+00  -3.8537557680520167E+00  -3.9012977090712710E+00
  -3.9494005094205318E+00  -3.9980696543014771E+00  -4.0473106249880448E+00
  -4.0971288949811324E+00  -4.1475299259033820E+00  -4.1985191631088927E+00
  -4.2501020309968922E+00  -4.3022839280116578E+00  -4.3550702213002710E+00
  -4.4084662410225288E+00  -4.4624772742782026E+00  -4.5171085586327262E+00
  -4.5723652752252368E+00  -4.6282525414168099E+00  -4.6847754029656512E+00
  -4.7419388256985258E+00  -4.7997476866357935E+00  -4.8582067645551108E+00
  -4.9173207299477806E+00  -4.9770941343312183E+00  -5.0375313988893415E+00
  -5.0986368023852160E+00  -5.1604144683173070E+00  -5.2228683512652898E+00
  -5.2860022223752141E+00  -5.3498196539474163E+00  -5.4143240030541673E+00
  -5.4795183941430459E+00  -5.5454057005718873E+00  -5.6119885249928778E+00
  -5.6792691785419871E+00  -5.7472496587508912E+00  -5.8159316261334553E+00
  -5.8853163793124699E+00  -5.9554048286960599E+00  -6.0261974685732866E+00
  -6.0976943475141860E+00  -6.1698950370829104E+00  -6.2427985986870116E+00
  -6.3164035485438887E+00  -6.3907078206322092E+00  -6.4657087275921077E+00
  -6.5414029194589078E+00  -6.6177863401836188E+00  -6.6948541818867167E+00
  -6.7726008367708594E+00  -6.8510198467149932E+00  -6.9301038505059687E+00
  -7.0098445287773528E+00  -7.0902325467250487E+00  -7.1712574947277421E+00
  -7.2529078270897465E+00  -7.3351707991962529E+00  -7.4180324034592955E+00
  -7.5014773046045349E+00  -7.5854887749457580E+00  -7.6700486305013378E+00
  -7.7551371690201210E+00  -7.8407331111663057E+00  -7.9268135464232081E+00
  -8.0133538855126965E+00  -8.1003278213901329E+00  -8.1877073011999997E+00
  -8.2754625117401659E+00  -8.3635618812173966E+00  -8.4519721001289252E+00
  -8.5406581640223198E+00  -8.6295834406605181E+00  -8.7187097635687962E+00
  -8.8079975531323793E+00  -8.8974059652930944E+00  -8.9868930663302411E+00
  -9.0764160304103960E+00  -9.1659313544686700E+00  -9.2553950826835667E+00
  -9.3447630306693483E+00  -9.4339909975324705E+00  -9.5230349526641422E+00
  -9.6118511837716181E+00  -9.7003963934063062E+00  -9.7886277335078962E+00
  -9.8765027710739322E+00  -9.9639793829542995E+00  -1.0051015583590637E+01
  -1.0137569295543571E+01  -1.0223598078358554E+01  -1.0309058835816655E+01
  -1.0393907524300911E+01  -1.0478098885574427E+01  -1.0561586225445019E+01
  -1.0644321256073653E+01  -1.0726254014455384E+01  -1.0807332863733244E+01
  -1.0887504578264409E+01  -1.0966714508410819E+01  -1.1044906817323509E+01
  -1.1122024779714019E+01  -1.1198011131588018E+01  -1.1272808459847591E+01
  -1.1346359621131562E+01  -1.1418608179768887E+01  -1.1489498855040233E+01
  -1.1558977967844857E+01  -1.1626993876437625E+01  -1.1693497390340777E+01
  -1.1758442151103301E+01  -1.1821784968676617E+01  -1.1883486103046520E+01
  -1.1943509482584501E+01  -1.2001822853400915E+01  -1.2058397857610650E+01
  -1.2113210042555576E+01  -1.2166238807294132E+01  -1.2217467296561523E+01
  -1.2266882255552812E+01  -1.2314473860981701E+01  -1.2360235544665567E+01
  -1.2404163825479003E+01  -1.2446258163902732E+01  -1.2486520850896824E+01
  -1.2524956939715656E+01  -1.2561574225861024E+01  -1.2596383276977196E+01
  -1.2629397511346777E+01  -1.2660633320881152E+01  -1.2690110232282109E+01
  -1.2717851098296189E+01  -1.2743882309703432E+01  -1.2768234017819697E+01
  -1.2790940356649699E+01  -1.2812039653439914E+01  -1.2831574616075036E+01
  -1.2849592485496279E+01  -1.2866145141155693E+01  -1.2881289147342594E+01
  -1.2895085728170907E+01  -1.2907600659141663E+01  -1.2918904063468522E+01
  -1.2929070101973016E+01  -1.2938176546181690E+01  -1.2946304225299029E+01
  -1.2953536338877770E+01  -1.2959957627897206E+01  -1.2965653397365436E+01
  -1.2970708382990791E+01  -1.2975205452424655E+01  -1.2979224127775376E+01
  -1.2982838910147967E+01  -1.2986117378984288E+01  -1.2989118029361448E+01
  -1.2991887799861519E+01  -1.2994459233299336E+01  -1.2996847208211410E+01
  -1.2999045819217892E+01  -1.3001035705552614E+01  -1.3002797342512505E+01
  -1.3004313262989172E+01  -1.3005568492405258E+01  -1.3006551063458051E+01
  -1.3007252645168197E+01  -1.3007669282049445E+01  -1.3007802169511075E+01
  -1.3007666198960386E+01  -1.3007292112199099E+01  -1.3006705988827310E+01
  -1.3005941667352474E+01  -1.3005041871140691E+01  -1.3004058110785321E+01
  -1.3003050086221283E+01  -1.3002084475152420E+01  -1.3001233034509646E+01
  -1.3000570316379184E+01  -1.3000171039527146E+01  -1.3000080065144404E+01
  -1.3000087714446357E+01  -1.3000081827284749E+01  -1.3000055568515975E+01
  -1.3000053830411245E+01  -1.3000051028802043E+01  -1.3000048306105068E+01
  -1.3000045632144611E+01  -1.3000043017256848E+01  -1.3000040473293099E+01
  -1.3000038012664501E+01  -1.3000035647504138E+01  -1.3000033388833868E+01
  -1.3000031245823001E+01  -1.3000029225216693E+01  -1.3000027330988702E+01
  -1.3000025564231327E+01  -1.3000023923275407E+01  -1.3000022404002861E+01
  -1.3000021000293982E+01  -1.3000019704547881E+01  -1.3000018508218165E+01
  -1.3000017402313190E+01  -1.3000016377828501E+01  -1.3000015426089128E+01
  -1.3000014538998951E+01  -1.3000013709197630E+01  -1.3000012930140590E+01
  -1.3000012196115462E+01  -1.3000011502209546E+01  -1.3000010844249029E+01
  -1.3000010218715655E+01  -1.3000009622658995E+01  -1.3000009053605794E+01
  -1.3000008509476464E+01  -1.3000007988508774E+01  -1.3000007489191866E+01
  -1.3000007010211156E+01  -1.3000006550402823E+01  -1.3000006108717788E+01
  -1.3000005684193905E+01  -1.3000005275934953E+01  -1.3000004883095695E+01
  -1.3000004504871871E+01  -1.3000004140493122E+01  -1.3000003789220766E+01
  -1.3000003450346346E+01  -1.3000003123193638E+01  -1.3000002807121438E+01
  -1.3000002501528604E+01  -1.3000002205859472E+01  -1.3000001919611437E+01
  -1.3000001642342584E+01  -1.3000001373680474E+01  -1.3000001113331471E+01
  -1.3000000861089188E+01  -1.3000000616844357E+01  -1.3000000380592077E+01
  -1.3000000152437778E+01  -1.2999999932601359E+01  -1.2999999721417600E+01
  -1.2999999519331475E+01  -1.2999999326879301E+01  -1.2999999145138670E+01
  -1.2999998973635225E+01  -1.2999998814164588E+01  -1.2999998667247850E+01
  -1.2999998533638285E+01  -1.2999998414030742E+01  -1.2999998309061080E+01
  -1.2999998219254197E+01  -1.2999998144994361E+01  -1.2999998086501398E+01
  -1.2999998043812147E+01  -1.2999998016768663E+01  -1.2999998005012880E+01
  -1.2999998007987859E+01  -1.2999998024944519E+01  -1.2999998054953632E+01
  -1.2999998096921503E+01  -1.2999998149608695E+01  -1.2999998211650977E+01
  -1.2999998281581430E+01  -1.2999998357853512E+01  -1.2999998438864450E+01
  -1.2999998522978965E+01  -1.2999998608552824E+01  -1.2999998693956719E+01
  -1.2999998777599844E+01  -1.2999998857953388E+01  -1.2999998933573861E+01
  -1.2999999003125701E+01  -1.2999999065402950E+01  -1.2999999119349470E+01
  -1.2999999164077567E+01  -1.2999999198883424E+01  -1.2999999223259680E+01
  -1.2999999236904115E+01  -1.2999999239723889E+01  -1.2999999231834767E+01
  -1.2999999213555741E+01  -1.2999999185397934E+01  -1.2999999148049181E+01
  -1.2999999102353502E+01  -1.2999999049287352E+01  -1.2999998989932331E+01
  -1.2999998925446294E+01  -1.2999998857033376E+01  -1.2999998785914253E+01
  -1.2999998713297702E+01  -1.2999998640354356E+01  -1.2999998568193549E+01
  -1.2999998497843640E+01  -1.2999998430236475E+01  -1.2999998366195891E+01
  -1.2999998306430379E+01  -1.2999998251529581E+01  -1.2999998201964381E+01
  -1.2999998158090010E+01  -1.2999998120151693E+01  -1.2999998088292276E+01
  -1.2999998062561353E+01  -1.2999998042925233E+01  -1.2999998029277499E+01
  -1.2999998021449592E+01  -1.2999998019221195E+01  -1.2999998022330102E+01
  -1.2999998030481441E+01  -1.2999998043356081E+01  -1.2999998060618168E+01
  -1.2999998081921724E+01  -1.2999998106916381E+01  -1.2999998135252152E+01
  -1.2999998166583492E+01  -1.2999998200572426E+01  -1.2999998236891123E+01
  -1.2999998275223726E+01  -1.2999998315267671E+01  -1.2999998356734501E+01
  -1.2999998399350229E+01  -1.2999998442855377E+01  -1.2999998487004628E+01
  -1.2999998531566222E+01  -1.2999998576321142E+01  -1.2999998621061977E+01
  -1.2999998665591720E+01  -1.2999998709722250E+01  -1.2999998753272653E+01
  -1.2999998796067372E+01  -1.2999998837934072E+01  -1.2999998878701296E+01
  -1.2999998918195766E+01  -1.2999998956239432E+01  -1.2999998992645908E+01
  -1.2999999027216603E+01  -1.2999999059736018E+01  -1.2999999089966430E+01
  -1.2999999117641508E+01  -1.2999999142458860E+01  -1.2999999164071077E+01
  -1.2999999182075120E+01  -1.2999999195999514E+01  -1.2999999204182538E+01
  -1.2999999112968833E+01  -1.2999997185954404E+01  -1.2999945231360295E+01
  -1.2999867252339738E+01
     </PP_GIPAW_VLOCAL_PS>
   </PP_GIPAW_VLOCAL>
 </PP_GIPAW>
</UPF>
