<UPF version="2.0.1">
  <PP_INFO>

 This pseudopotential file has been produced using the code
 ONCVPSP  (Optimized Norm-Conservinng Vanderbilt PSeudopotential)
 scalar-relativistic version 4.0.1 06/20/2107 by D. R. Hamann
 The code is available through a link at URL www.mat-simresearch.com.
 Documentation with the package provides a full discription of the
 input data below.


 While it is not required under the terms of the GNU GPL, it is
 suggested that you cite D. R. Hamann, Phys. Rev. B 88, 085117 (2013)
 in any publication using these pseudopotentials.

    <PP_INPUTFILE>
# ATOM AND REFERENCE CONFIGURATION
# atsym  z   nc   nv     iexc    psfile
  W 74.00   10    4 -116133      upf
#
#   n    l    f        energy (Ha)
    1    0    2.00
    2    0    2.00
    2    1    6.00
    3    0    2.00
    3    1    6.00
    3    2   10.00
    4    0    2.00
    4    1    6.00
    4    2   10.00
    4    3   14.00
    5    0    2.00
    5    1    6.00
    5    2    4.00
    6    0    2.00
#
# PSEUDOPOTENTIAL AND OPTIMIZATION
# lmax
    3
#
#   l,   rc,      ep,       ncon, nbas, qcut
    0   2.33950  -2.90589    4    7   6.16651
    1   2.49079  -1.58765    4    8   6.10561
    2   2.50531  -0.16465    4    8   5.61095
    3   2.54229   0.15000    4    9   7.43466
#
# LOCAL POTENTIAL
# lloc, lpopt,  rc(5),   dvloc0
    4    5   2.33950      0.00000
#
# VANDERBILT-KLEINMAN-BYLANDER PROJECTORs
# l, nproj, debl
    0    2   2.69594
    1    2   1.53763
    2    2   1.00000
    3    2   2.80000
#
# MODEL CORE CHARGE
# icmod, fcfact, rcfact
    3   5.00000   1.36000
#
# LOG DERIVATIVE ANALYSIS
# epsh1, epsh2, depsh
  -12.00   12.00    0.02
#
# OUTPUT GRID
# rlmax, drl
    6.00    0.01
#
# TEST CONFIGURATIONS
# ncnf
    0
# nvcnf
#   n    l    f
    </PP_INPUTFILE>
  </PP_INFO>
  <!--                               -->
  <!-- END OF HUMAN READABLE SECTION -->
  <!--                               -->
    <PP_HEADER
       generated="Generated using ONCVPSP code by D. R. Hamann"
       author="anonymous"
       date="260127"
       comment=""
       element="W "
       pseudo_type="NC"
       relativistic="scalar"
       is_ultrasoft="F"
       is_paw="F"
       is_coulomb="F"
       has_so="F"
       has_wfc="F"
       has_gipaw="T"
       core_correction="T"
       functional="PBESOL"
       z_valence="   14.00"
       total_psenergy="  -1.38555989262E+02"
       rho_cutoff="   1.39089490184E+01"
       l_max="3"
       l_local="-1"
       mesh_size="  1164"
       number_of_wfc="4"
       number_of_proj="8"/>
 <PP_MESH dx="  1.25000000000000E-02" xmin=" -1.19049675527463E+01" mesh="1164">
   <PP_R type="real"  size="1164" columns="4">
    6.7567567568E-06    6.8417462942E-06    6.9278048684E-06    7.0149459262E-06
    7.1031830836E-06    7.1925301278E-06    7.2830010195E-06    7.3746098949E-06
    7.4673710681E-06    7.5612990332E-06    7.6564084667E-06    7.7527142295E-06
    7.8502313698E-06    7.9489751247E-06    8.0489609231E-06    8.1502043880E-06
    8.2527213389E-06    8.3565277944E-06    8.4616399743E-06    8.5680743026E-06
    8.6758474101E-06    8.7849761363E-06    8.8954775329E-06    9.0073688660E-06
    9.1206676188E-06    9.2353914944E-06    9.3515584188E-06    9.4691865432E-06
    9.5882942473E-06    9.7089001418E-06    9.8310230717E-06    9.9546821190E-06
    1.0079896606E-05    1.0206686097E-05    1.0335070403E-05    1.0465069585E-05
    1.0596703956E-05    1.0729994083E-05    1.0864960794E-05    1.1001625177E-05
    1.1140008586E-05    1.1280132644E-05    1.1422019246E-05    1.1565690561E-05
    1.1711169040E-05    1.1858477412E-05    1.2007638695E-05    1.2158676197E-05
    1.2311613516E-05    1.2466474550E-05    1.2623283496E-05    1.2782064856E-05
    1.2942843439E-05    1.3105644368E-05    1.3270493081E-05    1.3437415335E-05
    1.3606437213E-05    1.3777585124E-05    1.3950885811E-05    1.4126366352E-05
    1.4304054166E-05    1.4483977018E-05    1.4666163022E-05    1.4850640642E-05
    1.5037438706E-05    1.5226586400E-05    1.5418113279E-05    1.5612049270E-05
    1.5808424675E-05    1.6007270179E-05    1.6208616851E-05    1.6412496153E-05
    1.6618939940E-05    1.6827980471E-05    1.7039650408E-05    1.7253982825E-05
    1.7471011212E-05    1.7690769479E-05    1.7913291966E-05    1.8138613441E-05
    1.8366769111E-05    1.8597794626E-05    1.8831726085E-05    1.9068600039E-05
    1.9308453500E-05    1.9551323947E-05    1.9797249328E-05    2.0046268069E-05
    2.0298419081E-05    2.0553741761E-05    2.0812276006E-05    2.1074062211E-05
    2.1339141282E-05    2.1607554636E-05    2.1879344215E-05    2.2154552486E-05
    2.2433222451E-05    2.2715397652E-05    2.3001122181E-05    2.3290440682E-05
    2.3583398361E-05    2.3880040995E-05    2.4180414933E-05    2.4484567111E-05
    2.4792545051E-05    2.5104396878E-05    2.5420171318E-05    2.5739917711E-05
    2.6063686018E-05    2.6391526830E-05    2.6723491371E-05    2.7059631512E-05
    2.7399999776E-05    2.7744649345E-05    2.8093634073E-05    2.8447008487E-05
    2.8804827805E-05    2.9167147936E-05    2.9534025493E-05    2.9905517801E-05
    3.0281682908E-05    3.0662579589E-05    3.1048267360E-05    3.1438806487E-05
    3.1834257990E-05    3.2234683662E-05    3.2640146068E-05    3.3050708564E-05
    3.3466435300E-05    3.3887391235E-05    3.4313642143E-05    3.4745254628E-05
    3.5182296130E-05    3.5624834937E-05    3.6072940196E-05    3.6526681927E-05
    3.6986131025E-05    3.7451359282E-05    3.7922439390E-05    3.8399444956E-05
    3.8882450514E-05    3.9371531533E-05    3.9866764435E-05    4.0368226599E-05
    4.0875996381E-05    4.1390153121E-05    4.1910777156E-05    4.2437949836E-05
    4.2971753531E-05    4.3512271651E-05    4.4059588651E-05    4.4613790052E-05
    4.5174962448E-05    4.5743193524E-05    4.6318572067E-05    4.6901187981E-05
    4.7491132301E-05    4.8088497208E-05    4.8693376039E-05    4.9305863310E-05
    4.9926054723E-05    5.0554047182E-05    5.1189938815E-05    5.1833828980E-05
    5.2485818286E-05    5.3146008608E-05    5.3814503102E-05    5.4491406221E-05
    5.5176823734E-05    5.5870862737E-05    5.6573631677E-05    5.7285240361E-05
    5.8005799981E-05    5.8735423125E-05    5.9474223799E-05    6.0222317441E-05
    6.0979820942E-05    6.1746852665E-05    6.2523532459E-05    6.3309981682E-05
    6.4106323219E-05    6.4912681499E-05    6.5729182517E-05    6.6555953854E-05
    6.7393124695E-05    6.8240825848E-05    6.9099189769E-05    6.9968350579E-05
    7.0848444086E-05    7.1739607807E-05    7.2641980987E-05    7.3555704625E-05
    7.4480921491E-05    7.5417776152E-05    7.6366414995E-05    7.7326986245E-05
    7.8299639995E-05    7.9284528222E-05    8.0281804818E-05    8.1291625610E-05
    8.2314148383E-05    8.3349532910E-05    8.4397940970E-05    8.5459536381E-05
    8.6534485018E-05    8.7622954844E-05    8.8725115936E-05    8.9841140507E-05
    9.0971202939E-05    9.2115479807E-05    9.3274149906E-05    9.4447394280E-05
    9.5635396253E-05    9.6838341450E-05    9.8056417835E-05    9.9289815735E-05
    1.0053872787E-04    1.0180334939E-04    1.0308387788E-04    1.0438051345E-04
    1.0569345868E-04    1.0702291873E-04    1.0836910132E-04    1.0973221681E-04
    1.1111247818E-04    1.1251010111E-04    1.1392530396E-04    1.1535830788E-04
    1.1680933676E-04    1.1827861734E-04    1.1976637920E-04    1.2127285480E-04
    1.2279827952E-04    1.2434289173E-04    1.2590693277E-04    1.2749064702E-04
    1.2909428195E-04    1.3071808812E-04    1.3236231925E-04    1.3402723227E-04
    1.3571308732E-04    1.3742014781E-04    1.3914868048E-04    1.4089895542E-04
    1.4267124610E-04    1.4446582945E-04    1.4628298589E-04    1.4812299934E-04
    1.4998615731E-04    1.5187275092E-04    1.5378307496E-04    1.5571742791E-04
    1.5767611203E-04    1.5965943337E-04    1.6166770181E-04    1.6370123117E-04
    1.6576033917E-04    1.6784534756E-04    1.6995658213E-04    1.7209437277E-04
    1.7425905349E-04    1.7645096255E-04    1.7867044244E-04    1.8091783994E-04
    1.8319350622E-04    1.8549779686E-04    1.8783107191E-04    1.9019369595E-04
    1.9258603813E-04    1.9500847228E-04    1.9746137690E-04    1.9994513526E-04
    2.0246013546E-04    2.0500677046E-04    2.0758543819E-04    2.1019654156E-04
    2.1284048857E-04    2.1551769234E-04    2.1822857119E-04    2.2097354870E-04
    2.2375305377E-04    2.2656752072E-04    2.2941738930E-04    2.3230310481E-04
    2.3522511816E-04    2.3818388591E-04    2.4117987038E-04    2.4421353969E-04
    2.4728536786E-04    2.5039583488E-04    2.5354542675E-04    2.5673463562E-04
    2.5996395979E-04    2.6323390386E-04    2.6654497876E-04    2.6989770186E-04
    2.7329259703E-04    2.7673019472E-04    2.8021103206E-04    2.8373565295E-04
    2.8730460811E-04    2.9091845520E-04    2.9457775889E-04    2.9828309096E-04
    3.0203503036E-04    3.0583416335E-04    3.0968108356E-04    3.1357639206E-04
    3.1752069751E-04    3.2151461622E-04    3.2555877224E-04    3.2965379748E-04
    3.3380033179E-04    3.3799902309E-04    3.4225052742E-04    3.4655550910E-04
    3.5091464078E-04    3.5532860358E-04    3.5979808720E-04    3.6432379001E-04
    3.6890641914E-04    3.7354669066E-04    3.7824532961E-04    3.8300307015E-04
    3.8782065571E-04    3.9269883904E-04    3.9763838235E-04    4.0264005748E-04
    4.0770464593E-04    4.1283293906E-04    4.1802573818E-04    4.2328385467E-04
    4.2860811012E-04    4.3399933647E-04    4.3945837609E-04    4.4498608198E-04
    4.5058331784E-04    4.5625095827E-04    4.6198988884E-04    4.6780100627E-04
    4.7368521856E-04    4.7964344513E-04    4.8567661696E-04    4.9178567675E-04
    4.9797157905E-04    5.0423529043E-04    5.1057778959E-04    5.1700006758E-04
    5.2350312787E-04    5.3008798660E-04    5.3675567265E-04    5.4350722787E-04
    5.5034370720E-04    5.5726617885E-04    5.6427572447E-04    5.7137343933E-04
    5.7856043245E-04    5.8583782681E-04    5.9320675953E-04    6.0066838200E-04
    6.0822386014E-04    6.1587437449E-04    6.2362112046E-04    6.3146530851E-04
    6.3940816429E-04    6.4745092890E-04    6.5559485903E-04    6.6384122720E-04
    6.7219132190E-04    6.8064644787E-04    6.8920792623E-04    6.9787709474E-04
    7.0665530795E-04    7.1554393750E-04    7.2454437224E-04    7.3365801852E-04
    7.4288630035E-04    7.5223065968E-04    7.6169255658E-04    7.7127346949E-04
    7.8097489545E-04    7.9079835033E-04    8.0074536906E-04    8.1081750588E-04
    8.2101633459E-04    8.3134344876E-04    8.4180046205E-04    8.5238900837E-04
    8.6311074220E-04    8.7396733885E-04    8.8496049467E-04    8.9609192737E-04
    9.0736337625E-04    9.1877660251E-04    9.3033338948E-04    9.4203554293E-04
    9.5388489136E-04    9.6588328624E-04    9.7803260235E-04    9.9033473805E-04
    1.0027916156E-03    1.0154051813E-03    1.0281774062E-03    1.0411102858E-03
    1.0542058411E-03    1.0674661182E-03    1.0808931890E-03    1.0944891516E-03
    1.1082561304E-03    1.1221962764E-03    1.1363117679E-03    1.1506048104E-03
    1.1650776373E-03    1.1797325099E-03    1.1945717181E-03    1.2095975806E-03
    1.2248124451E-03    1.2402186891E-03    1.2558187198E-03    1.2716149747E-03
    1.2876099220E-03    1.3038060610E-03    1.3202059224E-03    1.3368120686E-03
    1.3536270944E-03    1.3706536272E-03    1.3878943275E-03    1.4053518890E-03
    1.4230290396E-03    1.4409285415E-03    1.4590531913E-03    1.4774058211E-03
    1.4959892987E-03    1.5148065276E-03    1.5338604481E-03    1.5531540374E-03
    1.5726903102E-03    1.5924723190E-03    1.6125031549E-03    1.6327859477E-03
    1.6533238667E-03    1.6741201208E-03    1.6951779596E-03    1.7165006734E-03
    1.7380915940E-03    1.7599540948E-03    1.7820915921E-03    1.8045075449E-03
    1.8272054556E-03    1.8501888709E-03    1.8734613819E-03    1.8970266251E-03
    1.9208882826E-03    1.9450500828E-03    1.9695158010E-03    1.9942892600E-03
    2.0193743309E-03    2.0447749330E-03    2.0704950354E-03    2.0965386569E-03
    2.1229098668E-03    2.1496127857E-03    2.1766515859E-03    2.2040304924E-03
    2.2317537832E-03    2.2598257900E-03    2.2882508992E-03    2.3170335522E-03
    2.3461782465E-03    2.3756895359E-03    2.4055720316E-03    2.4358304028E-03
    2.4664693775E-03    2.4974937430E-03    2.5289083470E-03    2.5607180981E-03
    2.5929279666E-03    2.6255429854E-03    2.6585682506E-03    2.6920089225E-03
    2.7258702263E-03    2.7601574528E-03    2.7948759596E-03    2.8300311714E-03
    2.8656285814E-03    2.9016737516E-03    2.9381723143E-03    2.9751299724E-03
    3.0125525006E-03    3.0504457462E-03    3.0888156302E-03    3.1276681479E-03
    3.1670093702E-03    3.2068454440E-03    3.2471825941E-03    3.2880271230E-03
    3.3293854128E-03    3.3712639259E-03    3.4136692058E-03    3.4566078785E-03
    3.5000866532E-03    3.5441123235E-03    3.5886917686E-03    3.6338319541E-03
    3.6795399333E-03    3.7258228480E-03    3.7726879302E-03    3.8201425025E-03
    3.8681939798E-03    3.9168498703E-03    3.9661177766E-03    4.0160053969E-03
    4.0665205262E-03    4.1176710575E-03    4.1694649834E-03    4.2219103966E-03
    4.2750154920E-03    4.3287885672E-03    4.3832380244E-03    4.4383723715E-03
    4.4942002233E-03    4.5507303030E-03    4.6079714436E-03    4.6659325891E-03
    4.7246227961E-03    4.7840512349E-03    4.8442271916E-03    4.9051600685E-03
    4.9668593868E-03    5.0293347869E-03    5.0925960308E-03    5.1566530032E-03
    5.2215157131E-03    5.2871942954E-03    5.3536990127E-03    5.4210402563E-03
    5.4892285484E-03    5.5582745437E-03    5.6281890307E-03    5.6989829337E-03
    5.7706673144E-03    5.8432533735E-03    5.9167524529E-03    5.9911760369E-03
    6.0665357544E-03    6.1428433804E-03    6.2201108382E-03    6.2983502009E-03
    6.3775736937E-03    6.4577936954E-03    6.5390227404E-03    6.6212735211E-03
    6.7045588892E-03    6.7888918583E-03    6.8742856056E-03    6.9607534739E-03
    7.0483089742E-03    7.1369657871E-03    7.2267377654E-03    7.3176389361E-03
    7.4096835029E-03    7.5028858478E-03    7.5972605338E-03    7.6928223073E-03
    7.7895860999E-03    7.8875670312E-03    7.9867804108E-03    8.0872417412E-03
    8.1889667195E-03    8.2919712406E-03    8.3962713990E-03    8.5018834919E-03
    8.6088240214E-03    8.7171096972E-03    8.8267574391E-03    8.9377843798E-03
    9.0502078675E-03    9.1640454686E-03    9.2793149705E-03    9.3960343842E-03
    9.5142219473E-03    9.6338961270E-03    9.7550756226E-03    9.8777793686E-03
    1.0002026538E-02    1.0127836544E-02    1.0255229045E-02    1.0384223947E-02
    1.0514841404E-02    1.0647101827E-02    1.0781025882E-02    1.0916634493E-02
    1.1053948851E-02    1.1192990411E-02    1.1333780899E-02    1.1476342313E-02
    1.1620696928E-02    1.1766867301E-02    1.1914876272E-02    1.2064746965E-02
    1.2216502800E-02    1.2370167489E-02    1.2525765041E-02    1.2683319770E-02
    1.2842856293E-02    1.3004399538E-02    1.3167974748E-02    1.3333607480E-02
    1.3501323616E-02    1.3671149360E-02    1.3843111250E-02    1.4017236154E-02
    1.4193551280E-02    1.4372084177E-02    1.4552862741E-02    1.4735915220E-02
    1.4921270215E-02    1.5108956690E-02    1.5299003969E-02    1.5491441749E-02
    1.5686300099E-02    1.5883609464E-02    1.6083400676E-02    1.6285704952E-02
    1.6490553903E-02    1.6697979536E-02    1.6908014262E-02    1.7120690900E-02
    1.7336042681E-02    1.7554103254E-02    1.7774906691E-02    1.7998487494E-02
    1.8224880596E-02    1.8454121374E-02    1.8686245645E-02    1.8921289681E-02
    1.9159290206E-02    1.9400284409E-02    1.9644309947E-02    1.9891404947E-02
    2.0141608021E-02    2.0394958261E-02    2.0651495255E-02    2.0911259087E-02
    2.1174290347E-02    2.1440630132E-02    2.1710320059E-02    2.1983402267E-02
    2.2259919428E-02    2.2539914745E-02    2.2823431971E-02    2.3110515404E-02
    2.3401209902E-02    2.3695560887E-02    2.3993614351E-02    2.4295416866E-02
    2.4601015590E-02    2.4910458273E-02    2.5223793265E-02    2.5541069526E-02
    2.5862336631E-02    2.6187644779E-02    2.6517044800E-02    2.6850588163E-02
    2.7188326985E-02    2.7530314039E-02    2.7876602760E-02    2.8227247257E-02
    2.8582302318E-02    2.8941823423E-02    2.9305866747E-02    2.9674489171E-02
    3.0047748295E-02    3.0425702441E-02    3.0808410665E-02    3.1195932765E-02
    3.1588329294E-02    3.1985661563E-02    3.2387991657E-02    3.2795382441E-02
    3.3207897570E-02    3.3625601500E-02    3.4048559499E-02    3.4476837655E-02
    3.4910502886E-02    3.5349622955E-02    3.5794266474E-02    3.6244502921E-02
    3.6700402644E-02    3.7162036881E-02    3.7629477761E-02    3.8102798323E-02
    3.8582072525E-02    3.9067375255E-02    3.9558782341E-02    4.0056370568E-02
    4.0560217684E-02    4.1070402417E-02    4.1587004483E-02    4.2110104604E-02
    4.2639784514E-02    4.3176126977E-02    4.3719215798E-02    4.4269135836E-02
    4.4825973015E-02    4.5389814345E-02    4.5960747925E-02    4.6538862965E-02
    4.7124249798E-02    4.7716999890E-02    4.8317205861E-02    4.8924961494E-02
    4.9540361751E-02    5.0163502791E-02    5.0794481980E-02    5.1433397910E-02
    5.2080350413E-02    5.2735440577E-02    5.3398770761E-02    5.4070444611E-02
    5.4750567078E-02    5.5439244433E-02    5.6136584283E-02    5.6842695588E-02
    5.7557688680E-02    5.8281675277E-02    5.9014768506E-02    5.9757082911E-02
    6.0508734483E-02    6.1269840667E-02    6.2040520389E-02    6.2820894068E-02
    6.3611083640E-02    6.4411212573E-02    6.5221405889E-02    6.6041790183E-02
    6.6872493640E-02    6.7713646061E-02    6.8565378876E-02    6.9427825172E-02
    7.0301119706E-02    7.1185398934E-02    7.2080801025E-02    7.2987465888E-02
    7.3905535190E-02    7.4835152383E-02    7.5776462721E-02    7.6729613285E-02
    7.7694753008E-02    7.8672032693E-02    7.9661605044E-02    8.0663624683E-02
    8.1678248177E-02    8.2705634064E-02    8.3745942874E-02    8.4799337158E-02
    8.5865981511E-02    8.6946042599E-02    8.8039689182E-02    8.9147092146E-02
    9.0268424525E-02    9.1403861528E-02    9.2553580571E-02    9.3717761299E-02
    9.4896585618E-02    9.6090237722E-02    9.7298904121E-02    9.8522773671E-02
    9.9762037605E-02    1.0101688956E-01    1.0228752561E-01    1.0357414430E-01
    1.0487694665E-01    1.0619613624E-01    1.0753191919E-01    1.0888450423E-01
    1.1025410269E-01    1.1164092858E-01    1.1304519859E-01    1.1446713214E-01
    1.1590695141E-01    1.1736488139E-01    1.1884114986E-01    1.2033598750E-01
    1.2184962789E-01    1.2338230753E-01    1.2493426591E-01    1.2650574552E-01
    1.2809699191E-01    1.2970825371E-01    1.3133978269E-01    1.3299183379E-01
    1.3466466512E-01    1.3635853809E-01    1.3807371735E-01    1.3981047091E-01
    1.4156907015E-01    1.4334978984E-01    1.4515290822E-01    1.4697870704E-01
    1.4882747159E-01    1.5069949073E-01    1.5259505697E-01    1.5451446650E-01
    1.5645801923E-01    1.5842601884E-01    1.6041877284E-01    1.6243659260E-01
    1.6447979341E-01    1.6654869452E-01    1.6864361920E-01    1.7076489479E-01
    1.7291285275E-01    1.7508782869E-01    1.7729016246E-01    1.7952019817E-01
    1.8177828429E-01    1.8406477363E-01    1.8638002346E-01    1.8872439555E-01
    1.9109825622E-01    1.9350197637E-01    1.9593593161E-01    1.9840050223E-01
    2.0089607333E-01    2.0342303485E-01    2.0598178164E-01    2.0857271350E-01
    2.1119623527E-01    2.1385275688E-01    2.1654269342E-01    2.1926646519E-01
    2.2202449780E-01    2.2481722219E-01    2.2764507472E-01    2.3050849726E-01
    2.3340793722E-01    2.3634384765E-01    2.3931668729E-01    2.4232692064E-01
    2.4537501807E-01    2.4846145584E-01    2.5158671623E-01    2.5475128754E-01
    2.5795566427E-01    2.6120034709E-01    2.6448584300E-01    2.6781266536E-01
    2.7118133399E-01    2.7459237526E-01    2.7804632215E-01    2.8154371434E-01
    2.8508509830E-01    2.8867102740E-01    2.9230206193E-01    2.9597876925E-01
    2.9970172385E-01    3.0347150746E-01    3.0728870911E-01    3.1115392525E-01
    3.1506775982E-01    3.1903082437E-01    3.2304373813E-01    3.2710712814E-01
    3.3122162930E-01    3.3538788451E-01    3.3960654477E-01    3.4387826923E-01
    3.4820372538E-01    3.5258358906E-01    3.5701854465E-01    3.6150928512E-01
    3.6605651214E-01    3.7066093624E-01    3.7532327686E-01    3.8004426251E-01
    3.8482463085E-01    3.8966512882E-01    3.9456651276E-01    3.9952954852E-01
    4.0455501159E-01    4.0964368720E-01    4.1479637047E-01    4.2001386651E-01
    4.2529699058E-01    4.3064656816E-01    4.3606343515E-01    4.4154843794E-01
    4.4710243357E-01    4.5272628986E-01    4.5842088556E-01    4.6418711046E-01
    4.7002586553E-01    4.7593806310E-01    4.8192462697E-01    4.8798649253E-01
    4.9412460698E-01    5.0033992941E-01    5.0663343096E-01    5.1300609502E-01
    5.1945891733E-01    5.2599290615E-01    5.3260908243E-01    5.3930847996E-01
    5.4609214554E-01    5.5296113913E-01    5.5991653402E-01    5.6695941701E-01
    5.7409088857E-01    5.8131206299E-01    5.8862406860E-01    5.9602804793E-01
    6.0352515784E-01    6.1111656979E-01    6.1880346995E-01    6.2658705941E-01
    6.3446855438E-01    6.4244918634E-01    6.5053020230E-01    6.5871286492E-01
    6.6699845278E-01    6.7538826049E-01    6.8388359900E-01    6.9248579571E-01
    7.0119619473E-01    7.1001615709E-01    7.1894706091E-01    7.2799030168E-01
    7.3714729241E-01    7.4641946390E-01    7.5580826496E-01    7.6531516260E-01
    7.7494164228E-01    7.8468920818E-01    7.9455938336E-01    8.0455371005E-01
    8.1467374991E-01    8.2492108419E-01    8.3529731408E-01    8.4580406086E-01
    8.5644296626E-01    8.6721569260E-01    8.7812392317E-01    8.8916936238E-01
    9.0035373612E-01    9.1167879196E-01    9.2314629946E-01    9.3475805046E-01
    9.4651585930E-01    9.5842156316E-01    9.7047702235E-01    9.8268412055E-01
    9.9504476514E-01    1.0075608875E+00    1.0202344433E+00    1.0330674128E+00
    1.0460618012E+00    1.0592196389E+00    1.0725429818E+00    1.0860339117E+00
    1.0996945366E+00    1.1135269911E+00    1.1275334363E+00    1.1417160610E+00
    1.1560770812E+00    1.1706187407E+00    1.1853433118E+00    1.2002530952E+00
    1.2153504206E+00    1.2306376470E+00    1.2461171630E+00    1.2617913874E+00
    1.2776627692E+00    1.2937337884E+00    1.3100069562E+00    1.3264848152E+00
    1.3431699402E+00    1.3600649382E+00    1.3771724491E+00    1.3944951460E+00
    1.4120357356E+00    1.4297969587E+00    1.4477815904E+00    1.4659924410E+00
    1.4844323559E+00    1.5031042163E+00    1.5220109399E+00    1.5411554807E+00
    1.5605408303E+00    1.5801700175E+00    1.6000461095E+00    1.6201722119E+00
    1.6405514696E+00    1.6611870667E+00    1.6820822278E+00    1.7032402176E+00
    1.7246643421E+00    1.7463579489E+00    1.7683244278E+00    1.7905672109E+00
    1.8130897738E+00    1.8358956356E+00    1.8589883599E+00    1.8823715549E+00
    1.9060488743E+00    1.9300240177E+00    1.9543007313E+00    1.9788828083E+00
    2.0037740899E+00    2.0289784651E+00    2.0544998724E+00    2.0803422995E+00
    2.1065097843E+00    2.1330064156E+00    2.1598363334E+00    2.1870037301E+00
    2.2145128505E+00    2.2423679931E+00    2.2705735102E+00    2.2991338091E+00
    2.3280533523E+00    2.3573366586E+00    2.3869883035E+00    2.4170129202E+00
    2.4474152001E+00    2.4781998936E+00    2.5093718108E+00    2.5409358226E+00
    2.5728968607E+00    2.6052599192E+00    2.6380300548E+00    2.6712123880E+00
    2.7048121036E+00    2.7388344516E+00    2.7732847480E+00    2.8081683758E+00
    2.8434907856E+00    2.8792574967E+00    2.9154740976E+00    2.9521462472E+00
    2.9892796757E+00    3.0268801853E+00    3.0649536510E+00    3.1035060220E+00
    3.1425433221E+00    3.1820716510E+00    3.2220971850E+00    3.2626261783E+00
    3.3036649636E+00    3.3452199533E+00    3.3872976403E+00    3.4299045996E+00
    3.4730474884E+00    3.5167330479E+00    3.5609681041E+00    3.6057595689E+00
    3.6511144409E+00    3.6970398069E+00    3.7435428430E+00    3.7906308152E+00
    3.8383110812E+00    3.8865910912E+00    3.9354783889E+00    3.9849806131E+00
    4.0351054986E+00    4.0858608776E+00    4.1372546806E+00    4.1892949381E+00
    4.2419897815E+00    4.2953474444E+00    4.3493762641E+00    4.4040846827E+00
    4.4594812484E+00    4.5155746172E+00    4.5723735537E+00    4.6298869329E+00
    4.6881237413E+00    4.7470930786E+00    4.8068041588E+00    4.8672663120E+00
    4.9284889855E+00    4.9904817453E+00    5.0532542781E+00    5.1168163922E+00
    5.1811780192E+00    5.2463492159E+00    5.3123401652E+00    5.3791611786E+00
    5.4468226968E+00    5.5153352921E+00    5.5847096698E+00    5.6549566698E+00
    5.7260872682E+00    5.7981125794E+00    5.8710438575E+00    5.9448924982E+00
    6.0196700404E+00    6.0953881683E+00    6.1720587130E+00    6.2496936544E+00
    6.3283051232E+00    6.4079054025E+00    6.4885069301E+00    6.5701223001E+00
    6.6527642651E+00    6.7364457380E+00    6.8211797943E+00    6.9069796737E+00
    6.9938587829E+00    7.0818306966E+00    7.1709091609E+00    7.2611080943E+00
    7.3524415906E+00    7.4449239208E+00    7.5385695356E+00    7.6333930672E+00
    7.7294093319E+00    7.8266333327E+00    7.9250802608E+00    8.0247654988E+00
    8.1257046227E+00    8.2279134046E+00    8.3314078146E+00    8.4362040241E+00
    8.5423184076E+00    8.6497675457E+00    8.7585682276E+00    8.8687374536E+00
    8.9802924379E+00    9.0932506112E+00    9.2076296233E+00    9.3234473464E+00
    9.4407218770E+00    9.5594715396E+00    9.6797148891E+00    9.8014707138E+00
    9.9247580382E+00    1.0049596126E+01    1.0176004484E+01    1.0304002863E+01
    1.0433611264E+01    1.0564849938E+01    1.0697739391E+01    1.0832300387E+01
    1.0968553953E+01    1.1106521377E+01    1.1246224218E+01    1.1387684304E+01
    1.1530923740E+01    1.1675964905E+01    1.1822830464E+01    1.1971543364E+01
    1.2122126842E+01    1.2274604427E+01    1.2428999944E+01    1.2585337517E+01
    1.2743641576E+01    1.2903936854E+01    1.3066248398E+01    1.3230601570E+01
    1.3397022051E+01    1.3565535844E+01    1.3736169279E+01    1.3908949018E+01
   </PP_R>
   <PP_RAB type="real"  size="1164" columns="4">
    8.4459459459E-08    8.5521828677E-08    8.6597560855E-08    8.7686824078E-08
    8.8789788545E-08    8.9906626598E-08    9.1037512744E-08    9.2182623686E-08
    9.3342138351E-08    9.4516237915E-08    9.5705105833E-08    9.6908927869E-08
    9.8127892122E-08    9.9362189058E-08    1.0061201154E-07    1.0187755485E-07
    1.0315901674E-07    1.0445659743E-07    1.0577049968E-07    1.0710092878E-07
    1.0844809263E-07    1.0981220170E-07    1.1119346916E-07    1.1259211082E-07
    1.1400834523E-07    1.1544239368E-07    1.1689448023E-07    1.1836483179E-07
    1.1985367809E-07    1.2136125177E-07    1.2288778840E-07    1.2443352649E-07
    1.2599870757E-07    1.2758357621E-07    1.2918838004E-07    1.3081336982E-07
    1.3245879945E-07    1.3412492604E-07    1.3581200992E-07    1.3752031471E-07
    1.3925010732E-07    1.4100165805E-07    1.4277524057E-07    1.4457113202E-07
    1.4638961300E-07    1.4823096765E-07    1.5009548369E-07    1.5198345246E-07
    1.5389516895E-07    1.5583093188E-07    1.5779104370E-07    1.5977581070E-07
    1.6178554299E-07    1.6382055460E-07    1.6588116351E-07    1.6796769169E-07
    1.7008046516E-07    1.7221981405E-07    1.7438607263E-07    1.7657957940E-07
    1.7880067708E-07    1.8104971273E-07    1.8332703777E-07    1.8563300803E-07
    1.8796798383E-07    1.9033233000E-07    1.9272641599E-07    1.9515061587E-07
    1.9760530844E-07    2.0009087724E-07    2.0260771064E-07    2.0515620191E-07
    2.0773674925E-07    2.1034975589E-07    2.1299563010E-07    2.1567478531E-07
    2.1838764014E-07    2.2113461849E-07    2.2391614958E-07    2.2673266801E-07
    2.2958461389E-07    2.3247243283E-07    2.3539657606E-07    2.3835750049E-07
    2.4135566876E-07    2.4439154934E-07    2.4746561660E-07    2.5057835087E-07
    2.5373023851E-07    2.5692177202E-07    2.6015345008E-07    2.6342577764E-07
    2.6673926602E-07    2.7009443295E-07    2.7349180269E-07    2.7693190608E-07
    2.8041528064E-07    2.8394247066E-07    2.8751402726E-07    2.9113050852E-07
    2.9479247952E-07    2.9850051243E-07    3.0225518666E-07    3.0605708888E-07
    3.0990681314E-07    3.1380496097E-07    3.1775214147E-07    3.2174897138E-07
    3.2579607523E-07    3.2989408537E-07    3.3404364214E-07    3.3824539390E-07
    3.4249999720E-07    3.4680811682E-07    3.5117042591E-07    3.5558760609E-07
    3.6006034756E-07    3.6458934920E-07    3.6917531866E-07    3.7381897252E-07
    3.7852103635E-07    3.8328224486E-07    3.8810334200E-07    3.9298508108E-07
    3.9792822488E-07    4.0293354577E-07    4.0800182585E-07    4.1313385705E-07
    4.1833044125E-07    4.2359239043E-07    4.2892052679E-07    4.3431568285E-07
    4.3977870162E-07    4.4531043671E-07    4.5091175246E-07    4.5658352408E-07
    4.6232663781E-07    4.6814199102E-07    4.7403049237E-07    4.7999306195E-07
    4.8603063142E-07    4.9214414416E-07    4.9833455543E-07    5.0460283249E-07
    5.1094995476E-07    5.1737691401E-07    5.2388471445E-07    5.3047437295E-07
    5.3714691914E-07    5.4390339563E-07    5.5074485814E-07    5.5767237565E-07
    5.6468703060E-07    5.7178991905E-07    5.7898215084E-07    5.8626484976E-07
    5.9363915377E-07    6.0110621509E-07    6.0866720049E-07    6.1632329138E-07
    6.2407568403E-07    6.3192558978E-07    6.3987423519E-07    6.4792286225E-07
    6.5607272857E-07    6.6432510760E-07    6.7268128877E-07    6.8114257776E-07
    6.8971029667E-07    6.9838578421E-07    7.0717039596E-07    7.1606550451E-07
    7.2507249976E-07    7.3419278906E-07    7.4342779748E-07    7.5277896801E-07
    7.6224776178E-07    7.7183565831E-07    7.8154415574E-07    7.9137477103E-07
    8.0132904023E-07    8.1140851873E-07    8.2161478147E-07    8.3194942318E-07
    8.4241405868E-07    8.5301032310E-07    8.6373987211E-07    8.7460438224E-07
    8.8560555107E-07    8.9674509758E-07    9.0802476234E-07    9.1944630781E-07
    9.3101151864E-07    9.4272220191E-07    9.5458018744E-07    9.6658732807E-07
    9.7874549993E-07    9.9105660278E-07    1.0035225602E-06    1.0161453201E-06
    1.0289268548E-06    1.0418691614E-06    1.0549742621E-06    1.0682442048E-06
    1.0816810627E-06    1.0952869356E-06    1.1090639492E-06    1.1230142563E-06
    1.1371400367E-06    1.1514434976E-06    1.1659268738E-06    1.1805924285E-06
    1.1954424532E-06    1.2104792681E-06    1.2257052229E-06    1.2411226967E-06
    1.2567340984E-06    1.2725418673E-06    1.2885484736E-06    1.3047564181E-06
    1.3211682335E-06    1.3377864841E-06    1.3546137665E-06    1.3716527101E-06
    1.3889059773E-06    1.4063762638E-06    1.4240662995E-06    1.4419788484E-06
    1.4601167095E-06    1.4784827168E-06    1.4970797400E-06    1.5159106850E-06
    1.5349784940E-06    1.5542861466E-06    1.5738366596E-06    1.5936330878E-06
    1.6136785243E-06    1.6339761015E-06    1.6545289907E-06    1.6753404034E-06
    1.6964135915E-06    1.7177518476E-06    1.7393585060E-06    1.7612369427E-06
    1.7833905762E-06    1.8058228682E-06    1.8285373236E-06    1.8515374917E-06
    1.8748269663E-06    1.8984093865E-06    1.9222884370E-06    1.9464678489E-06
    1.9709514004E-06    1.9957429171E-06    2.0208462727E-06    2.0462653896E-06
    2.0720042396E-06    2.0980668445E-06    2.1244572767E-06    2.1511796596E-06
    2.1782381687E-06    2.2056370319E-06    2.2333805305E-06    2.2614729992E-06
    2.2899188278E-06    2.3187224608E-06    2.3478883989E-06    2.3774211993E-06
    2.4073254767E-06    2.4376059035E-06    2.4682672113E-06    2.4993141908E-06
    2.5307516932E-06    2.5625846307E-06    2.5948179773E-06    2.6274567695E-06
    2.6605061072E-06    2.6939711543E-06    2.7278571399E-06    2.7621693588E-06
    2.7969131722E-06    2.8320940090E-06    2.8677173662E-06    2.9037888102E-06
    2.9403139770E-06    2.9772985739E-06    3.0147483797E-06    3.0526692461E-06
    3.0910670983E-06    3.1299479360E-06    3.1693178344E-06    3.2091829452E-06
    3.2495494974E-06    3.2904237983E-06    3.3318122346E-06    3.3737212733E-06
    3.4161574628E-06    3.4591274339E-06    3.5026379007E-06    3.5466956618E-06
    3.5913076014E-06    3.6364806900E-06    3.6822219861E-06    3.7285386369E-06
    3.7754378795E-06    3.8229270419E-06    3.8710135445E-06    3.9197049007E-06
    3.9690087189E-06    4.0189327027E-06    4.0694846530E-06    4.1206724685E-06
    4.1725041474E-06    4.2249877886E-06    4.2781315928E-06    4.3319438637E-06
    4.3864330097E-06    4.4416075447E-06    4.4974760900E-06    4.5540473751E-06
    4.6113302393E-06    4.6693336332E-06    4.7280666201E-06    4.7875383769E-06
    4.8477581964E-06    4.9087354880E-06    4.9704797794E-06    5.0330007185E-06
    5.0963080741E-06    5.1604117382E-06    5.2253217272E-06    5.2910481834E-06
    5.3576013765E-06    5.4249917058E-06    5.4932297011E-06    5.5623260247E-06
    5.6322914731E-06    5.7031369784E-06    5.7748736105E-06    5.8475125784E-06
    5.9210652320E-06    5.9955430641E-06    6.0709577120E-06    6.1473209593E-06
    6.2246447381E-06    6.3029411303E-06    6.3822223699E-06    6.4625008447E-06
    6.5437890984E-06    6.6260998325E-06    6.7094459081E-06    6.7938403484E-06
    6.8792963399E-06    6.9658272356E-06    7.0534465559E-06    7.1421679916E-06
    7.2320054056E-06    7.3229728351E-06    7.4150844941E-06    7.5083547750E-06
    7.6027982517E-06    7.6984296811E-06    7.7952640058E-06    7.8933163563E-06
    7.9926020536E-06    8.0931366112E-06    8.1949357379E-06    8.2980153400E-06
    8.4023915238E-06    8.5080805984E-06    8.6150990779E-06    8.7234636842E-06
    8.8331913494E-06    8.9442992188E-06    9.0568046530E-06    9.1707252315E-06
    9.2860787544E-06    9.4028832460E-06    9.5211569573E-06    9.6409183687E-06
    9.7621861932E-06    9.8849793791E-06    1.0009317113E-05    1.0135218824E-05
    1.0262704182E-05    1.0391793110E-05    1.0522505776E-05    1.0654862605E-05
    1.0788884278E-05    1.0924591736E-05    1.1062006183E-05    1.1201149092E-05
    1.1342042203E-05    1.1484707531E-05    1.1629167368E-05    1.1775444287E-05
    1.1923561142E-05    1.2073541078E-05    1.2225407529E-05    1.2379184226E-05
    1.2534895194E-05    1.2692564766E-05    1.2852217577E-05    1.3013878573E-05
    1.3177573014E-05    1.3343326478E-05    1.3511164863E-05    1.3681114396E-05
    1.3853201630E-05    1.4027453455E-05    1.4203897099E-05    1.4382560130E-05
    1.4563470466E-05    1.4746656373E-05    1.4932146476E-05    1.5119969757E-05
    1.5310155564E-05    1.5502733614E-05    1.5697733997E-05    1.5895187184E-05
    1.6095124025E-05    1.6297575763E-05    1.6502574030E-05    1.6710150858E-05
    1.6920338680E-05    1.7133170340E-05    1.7348679093E-05    1.7566898613E-05
    1.7787862995E-05    1.8011606768E-05    1.8238164891E-05    1.8467572764E-05
    1.8699866233E-05    1.8935081595E-05    1.9173255601E-05    1.9414425467E-05
    1.9658628877E-05    1.9905903988E-05    2.0156289437E-05    2.0409824347E-05
    2.0666548333E-05    2.0926501510E-05    2.1189724495E-05    2.1456258418E-05
    2.1726144924E-05    2.1999426186E-05    2.2276144902E-05    2.2556344311E-05
    2.2840068195E-05    2.3127360886E-05    2.3418267274E-05    2.3712832814E-05
    2.4011103532E-05    2.4313126035E-05    2.4618947512E-05    2.4928615751E-05
    2.5242179136E-05    2.5559686663E-05    2.5881187943E-05    2.6206733211E-05
    2.6536373335E-05    2.6870159821E-05    2.7208144824E-05    2.7550381155E-05
    2.7896922290E-05    2.8247822375E-05    2.8603136240E-05    2.8962919403E-05
    2.9327228081E-05    2.9696119198E-05    3.0069650394E-05    3.0447880035E-05
    3.0830867218E-05    3.1218671788E-05    3.1611354338E-05    3.2008976227E-05
    3.2411599583E-05    3.2819287318E-05    3.3232103133E-05    3.3650111532E-05
    3.4073377829E-05    3.4501968161E-05    3.4935949495E-05    3.5375389643E-05
    3.5820357267E-05    3.6270921895E-05    3.6727153929E-05    3.7189124655E-05
    3.7656906257E-05    3.8130571827E-05    3.8610195377E-05    3.9095851849E-05
    3.9587617127E-05    4.0085568051E-05    4.0589782426E-05    4.1100339037E-05
    4.1617317660E-05    4.2140799073E-05    4.2670865072E-05    4.3207598481E-05
    4.3751083165E-05    4.4301404044E-05    4.4858647108E-05    4.5422899427E-05
    4.5994249166E-05    4.6572785600E-05    4.7158599127E-05    4.7751781281E-05
    4.8352424748E-05    4.8960623379E-05    4.9576472208E-05    5.0200067461E-05
    5.0831506577E-05    5.1470888219E-05    5.2118312292E-05    5.2773879958E-05
    5.3437693650E-05    5.4109857090E-05    5.4790475305E-05    5.5479654643E-05
    5.6177502791E-05    5.6884128787E-05    5.7599643045E-05    5.8324157364E-05
    5.9057784951E-05    5.9800640437E-05    6.0552839895E-05    6.1314500857E-05
    6.2085742335E-05    6.2866684836E-05    6.3657450385E-05    6.4458162540E-05
    6.5268946413E-05    6.6089928693E-05    6.6921237658E-05    6.7763003203E-05
    6.8615356855E-05    6.9478431797E-05    7.0352362884E-05    7.1237286671E-05
    7.2133341430E-05    7.3040667169E-05    7.3959405662E-05    7.4889700462E-05
    7.5831696930E-05    7.6785542255E-05    7.7751385477E-05    7.8729377512E-05
    7.9719671172E-05    8.0722421192E-05    8.1737784255E-05    8.2765919014E-05
    8.3806986115E-05    8.4861148229E-05    8.5928570070E-05    8.7009418424E-05
    8.8103862177E-05    8.9212072338E-05    9.0334222067E-05    9.1470486702E-05
    9.2621043786E-05    9.3786073097E-05    9.4965756673E-05    9.6160278841E-05
    9.7369826249E-05    9.8594587890E-05    9.9834755136E-05    1.0109052177E-04
    1.0236208399E-04    1.0364964051E-04    1.0495339249E-04    1.0627354365E-04
    1.0761030027E-04    1.0896387122E-04    1.1033446799E-04    1.1172230475E-04
    1.1312759834E-04    1.1455056836E-04    1.1599143713E-04    1.1745042980E-04
    1.1892777434E-04    1.2042370159E-04    1.2193844528E-04    1.2347224211E-04
    1.2502533172E-04    1.2659795680E-04    1.2819036306E-04    1.2980279933E-04
    1.3143551755E-04    1.3308877284E-04    1.3476282352E-04    1.3645793117E-04
    1.3817436064E-04    1.3991238014E-04    1.4167226123E-04    1.4345427891E-04
    1.4525871160E-04    1.4708584127E-04    1.4893595339E-04    1.5080933707E-04
    1.5270628500E-04    1.5462709361E-04    1.5657206301E-04    1.5854149712E-04
    1.6053570366E-04    1.6255499423E-04    1.6459968435E-04    1.6667009350E-04
    1.6876654519E-04    1.7088936701E-04    1.7303889063E-04    1.7521545193E-04
    1.7741939100E-04    1.7965105221E-04    1.8191078426E-04    1.8419894025E-04
    1.8651587769E-04    1.8886195862E-04    1.9123754962E-04    1.9364302187E-04
    1.9607875123E-04    1.9854511830E-04    2.0104250845E-04    2.0357131190E-04
    2.0613192379E-04    2.0872474420E-04    2.1135017828E-04    2.1400863626E-04
    2.1670053352E-04    2.1942629068E-04    2.2218633364E-04    2.2498109367E-04
    2.2781100746E-04    2.3067651717E-04    2.3357807057E-04    2.3651612101E-04
    2.3949112757E-04    2.4250355512E-04    2.4555387433E-04    2.4864256184E-04
    2.5177010026E-04    2.5493697826E-04    2.5814369069E-04    2.6139073859E-04
    2.6467862933E-04    2.6800787664E-04    2.7137900073E-04    2.7479252834E-04
    2.7824899284E-04    2.8174893432E-04    2.8529289963E-04    2.8888144255E-04
    2.9251512377E-04    2.9619451108E-04    2.9992017939E-04    3.0369271083E-04
    3.0751269488E-04    3.1138072841E-04    3.1529741581E-04    3.1926336908E-04
    3.2327920789E-04    3.2734555974E-04    3.3146306000E-04    3.3563235204E-04
    3.3985408732E-04    3.4412892548E-04    3.4845753450E-04    3.5284059071E-04
    3.5727877898E-04    3.6177279279E-04    3.6632333433E-04    3.7093111464E-04
    3.7559685369E-04    3.8032128051E-04    3.8510513331E-04    3.8994915957E-04
    3.9485411617E-04    3.9982076954E-04    4.0484989572E-04    4.0994228051E-04
    4.1509871962E-04    4.2032001875E-04    4.2560699374E-04    4.3096047068E-04
    4.3638128608E-04    4.4187028694E-04    4.4742833093E-04    4.5305628651E-04
    4.5875503305E-04    4.6452546101E-04    4.7036847201E-04    4.7628497904E-04
    4.8227590657E-04    4.8834219069E-04    4.9448477927E-04    5.0070463210E-04
    5.0700272105E-04    5.1338003021E-04    5.1983755604E-04    5.2637630755E-04
    5.3299730643E-04    5.3970158722E-04    5.4649019748E-04    5.5336419794E-04
    5.6032466269E-04    5.6737267931E-04    5.7450934906E-04    5.8173578707E-04
    5.8905312248E-04    5.9646249863E-04    6.0396507327E-04    6.1156201867E-04
    6.1925452189E-04    6.2704378488E-04    6.3493102475E-04    6.4291747387E-04
    6.5100438016E-04    6.5919300721E-04    6.6748463451E-04    6.7588055764E-04
    6.8438208848E-04    6.9299055541E-04    7.0170730353E-04    7.1053369485E-04
    7.1947110849E-04    7.2852094097E-04    7.3768460632E-04    7.4696353639E-04
    7.5635918104E-04    7.6587300834E-04    7.7550650487E-04    7.8526117586E-04
    7.9513854550E-04    8.0514015717E-04    8.1526757362E-04    8.2552237728E-04
    8.3590617050E-04    8.4642057576E-04    8.5706723596E-04    8.6784781465E-04
    8.7876399633E-04    8.8981748667E-04    9.0101001281E-04    9.1234332359E-04
    9.2381918988E-04    9.3543940479E-04    9.4720578401E-04    9.5912016607E-04
    9.7118441260E-04    9.8340040867E-04    9.9577006305E-04    1.0082953085E-03
    1.0209781022E-03    1.0338204258E-03    1.0468242859E-03    1.0599917145E-03
    1.0733247689E-03    1.0868255325E-03    1.1004961148E-03    1.1143386518E-03
    1.1283553066E-03    1.1425482691E-03    1.1569197571E-03    1.1714720162E-03
    1.1862073202E-03    1.2011279715E-03    1.2162363015E-03    1.2315346709E-03
    1.2470254701E-03    1.2627111195E-03    1.2785940701E-03    1.2946768037E-03
    1.3109618331E-03    1.3274517030E-03    1.3441489899E-03    1.3610563029E-03
    1.3781762836E-03    1.3955116072E-03    1.4130649823E-03    1.4308391517E-03
    1.4488368927E-03    1.4670610173E-03    1.4855143732E-03    1.5041998438E-03
    1.5231203486E-03    1.5422788441E-03    1.5616783238E-03    1.5813218190E-03
    1.6012123988E-03    1.6213531714E-03    1.6417472837E-03    1.6623979223E-03
    1.6833083140E-03    1.7044817261E-03    1.7259214669E-03    1.7476308864E-03
    1.7696133768E-03    1.7918723729E-03    1.8144113528E-03    1.8372338380E-03
    1.8603433948E-03    1.8837436341E-03    1.9074382121E-03    1.9314308312E-03
    1.9557252403E-03    1.9803252355E-03    2.0052346605E-03    2.0304574075E-03
    2.0559974176E-03    2.0818586815E-03    2.1080452400E-03    2.1345611849E-03
    2.1614106593E-03    2.1885978586E-03    2.2161270307E-03    2.2440024772E-03
    2.2722285536E-03    2.3008096703E-03    2.3297502933E-03    2.3590549444E-03
    2.3887282027E-03    2.4187747047E-03    2.4491991451E-03    2.4800062778E-03
    2.5112009166E-03    2.5427879357E-03    2.5747722705E-03    2.6071589187E-03
    2.6399529408E-03    2.6731594610E-03    2.7067836677E-03    2.7408308149E-03
    2.7753062225E-03    2.8102152773E-03    2.8455634340E-03    2.8813562158E-03
    2.9175992153E-03    2.9542980957E-03    2.9914585911E-03    3.0290865080E-03
    3.0671877259E-03    3.1057681980E-03    3.1448339528E-03    3.1843910943E-03
    3.2244458034E-03    3.2650043386E-03    3.3060730375E-03    3.3476583170E-03
    3.3897666749E-03    3.4324046908E-03    3.4755790268E-03    3.5192964292E-03
    3.5635637288E-03    3.6083878425E-03    3.6537757741E-03    3.6997346156E-03
    3.7462715482E-03    3.7933938433E-03    3.8411088639E-03    3.8894240656E-03
    3.9383469978E-03    3.9878853046E-03    4.0380467267E-03    4.0888391017E-03
    4.1402703662E-03    4.1923485564E-03    4.2450818096E-03    4.2984783654E-03
    4.3525465672E-03    4.4072948633E-03    4.4627318082E-03    4.5188660639E-03
    4.5757064017E-03    4.6332617030E-03    4.6915409608E-03    4.7505532814E-03
    4.8103078857E-03    4.8708141103E-03    4.9320814095E-03    4.9941193566E-03
    5.0569376449E-03    5.1205460900E-03    5.1849546308E-03    5.2501733314E-03
    5.3162123822E-03    5.3830821021E-03    5.4507929394E-03    5.5193554743E-03
    5.5887804196E-03    5.6590786233E-03    5.7302610695E-03    5.8023388807E-03
    5.8753233191E-03    5.9492257888E-03    6.0240578371E-03    6.0998311567E-03
    6.1765575873E-03    6.2542491176E-03    6.3329178870E-03    6.4125761878E-03
    6.4932364666E-03    6.5749113268E-03    6.6576135304E-03    6.7413559995E-03
    6.8261518193E-03    6.9120142392E-03    6.9989566753E-03    7.0869927127E-03
    7.1761361071E-03    7.2664007874E-03    7.3578008575E-03    7.4503505991E-03
    7.5440644730E-03    7.6389571224E-03    7.7350433744E-03    7.8323382427E-03
    7.9308569297E-03    8.0306148293E-03    8.1316275287E-03    8.2339108116E-03
    8.3374806597E-03    8.4423532561E-03    8.5485449875E-03    8.6560724463E-03
    8.7649524341E-03    8.8752019636E-03    8.9868382614E-03    9.0998787710E-03
    9.2143411551E-03    9.3302432988E-03    9.4476033120E-03    9.5664395324E-03
    9.6867705285E-03    9.8086151022E-03    9.9319922919E-03    1.0056921376E-02
    1.0183421874E-02    1.0311513552E-02    1.0441216426E-02    1.0572550761E-02
    1.0705537078E-02    1.0840196158E-02    1.0976549040E-02    1.1114617030E-02
    1.1254421701E-02    1.1395984899E-02    1.1539328743E-02    1.1684475631E-02
    1.1831448241E-02    1.1980269540E-02    1.2130962779E-02    1.2283551507E-02
    1.2438059564E-02    1.2594511094E-02    1.2752930541E-02    1.2913342660E-02
    1.3075772515E-02    1.3240245486E-02    1.3406787272E-02    1.3575423896E-02
    1.3746181708E-02    1.3919087388E-02    1.4094167954E-02    1.4271450763E-02
    1.4450963515E-02    1.4632734259E-02    1.4816791398E-02    1.5003163690E-02
    1.5191880258E-02    1.5382970588E-02    1.5576464538E-02    1.5772392342E-02
    1.5970784615E-02    1.6171672355E-02    1.6375086952E-02    1.6581060190E-02
    1.6789624252E-02    1.7000811727E-02    1.7214655613E-02    1.7431189325E-02
    1.7650446695E-02    1.7872461984E-02    1.8097269880E-02    1.8324905513E-02
    1.8555404449E-02    1.8788802704E-02    1.9025136749E-02    1.9264443509E-02
    1.9506760378E-02    1.9752125219E-02    2.0000576368E-02    2.0252152649E-02
    2.0506893370E-02    2.0764838334E-02    2.1026027847E-02    2.1290502719E-02
    2.1558304276E-02    2.1829474362E-02    2.2104055347E-02    2.2382090136E-02
    2.2663622172E-02    2.2948695446E-02    2.3237354499E-02    2.3529644437E-02
    2.3825610929E-02    2.4125300221E-02    2.4428759141E-02    2.4736035104E-02
    2.5047176123E-02    2.5362230814E-02    2.5681248406E-02    2.6004278744E-02
    2.6331372304E-02    2.6662580195E-02    2.6997954168E-02    2.7337546626E-02
    2.7681410631E-02    2.8029599913E-02    2.8382168878E-02    2.8739172613E-02
    2.9100666904E-02    2.9466708232E-02    2.9837353794E-02    3.0212661502E-02
    3.0592690001E-02    3.0977498670E-02    3.1367147635E-02    3.1761697782E-02
    3.2161210758E-02    3.2565748989E-02    3.2975375685E-02    3.3390154850E-02
    3.3810151295E-02    3.4235430644E-02    3.4666059350E-02    3.5102104697E-02
    3.5543634820E-02    3.5990718708E-02    3.6443426220E-02    3.6901828090E-02
    3.7365995947E-02    3.7836002316E-02    3.8311920638E-02    3.8793825275E-02
    3.9281791526E-02    3.9775895637E-02    4.0276214813E-02    4.0782827229E-02
    4.1295812045E-02    4.1815249416E-02    4.2341220504E-02    4.2873807495E-02
    4.3413093605E-02    4.3959163099E-02    4.4512101301E-02    4.5071994611E-02
    4.5638930511E-02    4.6212997586E-02    4.6794285537E-02    4.7382885190E-02
    4.7978888515E-02    4.8582388640E-02    4.9193479861E-02    4.9812257663E-02
    5.0438818733E-02    5.1073260970E-02    5.1715683508E-02    5.2366186727E-02
    5.3024872269E-02    5.3691843055E-02    5.4367203301E-02    5.5051058533E-02
    5.5743515605E-02    5.6444682715E-02    5.7154669421E-02    5.7873586661E-02
    5.8601546766E-02    5.9338663482E-02    6.0085051985E-02    6.0840828900E-02
    6.1606112318E-02    6.2381021817E-02    6.3165678477E-02    6.3960204902E-02
    6.4764725240E-02    6.5579365198E-02    6.6404252065E-02    6.7239514732E-02
    6.8085283710E-02    6.8941691152E-02    6.9808870873E-02    7.0686958372E-02
    7.1576090853E-02    7.2476407243E-02    7.3388048219E-02    7.4311156227E-02
    7.5245875505E-02    7.6192352104E-02    7.7150733912E-02    7.8121170680E-02
    7.9103814040E-02    8.0098817531E-02    8.1106336626E-02    8.2126528751E-02
    8.3159553313E-02    8.4205571725E-02    8.5264747428E-02    8.6337245922E-02
    8.7423234786E-02    8.8522883708E-02    8.9636364511E-02    9.0763851178E-02
    9.1905519882E-02    9.3061549010E-02    9.4232119195E-02    9.5417413340E-02
    9.6617616649E-02    9.7832916658E-02    9.9063503260E-02    1.0030956873E-01
    1.0157130778E-01    1.0284891756E-01    1.0414259768E-01    1.0545255030E-01
    1.0677898009E-01    1.0812209432E-01    1.0948210285E-01    1.1085921817E-01
    1.1225365547E-01    1.1366563264E-01    1.1509537029E-01    1.1654309183E-01
    1.1800902346E-01    1.1949339425E-01    1.2099643611E-01    1.2251838392E-01
    1.2405947548E-01    1.2561995158E-01    1.2720005605E-01    1.2880003579E-01
    1.3042014080E-01    1.3206062422E-01    1.3372174238E-01    1.3540375484E-01
    1.3710692441E-01    1.3883151721E-01    1.4057780273E-01    1.4234605380E-01
    1.4413654674E-01    1.4594956131E-01    1.4778538080E-01    1.4964429205E-01
    1.5152658552E-01    1.5343255534E-01    1.5536249930E-01    1.5731671897E-01
    1.5929551969E-01    1.6129921067E-01    1.6332810497E-01    1.6538251963E-01
    1.6746277564E-01    1.6956919804E-01    1.7170211599E-01    1.7386186273E-01
   </PP_RAB>
 </PP_MESH>
  <PP_LOCAL type="real"  size="1164" columns="4">
   -2.6440022611E+01   -2.6670019394E+01   -2.6656378355E+01   -2.6662133926E+01
   -2.6662745908E+01   -2.6663129114E+01   -2.6662980617E+01   -2.6662773619E+01
   -2.6663062685E+01   -2.6662866402E+01   -2.6663134751E+01   -2.6662906774E+01
   -2.6662937877E+01   -2.6663028707E+01   -2.6662961412E+01   -2.6663155508E+01
   -2.6662854142E+01   -2.6663033240E+01   -2.6663102474E+01   -2.6662920488E+01
   -2.6663118775E+01   -2.6663010892E+01   -2.6662958286E+01   -2.6663071930E+01
   -2.6663076462E+01   -2.6663083189E+01   -2.6662986686E+01   -2.6663042119E+01
   -2.6663087529E+01   -2.6663069544E+01   -2.6663097534E+01   -2.6663032013E+01
   -2.6663111689E+01   -2.6663028175E+01   -2.6663061471E+01   -2.6663109978E+01
   -2.6663134036E+01   -2.6663046045E+01   -2.6663078124E+01   -2.6663099406E+01
   -2.6663153561E+01   -2.6663065903E+01   -2.6663077650E+01   -2.6663077192E+01
   -2.6663158798E+01   -2.6663088249E+01   -2.6663101624E+01   -2.6663140398E+01
   -2.6663112101E+01   -2.6663095387E+01   -2.6663150418E+01   -2.6663096338E+01
   -2.6663129287E+01   -2.6663127210E+01   -2.6663175181E+01   -2.6663105243E+01
   -2.6663101312E+01   -2.6663196825E+01   -2.6663086305E+01   -2.6663161496E+01
   -2.6663110932E+01   -2.6663154061E+01   -2.6663127901E+01   -2.6663193971E+01
   -2.6663110137E+01   -2.6663168601E+01   -2.6663125044E+01   -2.6663165982E+01
   -2.6663132983E+01   -2.6663132887E+01   -2.6663196833E+01   -2.6663135256E+01
   -2.6663171197E+01   -2.6663142102E+01   -2.6663162203E+01   -2.6663159110E+01
   -2.6663169916E+01   -2.6663171794E+01   -2.6663160923E+01   -2.6663126801E+01
   -2.6663177059E+01   -2.6663186899E+01   -2.6663157769E+01   -2.6663173936E+01
   -2.6663168837E+01   -2.6663148333E+01   -2.6663194155E+01   -2.6663169215E+01
   -2.6663186072E+01   -2.6663146906E+01   -2.6663180253E+01   -2.6663184252E+01
   -2.6663161230E+01   -2.6663182153E+01   -2.6663175375E+01   -2.6663174799E+01
   -2.6663193352E+01   -2.6663163015E+01   -2.6663192706E+01   -2.6663176284E+01
   -2.6663177048E+01   -2.6663192767E+01   -2.6663172203E+01   -2.6663188437E+01
   -2.6663185123E+01   -2.6663180685E+01   -2.6663192017E+01   -2.6663175323E+01
   -2.6663191541E+01   -2.6663190458E+01   -2.6663175608E+01   -2.6663193095E+01
   -2.6663179001E+01   -2.6663188895E+01   -2.6663193997E+01   -2.6663188680E+01
   -2.6663181584E+01   -2.6663199419E+01   -2.6663191541E+01   -2.6663184310E+01
   -2.6663188687E+01   -2.6663193111E+01   -2.6663195625E+01   -2.6663187167E+01
   -2.6663193307E+01   -2.6663195661E+01   -2.6663185179E+01   -2.6663201682E+01
   -2.6663187436E+01   -2.6663196167E+01   -2.6663195412E+01   -2.6663195606E+01
   -2.6663189932E+01   -2.6663202571E+01   -2.6663188633E+01   -2.6663198044E+01
   -2.6663195800E+01   -2.6663196395E+01   -2.6663195489E+01   -2.6663194855E+01
   -2.6663197628E+01   -2.6663201392E+01   -2.6663194470E+01   -2.6663198514E+01
   -2.6663195225E+01   -2.6663197233E+01   -2.6663197756E+01   -2.6663199931E+01
   -2.6663199977E+01   -2.6663197650E+01   -2.6663197787E+01   -2.6663198091E+01
   -2.6663201730E+01   -2.6663196491E+01   -2.6663200421E+01   -2.6663203091E+01
   -2.6663194818E+01   -2.6663201046E+01   -2.6663202065E+01   -2.6663198408E+01
   -2.6663200719E+01   -2.6663201809E+01   -2.6663198220E+01   -2.6663204478E+01
   -2.6663197184E+01   -2.6663204932E+01   -2.6663199599E+01   -2.6663199730E+01
   -2.6663202387E+01   -2.6663202690E+01   -2.6663199829E+01   -2.6663202316E+01
   -2.6663199017E+01   -2.6663205328E+01   -2.6663200206E+01   -2.6663203519E+01
   -2.6663201616E+01   -2.6663201728E+01   -2.6663201784E+01   -2.6663203403E+01
   -2.6663204003E+01   -2.6663200807E+01   -2.6663202392E+01   -2.6663206104E+01
   -2.6663199836E+01   -2.6663204462E+01   -2.6663203109E+01   -2.6663201888E+01
   -2.6663205097E+01   -2.6663201218E+01   -2.6663203995E+01   -2.6663203239E+01
   -2.6663204819E+01   -2.6663201900E+01   -2.6663205240E+01   -2.6663202081E+01
   -2.6663204253E+01   -2.6663204169E+01   -2.6663203100E+01   -2.6663204396E+01
   -2.6663204588E+01   -2.6663202216E+01   -2.6663204458E+01   -2.6663204591E+01
   -2.6663203675E+01   -2.6663205578E+01   -2.6663202994E+01   -2.6663204469E+01
   -2.6663204543E+01   -2.6663204062E+01   -2.6663204915E+01   -2.6663203801E+01
   -2.6663204267E+01   -2.6663204740E+01   -2.6663204377E+01   -2.6663205213E+01
   -2.6663204239E+01   -2.6663204477E+01   -2.6663204663E+01   -2.6663205388E+01
   -2.6663204333E+01   -2.6663204598E+01   -2.6663204803E+01   -2.6663205400E+01
   -2.6663203843E+01   -2.6663205563E+01   -2.6663204839E+01   -2.6663205324E+01
   -2.6663204340E+01   -2.6663205362E+01   -2.6663204969E+01   -2.6663204900E+01
   -2.6663204995E+01   -2.6663205661E+01   -2.6663204468E+01   -2.6663205153E+01
   -2.6663205221E+01   -2.6663205510E+01   -2.6663205084E+01   -2.6663204859E+01
   -2.6663205641E+01   -2.6663204939E+01   -2.6663205567E+01   -2.6663205369E+01
   -2.6663205241E+01   -2.6663204714E+01   -2.6663206015E+01   -2.6663205334E+01
   -2.6663205454E+01   -2.6663205214E+01   -2.6663205161E+01   -2.6663205717E+01
   -2.6663205290E+01   -2.6663205670E+01   -2.6663204979E+01   -2.6663205843E+01
   -2.6663205174E+01   -2.6663205536E+01   -2.6663205457E+01   -2.6663205666E+01
   -2.6663205447E+01   -2.6663205653E+01   -2.6663205350E+01   -2.6663205506E+01
   -2.6663205734E+01   -2.6663205326E+01   -2.6663205771E+01   -2.6663205452E+01
   -2.6663205881E+01   -2.6663205300E+01   -2.6663205742E+01   -2.6663205574E+01
   -2.6663205413E+01   -2.6663205875E+01   -2.6663205557E+01   -2.6663205390E+01
   -2.6663205669E+01   -2.6663205868E+01   -2.6663205703E+01   -2.6663205448E+01
   -2.6663205600E+01   -2.6663205669E+01   -2.6663205724E+01   -2.6663205491E+01
   -2.6663205814E+01   -2.6663205616E+01   -2.6663205630E+01   -2.6663205669E+01
   -2.6663205529E+01   -2.6663206012E+01   -2.6663205405E+01   -2.6663205726E+01
   -2.6663205643E+01   -2.6663205592E+01   -2.6663205751E+01   -2.6663205651E+01
   -2.6663205616E+01   -2.6663205718E+01   -2.6663205502E+01   -2.6663205763E+01
   -2.6663205735E+01   -2.6663205543E+01   -2.6663205620E+01   -2.6663205736E+01
   -2.6663205550E+01   -2.6663205682E+01   -2.6663205662E+01   -2.6663205565E+01
   -2.6663205605E+01   -2.6663205720E+01   -2.6663205511E+01   -2.6663205607E+01
   -2.6663205588E+01   -2.6663205646E+01   -2.6663205586E+01   -2.6663205539E+01
   -2.6663205612E+01   -2.6663205492E+01   -2.6663205607E+01   -2.6663205559E+01
   -2.6663205501E+01   -2.6663205474E+01   -2.6663205623E+01   -2.6663205467E+01
   -2.6663205518E+01   -2.6663205459E+01   -2.6663205474E+01   -2.6663205477E+01
   -2.6663205461E+01   -2.6663205428E+01   -2.6663205424E+01   -2.6663205430E+01
   -2.6663205363E+01   -2.6663205361E+01   -2.6663205370E+01   -2.6663205412E+01
   -2.6663205298E+01   -2.6663205362E+01   -2.6663205247E+01   -2.6663205307E+01
   -2.6663205269E+01   -2.6663205236E+01   -2.6663205232E+01   -2.6663205250E+01
   -2.6663205138E+01   -2.6663205221E+01   -2.6663205092E+01   -2.6663205128E+01
   -2.6663205124E+01   -2.6663205071E+01   -2.6663205053E+01   -2.6663205031E+01
   -2.6663204991E+01   -2.6663204976E+01   -2.6663204952E+01   -2.6663204921E+01
   -2.6663204928E+01   -2.6663204843E+01   -2.6663204821E+01   -2.6663204792E+01
   -2.6663204768E+01   -2.6663204761E+01   -2.6663204703E+01   -2.6663204662E+01
   -2.6663204639E+01   -2.6663204581E+01   -2.6663204569E+01   -2.6663204516E+01
   -2.6663204488E+01   -2.6663204444E+01   -2.6663204401E+01   -2.6663204337E+01
   -2.6663204336E+01   -2.6663204250E+01   -2.6663204237E+01   -2.6663204176E+01
   -2.6663204126E+01   -2.6663204075E+01   -2.6663204012E+01   -2.6663203950E+01
   -2.6663203949E+01   -2.6663203863E+01   -2.6663203802E+01   -2.6663203746E+01
   -2.6663203679E+01   -2.6663203624E+01   -2.6663203565E+01   -2.6663203508E+01
   -2.6663203427E+01   -2.6663203360E+01   -2.6663203297E+01   -2.6663203222E+01
   -2.6663203144E+01   -2.6663203077E+01   -2.6663202999E+01   -2.6663202922E+01
   -2.6663202837E+01   -2.6663202745E+01   -2.6663202666E+01   -2.6663202583E+01
   -2.6663202494E+01   -2.6663202398E+01   -2.6663202301E+01   -2.6663202198E+01
   -2.6663202114E+01   -2.6663202008E+01   -2.6663201887E+01   -2.6663201808E+01
   -2.6663201675E+01   -2.6663201565E+01   -2.6663201461E+01   -2.6663201331E+01
   -2.6663201213E+01   -2.6663201085E+01   -2.6663200968E+01   -2.6663200827E+01
   -2.6663200693E+01   -2.6663200557E+01   -2.6663200415E+01   -2.6663200273E+01
   -2.6663200121E+01   -2.6663199970E+01   -2.6663199808E+01   -2.6663199650E+01
   -2.6663199486E+01   -2.6663199321E+01   -2.6663199141E+01   -2.6663198973E+01
   -2.6663198785E+01   -2.6663198598E+01   -2.6663198407E+01   -2.6663198208E+01
   -2.6663198016E+01   -2.6663197803E+01   -2.6663197596E+01   -2.6663197371E+01
   -2.6663197154E+01   -2.6663196925E+01   -2.6663196689E+01   -2.6663196456E+01
   -2.6663196207E+01   -2.6663195953E+01   -2.6663195696E+01   -2.6663195429E+01
   -2.6663195161E+01   -2.6663194876E+01   -2.6663194596E+01   -2.6663194308E+01
   -2.6663193998E+01   -2.6663193690E+01   -2.6663193382E+01   -2.6663193048E+01
   -2.6663192725E+01   -2.6663192382E+01   -2.6663192032E+01   -2.6663191672E+01
   -2.6663191308E+01   -2.6663190932E+01   -2.6663190546E+01   -2.6663190152E+01
   -2.6663189742E+01   -2.6663189329E+01   -2.6663188901E+01   -2.6663188464E+01
   -2.6663188019E+01   -2.6663187556E+01   -2.6663187087E+01   -2.6663186605E+01
   -2.6663186105E+01   -2.6663185600E+01   -2.6663185079E+01   -2.6663184544E+01
   -2.6663183997E+01   -2.6663183437E+01   -2.6663182860E+01   -2.6663182269E+01
   -2.6663181663E+01   -2.6663181045E+01   -2.6663180408E+01   -2.6663179755E+01
   -2.6663179086E+01   -2.6663178400E+01   -2.6663177698E+01   -2.6663176977E+01
   -2.6663176237E+01   -2.6663175480E+01   -2.6663174701E+01   -2.6663173906E+01
   -2.6663173089E+01   -2.6663172250E+01   -2.6663171391E+01   -2.6663170512E+01
   -2.6663169608E+01   -2.6663168681E+01   -2.6663167733E+01   -2.6663166760E+01
   -2.6663165761E+01   -2.6663164739E+01   -2.6663163689E+01   -2.6663162615E+01
   -2.6663161509E+01   -2.6663160381E+01   -2.6663159220E+01   -2.6663158032E+01
   -2.6663156812E+01   -2.6663155564E+01   -2.6663154281E+01   -2.6663152968E+01
   -2.6663151620E+01   -2.6663150240E+01   -2.6663148823E+01   -2.6663147371E+01
   -2.6663145883E+01   -2.6663144355E+01   -2.6663142790E+01   -2.6663141186E+01
   -2.6663139540E+01   -2.6663137853E+01   -2.6663136124E+01   -2.6663134349E+01
   -2.6663132532E+01   -2.6663130666E+01   -2.6663128755E+01   -2.6663126795E+01
   -2.6663124785E+01   -2.6663122725E+01   -2.6663120611E+01   -2.6663118445E+01
   -2.6663116224E+01   -2.6663113947E+01   -2.6663111611E+01   -2.6663109217E+01
   -2.6663106763E+01   -2.6663104245E+01   -2.6663101665E+01   -2.6663099019E+01
   -2.6663096306E+01   -2.6663093524E+01   -2.6663090673E+01   -2.6663087748E+01
   -2.6663084750E+01   -2.6663081675E+01   -2.6663078524E+01   -2.6663075291E+01
   -2.6663071978E+01   -2.6663068580E+01   -2.6663065097E+01   -2.6663061525E+01
   -2.6663057863E+01   -2.6663054107E+01   -2.6663050258E+01   -2.6663046310E+01
   -2.6663042263E+01   -2.6663038113E+01   -2.6663033858E+01   -2.6663029495E+01
   -2.6663025022E+01   -2.6663020436E+01   -2.6663015734E+01   -2.6663010912E+01
   -2.6663005968E+01   -2.6663000900E+01   -2.6662995703E+01   -2.6662990374E+01
   -2.6662984911E+01   -2.6662979309E+01   -2.6662973565E+01   -2.6662967676E+01
   -2.6662961638E+01   -2.6662955447E+01   -2.6662949099E+01   -2.6662942590E+01
   -2.6662935917E+01   -2.6662929075E+01   -2.6662922060E+01   -2.6662914867E+01
   -2.6662907491E+01   -2.6662899930E+01   -2.6662892176E+01   -2.6662884227E+01
   -2.6662876076E+01   -2.6662867719E+01   -2.6662859150E+01   -2.6662850364E+01
   -2.6662841356E+01   -2.6662832120E+01   -2.6662822649E+01   -2.6662812940E+01
   -2.6662802984E+01   -2.6662792776E+01   -2.6662782310E+01   -2.6662771579E+01
   -2.6662760576E+01   -2.6662749294E+01   -2.6662737727E+01   -2.6662725867E+01
   -2.6662713707E+01   -2.6662701239E+01   -2.6662688455E+01   -2.6662675348E+01
   -2.6662661908E+01   -2.6662648129E+01   -2.6662634000E+01   -2.6662619514E+01
   -2.6662604661E+01   -2.6662589432E+01   -2.6662573817E+01   -2.6662557807E+01
   -2.6662541392E+01   -2.6662524561E+01   -2.6662507304E+01   -2.6662489610E+01
   -2.6662471467E+01   -2.6662452866E+01   -2.6662433793E+01   -2.6662414238E+01
   -2.6662394188E+01   -2.6662373629E+01   -2.6662352550E+01   -2.6662330938E+01
   -2.6662308778E+01   -2.6662286057E+01   -2.6662262761E+01   -2.6662238875E+01
   -2.6662214383E+01   -2.6662189272E+01   -2.6662163525E+01   -2.6662137126E+01
   -2.6662110059E+01   -2.6662082306E+01   -2.6662053850E+01   -2.6662024674E+01
   -2.6661994758E+01   -2.6661964086E+01   -2.6661932636E+01   -2.6661900390E+01
   -2.6661867328E+01   -2.6661833428E+01   -2.6661798669E+01   -2.6661763031E+01
   -2.6661726490E+01   -2.6661689023E+01   -2.6661650608E+01   -2.6661611219E+01
   -2.6661570833E+01   -2.6661529425E+01   -2.6661486967E+01   -2.6661443434E+01
   -2.6661398799E+01   -2.6661353033E+01   -2.6661306108E+01   -2.6661257994E+01
   -2.6661208662E+01   -2.6661158080E+01   -2.6661106217E+01   -2.6661053041E+01
   -2.6660998517E+01   -2.6660942612E+01   -2.6660885291E+01   -2.6660826518E+01
   -2.6660766257E+01   -2.6660704468E+01   -2.6660641115E+01   -2.6660576156E+01
   -2.6660509552E+01   -2.6660441261E+01   -2.6660371239E+01   -2.6660299443E+01
   -2.6660225829E+01   -2.6660150349E+01   -2.6660072957E+01   -2.6659993604E+01
   -2.6659912241E+01   -2.6659828816E+01   -2.6659743277E+01   -2.6659655570E+01
   -2.6659565641E+01   -2.6659473434E+01   -2.6659378889E+01   -2.6659281949E+01
   -2.6659182552E+01   -2.6659080636E+01   -2.6658976136E+01   -2.6658868989E+01
   -2.6658759126E+01   -2.6658646478E+01   -2.6658530975E+01   -2.6658412544E+01
   -2.6658291111E+01   -2.6658166600E+01   -2.6658038932E+01   -2.6657908028E+01
   -2.6657773806E+01   -2.6657636180E+01   -2.6657495065E+01   -2.6657350372E+01
   -2.6657202011E+01   -2.6657049887E+01   -2.6656893906E+01   -2.6656733969E+01
   -2.6656569976E+01   -2.6656401824E+01   -2.6656229408E+01   -2.6656052618E+01
   -2.6655871344E+01   -2.6655685472E+01   -2.6655494885E+01   -2.6655299463E+01
   -2.6655099083E+01   -2.6654893620E+01   -2.6654682943E+01   -2.6654466920E+01
   -2.6654245416E+01   -2.6654018290E+01   -2.6653785400E+01   -2.6653546600E+01
   -2.6653301738E+01   -2.6653050661E+01   -2.6652793210E+01   -2.6652529223E+01
   -2.6652258534E+01   -2.6651980972E+01   -2.6651696362E+01   -2.6651404524E+01
   -2.6651105275E+01   -2.6650798425E+01   -2.6650483781E+01   -2.6650161144E+01
   -2.6649830311E+01   -2.6649491072E+01   -2.6649143213E+01   -2.6648786514E+01
   -2.6648420750E+01   -2.6648045690E+01   -2.6647661096E+01   -2.6647266725E+01
   -2.6646862327E+01   -2.6646447646E+01   -2.6646022420E+01   -2.6645586380E+01
   -2.6645139248E+01   -2.6644680742E+01   -2.6644210570E+01   -2.6643728435E+01
   -2.6643234031E+01   -2.6642727043E+01   -2.6642207150E+01   -2.6641674021E+01
   -2.6641127318E+01   -2.6640566693E+01   -2.6639991789E+01   -2.6639402241E+01
   -2.6638797673E+01   -2.6638177700E+01   -2.6637541927E+01   -2.6636889948E+01
   -2.6636221349E+01   -2.6635535701E+01   -2.6634832568E+01   -2.6634111501E+01
   -2.6633372037E+01   -2.6632613706E+01   -2.6631836021E+01   -2.6631038484E+01
   -2.6630220585E+01   -2.6629381799E+01   -2.6628521590E+01   -2.6627639403E+01
   -2.6626734674E+01   -2.6625806821E+01   -2.6624855248E+01   -2.6623879341E+01
   -2.6622878474E+01   -2.6621852000E+01   -2.6620799259E+01   -2.6619719571E+01
   -2.6618612240E+01   -2.6617476549E+01   -2.6616311764E+01   -2.6615117132E+01
   -2.6613891879E+01   -2.6612635210E+01   -2.6611346311E+01   -2.6610024344E+01
   -2.6608668451E+01   -2.6607277749E+01   -2.6605851334E+01   -2.6604388275E+01
   -2.6602887618E+01   -2.6601348384E+01   -2.6599769567E+01   -2.6598150133E+01
   -2.6596489023E+01   -2.6594785146E+01   -2.6593037386E+01   -2.6591244594E+01
   -2.6589405591E+01   -2.6587519166E+01   -2.6585584075E+01   -2.6583599041E+01
   -2.6581562753E+01   -2.6579473864E+01   -2.6577330990E+01   -2.6575132709E+01
   -2.6572877563E+01   -2.6570564051E+01   -2.6568190633E+01   -2.6565755727E+01
   -2.6563257708E+01   -2.6560694905E+01   -2.6558065602E+01   -2.6555368037E+01
   -2.6552600398E+01   -2.6549760825E+01   -2.6546847405E+01   -2.6543858173E+01
   -2.6540791111E+01   -2.6537644142E+01   -2.6534415135E+01   -2.6531101897E+01
   -2.6527702177E+01   -2.6524213659E+01   -2.6520633963E+01   -2.6516960644E+01
   -2.6513191188E+01   -2.6509323009E+01   -2.6505353451E+01   -2.6501279783E+01
   -2.6497099197E+01   -2.6492808805E+01   -2.6488405640E+01   -2.6483886649E+01
   -2.6479248694E+01   -2.6474488550E+01   -2.6469602897E+01   -2.6464588324E+01
   -2.6459441323E+01   -2.6454158284E+01   -2.6448735497E+01   -2.6443169145E+01
   -2.6437455303E+01   -2.6431589934E+01   -2.6425568886E+01   -2.6419387887E+01
   -2.6413042544E+01   -2.6406528337E+01   -2.6399840620E+01   -2.6392974610E+01
   -2.6385925387E+01   -2.6378687893E+01   -2.6371256921E+01   -2.6363627117E+01
   -2.6355792972E+01   -2.6347748819E+01   -2.6339488827E+01   -2.6331007000E+01
   -2.6322297165E+01   -2.6313352977E+01   -2.6304167904E+01   -2.6294735228E+01
   -2.6285048038E+01   -2.6275099225E+01   -2.6264881475E+01   -2.6254387266E+01
   -2.6243608857E+01   -2.6232538289E+01   -2.6221167375E+01   -2.6209487692E+01
   -2.6197490580E+01   -2.6185167130E+01   -2.6172508182E+01   -2.6159504316E+01
   -2.6146145846E+01   -2.6132422811E+01   -2.6118324973E+01   -2.6103841806E+01
   -2.6088962489E+01   -2.6073675901E+01   -2.6057970612E+01   -2.6041834877E+01
   -2.6025256629E+01   -2.6008223468E+01   -2.5990722660E+01   -2.5972741124E+01
   -2.5954265428E+01   -2.5935281781E+01   -2.5915776024E+01   -2.5895733627E+01
   -2.5875139679E+01   -2.5853978880E+01   -2.5832235537E+01   -2.5809893558E+01
   -2.5786936443E+01   -2.5763347280E+01   -2.5739108737E+01   -2.5714203061E+01
   -2.5688612068E+01   -2.5662317142E+01   -2.5635299229E+01   -2.5607538833E+01
   -2.5579016017E+01   -2.5549710393E+01   -2.5519601129E+01   -2.5488666939E+01
   -2.5456886092E+01   -2.5424236404E+01   -2.5390695245E+01   -2.5356239541E+01
   -2.5320845775E+01   -2.5284489993E+01   -2.5247147810E+01   -2.5208794420E+01
   -2.5169404597E+01   -2.5128952716E+01   -2.5087412753E+01   -2.5044758308E+01
   -2.5000962613E+01   -2.4955998554E+01   -2.4909838686E+01   -2.4862455255E+01
   -2.4813820221E+01   -2.4763905283E+01   -2.4712681907E+01   -2.4660121350E+01
   -2.4606194701E+01   -2.4550872907E+01   -2.4494126816E+01   -2.4435927211E+01
   -2.4376244856E+01   -2.4315050539E+01   -2.4252315120E+01   -2.4188009581E+01
   -2.4122105077E+01   -2.4054572995E+01   -2.3985385009E+01   -2.3914513142E+01
   -2.3841929831E+01   -2.3767607987E+01   -2.3691521071E+01   -2.3613643157E+01
   -2.3533949010E+01   -2.3452414157E+01   -2.3369014961E+01   -2.3283728704E+01
   -2.3196533658E+01   -2.3107409169E+01   -2.3016335734E+01   -2.2923295080E+01
   -2.2828270243E+01   -2.2731245646E+01   -2.2632207176E+01   -2.2531142255E+01
   -2.2428039918E+01   -2.2322890873E+01   -2.2215687574E+01   -2.2106424280E+01
   -2.1995097106E+01   -2.1881704077E+01   -2.1766245174E+01   -2.1648722366E+01
   -2.1529139642E+01   -2.1407503035E+01   -2.1283820633E+01   -2.1158102587E+01
   -2.1030361105E+01   -2.0900610444E+01   -2.0768866886E+01   -2.0635148714E+01
   -2.0499476177E+01   -2.0361871448E+01   -2.0222358584E+01   -2.0080963476E+01
   -1.9937713805E+01   -1.9792639001E+01   -1.9645770201E+01   -1.9497140229E+01
   -1.9346783579E+01   -1.9194736419E+01   -1.9041036621E+01   -1.8885723808E+01
   -1.8728839437E+01   -1.8570426910E+01   -1.8410531717E+01   -1.8249201617E+01
   -1.8086486852E+01   -1.7922440386E+01   -1.7757118184E+01   -1.7590579504E+01
   -1.7422887214E+01   -1.7254108116E+01   -1.7084313273E+01   -1.6913578323E+01
   -1.6741983774E+01   -1.6569615264E+01   -1.6396563769E+01   -1.6222925736E+01
   -1.6048803129E+01   -1.5874303368E+01   -1.5699539129E+01   -1.5524627996E+01
   -1.5349691952E+01   -1.5174856696E+01   -1.5000250790E+01   -1.4826004652E+01
   -1.4652249418E+01   -1.4479115700E+01   -1.4306732303E+01   -1.4135224933E+01
   -1.3964714962E+01   -1.3795318305E+01   -1.3627144436E+01   -1.3460295600E+01
   -1.3294866226E+01   -1.3130942526E+01   -1.2968602268E+01   -1.2807914642E+01
   -1.2648940149E+01   -1.2491730390E+01   -1.2336327655E+01   -1.2182763982E+01
   -1.2031059900E+01   -1.1881223215E+01   -1.1733255848E+01   -1.1587151882E+01
   -1.1442902510E+01   -1.1300500393E+01   -1.1159935883E+01   -1.1021138594E+01
   -1.0884029712E+01   -1.0748599488E+01   -1.0614839789E+01   -1.0482743408E+01
   -1.0352302726E+01   -1.0223508622E+01   -1.0096349588E+01   -9.9708110988E+00
   -9.8468752739E+00   -9.7245208538E+00   -9.6037234948E+00   -9.4844563626E+00
   -9.3666909785E+00   -9.2503982426E+00   -9.1355495383E+00   -9.0221178038E+00
   -8.9100784532E+00   -8.7994100390E+00   -8.6900945710E+00   -8.5821174391E+00
   -8.4754669389E+00   -8.3701334425E+00   -8.2661083165E+00   -8.1633827258E+00
   -8.0619464982E+00   -7.9617872249E+00   -7.8628897538E+00   -7.7652361756E+00
   -7.6688063258E+00   -7.5735787291E+00   -7.4795318247E+00   -7.3866452398E+00
   -7.2949006964E+00   -7.2042817377E+00   -7.1147410452E+00   -7.0263634805E+00
   -6.9390831464E+00   -6.8528872404E+00   -6.7677619238E+00   -6.6836938718E+00
   -6.6006699382E+00   -6.5186771442E+00   -6.4377026758E+00   -6.3577338819E+00
   -6.2787582716E+00   -6.2007635127E+00   -6.1237374284E+00   -6.0476679960E+00
   -5.9725433439E+00   -5.8983517495E+00   -5.8250816370E+00   -5.7527215751E+00
   -5.6812602746E+00   -5.6106865865E+00   -5.5409894998E+00   -5.4721581397E+00
   -5.4041817651E+00   -5.3370497678E+00   -5.2707516696E+00   -5.2052771214E+00
   -5.1406159013E+00   -5.0767579132E+00   -5.0136931850E+00   -4.9514118674E+00
   -4.8899042324E+00   -4.8291606718E+00   -4.7691716960E+00   -4.7099279324E+00
   -4.6514201244E+00   -4.5936391296E+00   -4.5365759189E+00   -4.4802215750E+00
   -4.4245672910E+00   -4.3696043695E+00   -4.3153242207E+00   -4.2617183615E+00
   -4.2087784145E+00   -4.1564961058E+00   -4.1048632760E+00   -4.0538710716E+00
   -4.0035148710E+00   -3.9537811205E+00   -3.9046666653E+00   -3.8561621279E+00
   -3.8082601143E+00   -3.7609531482E+00   -3.7142338373E+00   -3.6680948814E+00
   -3.6225290711E+00   -3.5775292866E+00   -3.5330884964E+00   -3.4891997568E+00
   -3.4458562100E+00   -3.4030510836E+00   -3.3607776894E+00   -3.3190294222E+00
   -3.2777997589E+00   -3.2370822575E+00   -3.1968705560E+00   -3.1571583714E+00
   -3.1179394987E+00   -3.0792078101E+00   -3.0409572538E+00   -3.0031818533E+00
   -2.9658757061E+00   -2.9290329833E+00   -2.8926479282E+00   -2.8567148556E+00
   -2.8212281510E+00   -2.7861822697E+00   -2.7515717356E+00   -2.7173911409E+00
   -2.6836351449E+00   -2.6502984731E+00   -2.6173759166E+00   -2.5848623312E+00
   -2.5527526367E+00   -2.5210418158E+00   -2.4897249136E+00   -2.4587970369E+00
   -2.4282533531E+00   -2.3980890896E+00   -2.3682995332E+00   -2.3388800293E+00
   -2.3098259809E+00   -2.2811328483E+00   -2.2527961481E+00   -2.2248114526E+00
   -2.1971743891E+00   -2.1698806394E+00   -2.1429259385E+00   -2.1163060748E+00
   -2.0900168889E+00   -2.0640542730E+00   -2.0384141703E+00   -2.0130925746E+00
  </PP_LOCAL>
 <PP_NONLOCAL>
   <PP_BETA.1
       type="real"
       size="1164"
       columns="4"
       index="1"
       angular_momentum="0"
       cutoff_radius_index="1032"
       cutoff_radius="    2.6712123880E+00" >
    0.0000000000E+00    3.5267233824E-05    3.5710841016E-05    3.6160028099E-05
    3.6614865260E-05    3.7075423568E-05    3.7541774987E-05    3.8013992384E-05
    3.8492149545E-05    3.8976321183E-05    3.9466582950E-05    3.9963011451E-05
    4.0465684253E-05    4.0974679902E-05    4.1490077927E-05    4.2011958861E-05
    4.2540404250E-05    4.3075496663E-05    4.3617319710E-05    4.4165958052E-05
    4.4721497415E-05    4.5284024603E-05    4.5853627512E-05    4.6430395143E-05
    4.7014417618E-05    4.7605786191E-05    4.8204593266E-05    4.8810932406E-05
    4.9424898354E-05    5.0046587042E-05    5.0676095612E-05    5.1313522424E-05
    5.1958967079E-05    5.2612530428E-05    5.3274314592E-05    5.3944422976E-05
    5.4622960286E-05    5.5310032545E-05    5.6005747108E-05    5.6710212684E-05
    5.7423539345E-05    5.8145838552E-05    5.8877223164E-05    5.9617807461E-05
    6.0367707163E-05    6.1127039442E-05    6.1895922944E-05    6.2674477811E-05
    6.3462825692E-05    6.4261089769E-05    6.5069394772E-05    6.5887867000E-05
    6.6716634342E-05    6.7555826293E-05    6.8405573979E-05    6.9266010176E-05
    7.0137269327E-05    7.1019487570E-05    7.1912802751E-05    7.2817354455E-05
    7.3733284018E-05    7.4660734557E-05    7.5599850988E-05    7.6550780048E-05
    7.7513670324E-05    7.8488672269E-05    7.9475938228E-05    8.0475622465E-05
    8.1487881181E-05    8.2512872544E-05    8.3550756711E-05    8.4601695854E-05
    8.5665854183E-05    8.6743397977E-05    8.7834495603E-05    8.8939317548E-05
    9.0058036442E-05    9.1190827087E-05    9.2337866484E-05    9.3499333861E-05
    9.4675410699E-05    9.5866280762E-05    9.7072130127E-05    9.8293147209E-05
    9.9529522795E-05    1.0078145007E-04    1.0204912465E-04    1.0333274462E-04
    1.0463251054E-04    1.0594862550E-04    1.0728129515E-04    1.0863072772E-04
    1.0999713406E-04    1.1138072767E-04    1.1278172476E-04    1.1420034421E-04
    1.1563680770E-04    1.1709133968E-04    1.1856416742E-04    1.2005552105E-04
    1.2156563360E-04    1.2309474102E-04    1.2464308225E-04    1.2621089922E-04
    1.2779843689E-04    1.2940594333E-04    1.3103366971E-04    1.3268187037E-04
    1.3435080284E-04    1.3604072790E-04    1.3775190959E-04    1.3948461530E-04
    1.4123911577E-04    1.4301568514E-04    1.4481460099E-04    1.4663614443E-04
    1.4848060005E-04    1.5034825608E-04    1.5223940432E-04    1.5415434028E-04
    1.5609336317E-04    1.5805677596E-04    1.6004488545E-04    1.6205800227E-04
    1.6409644099E-04    1.6616052011E-04    1.6825056215E-04    1.7036689368E-04
    1.7250984538E-04    1.7467975210E-04    1.7687695288E-04    1.7910179104E-04
    1.8135461423E-04    1.8363577444E-04    1.8594562811E-04    1.8828453616E-04
    1.9065286406E-04    1.9305098185E-04    1.9547926425E-04    1.9793809068E-04
    2.0042784534E-04    2.0294891726E-04    2.0550170036E-04    2.0808659351E-04
    2.1070400062E-04    2.1335433066E-04    2.1603799774E-04    2.1875542119E-04
    2.2150702563E-04    2.2429324099E-04    2.2711450262E-04    2.2997125135E-04
    2.3286393356E-04    2.3579300123E-04    2.3875891203E-04    2.4176212940E-04
    2.4480312259E-04    2.4788236676E-04    2.5100034306E-04    2.5415753866E-04
    2.5735444690E-04    2.6059156729E-04    2.6386940565E-04    2.6718847413E-04
    2.7054929135E-04    2.7395238244E-04    2.7739827915E-04    2.8088751990E-04
    2.8442064990E-04    2.8799822120E-04    2.9162079280E-04    2.9528893074E-04
    2.9900320818E-04    3.0276420547E-04    3.0657251027E-04    3.1042871766E-04
    3.1433343016E-04    3.1828725789E-04    3.2229081865E-04    3.2634473800E-04
    3.3044964938E-04    3.3460619418E-04    3.3881502187E-04    3.4307679010E-04
    3.4739216476E-04    3.5176182016E-04    3.5618643904E-04    3.6066671278E-04
    3.6520334142E-04    3.6979703381E-04    3.7444850774E-04    3.7915849001E-04
    3.8392771655E-04    3.8875693257E-04    3.9364689264E-04    3.9859836083E-04
    4.0361211082E-04    4.0868892602E-04    4.1382959968E-04    4.1903493505E-04
    4.2430574546E-04    4.2964285451E-04    4.3504709611E-04    4.4051931470E-04
    4.4606036531E-04    4.5167111376E-04    4.5735243672E-04    4.6310522191E-04
    4.6893036823E-04    4.7482878585E-04    4.8080139643E-04    4.8684913318E-04
    4.9297294109E-04    4.9917377701E-04    5.0545260982E-04    5.1181042062E-04
    5.1824820282E-04    5.2476696234E-04    5.3136771774E-04    5.3805150041E-04
    5.4481935470E-04    5.5167233810E-04    5.5861152141E-04    5.6563798887E-04
    5.7275283840E-04    5.7995718170E-04    5.8725214446E-04    5.9463886654E-04
    6.0211850212E-04    6.0969221991E-04    6.1736120332E-04    6.2512665064E-04
    6.3298977525E-04    6.4095180575E-04    6.4901398625E-04    6.5717757646E-04
    6.6544385197E-04    6.7381410439E-04    6.8228964160E-04    6.9087178791E-04
    6.9956188429E-04    7.0836128860E-04    7.1727137575E-04    7.2629353796E-04
    7.3542918496E-04    7.4467974422E-04    7.5404666114E-04    7.6353139934E-04
    7.7313544080E-04    7.8286028619E-04    7.9270745502E-04    8.0267848594E-04
    8.1277493694E-04    8.2299838560E-04    8.3335042936E-04    8.4383268574E-04
    8.5444679261E-04    8.6519440844E-04    8.7607721258E-04    8.8709690547E-04
    8.9825520896E-04    9.0955386656E-04    9.2099464369E-04    9.3257932801E-04
    9.4430972963E-04    9.5618768146E-04    9.6821503944E-04    9.8039368286E-04
    9.9272551466E-04    1.0052124617E-03    1.0178564751E-03    1.0306595305E-03
    1.0436236284E-03    1.0567507945E-03    1.0700430799E-03    1.0835025615E-03
    1.0971313424E-03    1.1109315521E-03    1.1249053470E-03    1.1390549104E-03
    1.1533824533E-03    1.1678902143E-03    1.1825804604E-03    1.1974554868E-03
    1.2125176178E-03    1.2277692069E-03    1.2432126372E-03    1.2588503218E-03
    1.2746847040E-03    1.2907182580E-03    1.3069534891E-03    1.3233929340E-03
    1.3400391614E-03    1.3568947723E-03    1.3739624005E-03    1.3912447128E-03
    1.4087444094E-03    1.4264642249E-03    1.4444069280E-03    1.4625753221E-03
    1.4809722462E-03    1.4996005748E-03    1.5184632185E-03    1.5375631248E-03
    1.5569032779E-03    1.5764866998E-03    1.5963164505E-03    1.6163956282E-03
    1.6367273705E-03    1.6573148542E-03    1.6781612961E-03    1.6992699535E-03
    1.7206441246E-03    1.7422871491E-03    1.7642024088E-03    1.7863933280E-03
    1.8088633741E-03    1.8316160579E-03    1.8546549345E-03    1.8779836040E-03
    1.9016057113E-03    1.9255249474E-03    1.9497450497E-03    1.9742698027E-03
    1.9991030383E-03    2.0242486367E-03    2.0497105270E-03    2.0754926875E-03
    2.1015991467E-03    2.1280339839E-03    2.1548013294E-03    2.1819053656E-03
    2.2093503275E-03    2.2371405035E-03    2.2652802357E-03    2.2937739209E-03
    2.3226260114E-03    2.3518410152E-03    2.3814234972E-03    2.4113780796E-03
    2.4417094428E-03    2.4724223261E-03    2.5035215284E-03    2.5350119089E-03
    2.5668983879E-03    2.5991859478E-03    2.6318796333E-03    2.6649845529E-03
    2.6985058792E-03    2.7324488498E-03    2.7668187684E-03    2.8016210051E-03
    2.8368609979E-03    2.8725442528E-03    2.9086763454E-03    2.9452629213E-03
    2.9823096970E-03    3.0198224610E-03    3.0578070747E-03    3.0962694731E-03
    3.1352156659E-03    3.1746517383E-03    3.2145838522E-03    3.2550182468E-03
    3.2959612399E-03    3.3374192288E-03    3.3793986912E-03    3.4219061863E-03
    3.4649483557E-03    3.5085319247E-03    3.5526637031E-03    3.5973505863E-03
    3.6425995566E-03    3.6884176838E-03    3.7348121270E-03    3.7817901351E-03
    3.8293590483E-03    3.8775262989E-03    3.9262994131E-03    3.9756860112E-03
    4.0256938098E-03    4.0763306225E-03    4.1276043608E-03    4.1795230362E-03
    4.2320947606E-03    4.2853277482E-03    4.3392303162E-03    4.3938108866E-03
    4.4490779875E-03    4.5050402538E-03    4.5617064294E-03    4.6190853680E-03
    4.6771860347E-03    4.7360175074E-03    4.7955889779E-03    4.8559097540E-03
    4.9169892603E-03    4.9788370400E-03    5.0414627564E-03    5.1048761941E-03
    5.1690872610E-03    5.2341059896E-03    5.2999425384E-03    5.3666071937E-03
    5.4341103713E-03    5.5024626179E-03    5.5716746128E-03    5.6417571697E-03
    5.7127212382E-03    5.7845779057E-03    5.8573383989E-03    5.9310140859E-03
    6.0056164775E-03    6.0811572294E-03    6.1576481440E-03    6.2351011718E-03
    6.3135284140E-03    6.3929421235E-03    6.4733547078E-03    6.5547787300E-03
    6.6372269115E-03    6.7207121334E-03    6.8052474389E-03    6.8908460354E-03
    6.9775212961E-03    7.0652867625E-03    7.1541561464E-03    7.2441433319E-03
    7.3352623779E-03    7.4275275199E-03    7.5209531724E-03    7.6155539314E-03
    7.7113445761E-03    7.8083400717E-03    7.9065555716E-03    8.0060064197E-03
    8.1067081528E-03    8.2086765031E-03    8.3119274006E-03    8.4164769756E-03
    8.5223415612E-03    8.6295376958E-03    8.7380821259E-03    8.8479918083E-03
    8.9592839133E-03    9.0719758269E-03    9.1860851536E-03    9.3016297194E-03
    9.4186275743E-03    9.5370969953E-03    9.6570564892E-03    9.7785247954E-03
    9.9015208888E-03    1.0026063983E-02    1.0152173533E-02    1.0279869239E-02
    1.0409171047E-02    1.0540099156E-02    1.0672674018E-02    1.0806916342E-02
    1.0942847096E-02    1.1080487515E-02    1.1219859097E-02    1.1360983613E-02
    1.1503883107E-02    1.1648579898E-02    1.1795096589E-02    1.1943456065E-02
    1.2093681498E-02    1.2245796354E-02    1.2399824390E-02    1.2555789664E-02
    1.2713716537E-02    1.2873629675E-02    1.3035554054E-02    1.3199514963E-02
    1.3365538011E-02    1.3533649126E-02    1.3703874565E-02    1.3876240911E-02
    1.4050775086E-02    1.4227504345E-02    1.4406456290E-02    1.4587658866E-02
    1.4771140371E-02    1.4956929458E-02    1.5145055142E-02    1.5335546798E-02
    1.5528434175E-02    1.5723747392E-02    1.5921516948E-02    1.6121773724E-02
    1.6324548991E-02    1.6529874410E-02    1.6737782041E-02    1.6948304347E-02
    1.7161474199E-02    1.7377324878E-02    1.7595890086E-02    1.7817203947E-02
    1.8041301013E-02    1.8268216271E-02    1.8497985145E-02    1.8730643507E-02
    1.8966227676E-02    1.9204774430E-02    1.9446321005E-02    1.9690905107E-02
    1.9938564915E-02    2.0189339087E-02    2.0443266765E-02    2.0700387583E-02
    2.0960741673E-02    2.1224369669E-02    2.1491312715E-02    2.1761612473E-02
    2.2035311126E-02    2.2312451387E-02    2.2593076502E-02    2.2877230264E-02
    2.3164957011E-02    2.3456301639E-02    2.3751309608E-02    2.4050026944E-02
    2.4352500255E-02    2.4658776729E-02    2.4968904149E-02    2.5282930893E-02
    2.5600905950E-02    2.5922878918E-02    2.6248900020E-02    2.6579020106E-02
    2.6913290665E-02    2.7251763829E-02    2.7594492384E-02    2.7941529778E-02
    2.8292930126E-02    2.8648748222E-02    2.9009039545E-02    2.9373860270E-02
    2.9743267273E-02    3.0117318144E-02    3.0496071192E-02    3.0879585457E-02
    3.1267920714E-02    3.1661137491E-02    3.2059297068E-02    3.2462461495E-02
    3.2870693594E-02    3.3284056977E-02    3.3702616045E-02    3.4126436010E-02
    3.4555582895E-02    3.4990123548E-02    3.5430125652E-02    3.5875657737E-02
    3.6326789186E-02    3.6783590250E-02    3.7246132056E-02    3.7714486617E-02
    3.8188726848E-02    3.8668926570E-02    3.9155160526E-02    3.9647504391E-02
    4.0146034782E-02    4.0650829272E-02    4.1161966399E-02    4.1679525682E-02
    4.2203587626E-02    4.2734233742E-02    4.3271546554E-02    4.3815609611E-02
    4.4366507505E-02    4.4924325876E-02    4.5489151432E-02    4.6061071956E-02
    4.6640176322E-02    4.7226554509E-02    4.7820297612E-02    4.8421497859E-02
    4.9030248618E-02    4.9646644418E-02    5.0270780961E-02    5.0902755132E-02
    5.1542665019E-02    5.2190609923E-02    5.2846690375E-02    5.3511008150E-02
    5.4183666283E-02    5.4864769080E-02    5.5554422139E-02    5.6252732362E-02
    5.6959807968E-02    5.7675758516E-02    5.8400694912E-02    5.9134729433E-02
    5.9877975738E-02    6.0630548885E-02    6.1392565350E-02    6.2164143040E-02
    6.2945401314E-02    6.3736460995E-02    6.4537444393E-02    6.5348475315E-02
    6.6169679090E-02    6.7001182583E-02    6.7843114210E-02    6.8695603962E-02
    6.9558783419E-02    7.0432785768E-02    7.1317745825E-02    7.2213800049E-02
    7.3121086566E-02    7.4039745182E-02    7.4969917407E-02    7.5911746471E-02
    7.6865377348E-02    7.7830956768E-02    7.8808633244E-02    7.9798557088E-02
    8.0800880434E-02    8.1815757252E-02    8.2843343377E-02    8.3883796523E-02
    8.4937276306E-02    8.6003944264E-02    8.7083963881E-02    8.8177500602E-02
    8.9284721860E-02    9.0405797094E-02    9.1540897774E-02    9.2690197417E-02
    9.3853871614E-02    9.5032098049E-02    9.6225056520E-02    9.7432928967E-02
    9.8655899487E-02    9.9894154358E-02    1.0114788207E-01    1.0241727332E-01
    1.0370252109E-01    1.0500382059E-01    1.0632136937E-01    1.0765536726E-01
    1.0900601645E-01    1.1037352148E-01    1.1175808931E-01    1.1315992926E-01
    1.1457925311E-01    1.1601627510E-01    1.1747121193E-01    1.1894428281E-01
    1.2043570947E-01    1.2194571619E-01    1.2347452982E-01    1.2502237980E-01
    1.2658949818E-01    1.2817611965E-01    1.2978248156E-01    1.3140882395E-01
    1.3305538954E-01    1.3472242380E-01    1.3641017494E-01    1.3811889394E-01
    1.3984883457E-01    1.4160025340E-01    1.4337340986E-01    1.4516856620E-01
    1.4698598757E-01    1.4882594201E-01    1.5068870047E-01    1.5257453682E-01
    1.5448372789E-01    1.5641655350E-01    1.5837329642E-01    1.6035424247E-01
    1.6235968044E-01    1.6438990220E-01    1.6644520266E-01    1.6852587979E-01
    1.7063223465E-01    1.7276457141E-01    1.7492319733E-01    1.7710842280E-01
    1.7932056133E-01    1.8155992960E-01    1.8382684741E-01    1.8612163774E-01
    1.8844462673E-01    1.9079614370E-01    1.9317652113E-01    1.9558609470E-01
    1.9802520326E-01    2.0049418885E-01    2.0299339669E-01    2.0552317518E-01
    2.0808387589E-01    2.1067585359E-01    2.1329946617E-01    2.1595507470E-01
    2.1864304339E-01    2.2136373958E-01    2.2411753372E-01    2.2690479935E-01
    2.2972591310E-01    2.3258125465E-01    2.3547120670E-01    2.3839615495E-01
    2.4135648808E-01    2.4435259770E-01    2.4738487833E-01    2.5045372733E-01
    2.5355954490E-01    2.5670273398E-01    2.5988370026E-01    2.6310285209E-01
    2.6636060040E-01    2.6965735870E-01    2.7299354295E-01    2.7636957155E-01
    2.7978586520E-01    2.8324284688E-01    2.8674094170E-01    2.9028057688E-01
    2.9386218160E-01    2.9748618691E-01    3.0115302565E-01    3.0486313229E-01
    3.0861694285E-01    3.1241489475E-01    3.1625742667E-01    3.2014497842E-01
    3.2407799081E-01    3.2805690545E-01    3.3208216461E-01    3.3615421105E-01
    3.4027348782E-01    3.4444043808E-01    3.4865550490E-01    3.5291913104E-01
    3.5723175873E-01    3.6159382943E-01    3.6600578363E-01    3.7046806053E-01
    3.7498109781E-01    3.7954533136E-01    3.8416119494E-01    3.8882911994E-01
    3.9354953501E-01    3.9832286574E-01    4.0314953433E-01    4.0802995920E-01
    4.1296455461E-01    4.1795373028E-01    4.2299789098E-01    4.2809743608E-01
    4.3325275908E-01    4.3846424721E-01    4.4373228086E-01    4.4905723314E-01
    4.5443946928E-01    4.5987934613E-01    4.6537721158E-01    4.7093340392E-01
    4.7654825127E-01    4.8222207088E-01    4.8795516849E-01    4.9374783763E-01
    4.9960035884E-01    5.0551299898E-01    5.1148601041E-01    5.1751963014E-01
    5.2361407904E-01    5.2976956090E-01    5.3598626156E-01    5.4226434792E-01
    5.4860396697E-01    5.5500524475E-01    5.6146828529E-01    5.6799316954E-01
    5.7457995416E-01    5.8122867039E-01    5.8793932278E-01    5.9471188794E-01
    6.0154631322E-01    6.0844251531E-01    6.1540037887E-01    6.2241975500E-01
    6.2950045981E-01    6.3664227275E-01    6.4384493504E-01    6.5110814798E-01
    6.5843157122E-01    6.6581482093E-01    6.7325746795E-01    6.8075903588E-01
    6.8831899911E-01    6.9593678073E-01    7.0361175041E-01    7.1134322229E-01
    7.1913045261E-01    7.2697263748E-01    7.3486891042E-01    7.4281833993E-01
    7.5081992689E-01    7.5887260196E-01    7.6697522287E-01    7.7512657164E-01
    7.8332535168E-01    7.9157018486E-01    7.9985960847E-01    8.0819207210E-01
    8.1656593440E-01    8.2497945980E-01    8.3343081515E-01    8.4191806619E-01
    8.5043917401E-01    8.5899199139E-01    8.6757425904E-01    8.7618360175E-01
    8.8481752448E-01    8.9347340830E-01    9.0214850630E-01    9.1083993933E-01
    9.1954469176E-01    9.2825960703E-01    9.3698138319E-01    9.4570656837E-01
    9.5443155602E-01    9.6315258030E-01    9.7186571116E-01    9.8056684949E-01
    9.8925172216E-01    9.9791587692E-01    1.0065546774E+00    1.0151632977E+00
    1.0237367176E+00    1.0322697168E+00    1.0407568700E+00    1.0491925411E+00
    1.0575708785E+00    1.0658858090E+00    1.0741310327E+00    1.0823000177E+00
    1.0903859946E+00    1.0983819512E+00    1.1062806268E+00    1.1140745077E+00
    1.1217558213E+00    1.1293165312E+00    1.1367483325E+00    1.1440426464E+00
    1.1511906161E+00    1.1581831015E+00    1.1650106757E+00    1.1716636200E+00
    1.1781319207E+00    1.1844052652E+00    1.1904730386E+00    1.1963243209E+00
    1.2019478846E+00    1.2073321920E+00    1.2124653942E+00    1.2173353292E+00
    1.2219295219E+00    1.2262351833E+00    1.2302392118E+00    1.2339281940E+00
    1.2372884067E+00    1.2403058201E+00    1.2429661007E+00    1.2452546169E+00
    1.2471564436E+00    1.2486563693E+00    1.2497389039E+00    1.2503882876E+00
    1.2505885009E+00    1.2503232763E+00    1.2495761115E+00    1.2483302836E+00
    1.2465688657E+00    1.2442747442E+00    1.2414306388E+00    1.2380191239E+00
    1.2340226521E+00    1.2294235797E+00    1.2242041945E+00    1.2183467459E+00
    1.2118334769E+00    1.2046466597E+00    1.1967686324E+00    1.1881818393E+00
    1.1788688743E+00    1.1688125260E+00    1.1579958268E+00    1.1464021048E+00
    1.1340150384E+00    1.1208187149E+00    1.1067976918E+00    1.0919370619E+00
    1.0762225213E+00    1.0596404415E+00    1.0421779449E+00    1.0238229836E+00
    1.0045644220E+00    9.8439212292E-01    9.6329703756E-01    9.4127129853E-01
    9.1830831675E-01    8.9440288166E-01    8.6955126465E-01    8.4375132582E-01
    8.1700262362E-01    7.8930652741E-01    7.6066633256E-01    7.3108737792E-01
    7.0057716530E-01    6.6914548063E-01    6.3680451643E-01    6.0356899507E-01
    5.6945629242E-01    5.3448656130E-01    4.9868285410E-01    4.6207124391E-01
    4.2468094350E-01    3.8654442125E-01    3.4769751323E-01    3.0817953050E-01
    2.6803336060E-01    2.2730556216E-01    1.8604645150E-01    1.4431017994E-01
    1.0215480063E-01    5.9642323347E-02    1.6838756004E-02   -2.6185868800E-02
   -6.9357483694E-02   -1.1259799461E-01   -1.5582530872E-01   -1.9895338401E-01
   -2.4189230226E-01   -2.8454836744E-01   -3.2682423120E-01   -3.6861904745E-01
   -4.0982865803E-01   -4.5034581116E-01   -4.9006041471E-01   -5.2885982595E-01
   -5.6662917963E-01   -6.0325175598E-01   -6.3860939003E-01   -6.7258292383E-01
   -7.0505270247E-01   -7.3589911499E-01   -7.6500318072E-01   -7.9224718152E-01
   -8.1751533974E-01   -8.4069454161E-01   -8.6167510503E-01   -8.8035159045E-01
   -8.9662365279E-01   -9.1039693166E-01   -9.2158397674E-01   -9.3010520393E-01
   -9.3588987746E-01   -9.3887711197E-01   -9.3901688773E-01   -9.3627107099E-01
   -9.3061443054E-01   -9.2203564009E-01   -9.1053825515E-01   -8.9614165164E-01
   -8.7888191235E-01   -8.5881264571E-01   -8.3600572059E-01   -8.1055189905E-01
   -7.8256134815E-01   -7.5216401064E-01   -7.1950981358E-01   -6.8476869292E-01
   -6.4813041191E-01   -6.0980415080E-01   -5.7001784548E-01   -5.2901725347E-01
   -4.8706472676E-01   -4.4443767296E-01   -4.0142668841E-01   -3.5833335070E-01
   -3.1546766201E-01   -2.7314513981E-01   -2.3168355818E-01   -1.9139935000E-01
   -1.5260368910E-01   -1.1559828128E-01   -8.0670903985E-02   -4.8090746556E-02
   -1.8103616051E-02    9.0729125062E-03    3.3254308194E-02    5.4293750675E-02
    7.2086528867E-02    8.6574035943E-02    9.7747212670E-02    1.0564928108E-01
    1.1037760347E-01    1.1208449874E-01    1.1097684982E-01    1.0731434411E-01
    1.0140620346E-01    9.3606283310E-02    8.4306452484E-02    7.3928206588E-02
    6.2912519508E-02    5.1707999441E-02    4.0757487599E-02    3.0483318632E-02
    2.1271550324E-02    1.3454798023E-02    7.2903218784E-03    2.9632758428E-03
    5.5581673624E-04   -9.8046517537E-06   -5.3365522852E-07    0.0000000000E+00
    0.0000000000E+00    0.0000000000E+00    0.0000000000E+00    0.0000000000E+00
    0.0000000000E+00    0.0000000000E+00    0.0000000000E+00    0.0000000000E+00
 0. 0. 0. 0.
 0. 0. 0. 0.
 0. 0. 0. 0.
 0. 0. 0. 0.
 0. 0. 0. 0.
 0. 0. 0. 0.
 0. 0. 0. 0.
 0. 0. 0. 0.
 0. 0. 0. 0.
 0. 0. 0. 0.
 0. 0. 0. 0.
 0. 0. 0. 0.
 0. 0. 0. 0.
 0. 0. 0. 0.
 0. 0. 0. 0.
 0. 0. 0. 0.
 0. 0. 0. 0.
 0. 0. 0. 0.
 0. 0. 0. 0.
 0. 0. 0. 0.
 0. 0. 0. 0.
 0. 0. 0. 0.
 0. 0. 0. 0.
 0. 0. 0. 0.
 0. 0. 0. 0.
 0. 0. 0. 0.
 0. 0. 0. 0.
 0. 0. 0. 0.
 0. 0. 0. 0.
 0. 0. 0. 0.
 0. 0. 0. 0.
 0. 0. 0. 0.
 0. 0. 0. 0.
   </PP_BETA.1>
   <PP_BETA.2
       type="real"
       size="1164"
       columns="4"
       index="2"
       angular_momentum="0"
       cutoff_radius_index="1032"
       cutoff_radius="    2.6712123880E+00" >
    0.0000000000E+00    1.2875260675E-05    1.3037211518E-05    1.3201199451E-05
    1.3367250099E-05    1.3535389406E-05    1.3705643646E-05    1.3878039421E-05
    1.4052603667E-05    1.4229363661E-05    1.4408347022E-05    1.4589581717E-05
    1.4773096064E-05    1.4958918737E-05    1.5147078771E-05    1.5337605567E-05
    1.5530528896E-05    1.5725878901E-05    1.5923686107E-05    1.6123981421E-05
    1.6326796140E-05    1.6532161954E-05    1.6740110952E-05    1.6950675626E-05
    1.7163888878E-05    1.7379784022E-05    1.7598394793E-05    1.7819755350E-05
    1.8043900279E-05    1.8270864604E-05    1.8500683789E-05    1.8733393743E-05
    1.8969030829E-05    1.9207631864E-05    1.9449234130E-05    1.9693875379E-05
    1.9941593836E-05    2.0192428208E-05    2.0446417688E-05    2.0703601962E-05
    2.0964021216E-05    2.1227716141E-05    2.1494727940E-05    2.1765098333E-05
    2.2038869568E-05    2.2316084421E-05    2.2596786207E-05    2.2881018787E-05
    2.3168826573E-05    2.3460254536E-05    2.3755348211E-05    2.4054153707E-05
    2.4356717714E-05    2.4663087507E-05    2.4973310958E-05    2.5287436540E-05
    2.5605513335E-05    2.5927591043E-05    2.6253719991E-05    2.6583951135E-05
    2.6918336076E-05    2.7256927062E-05    2.7599776998E-05    2.7946939456E-05
    2.8298468679E-05    2.8654419596E-05    2.9014847825E-05    2.9379809682E-05
    2.9749362194E-05    3.0123563105E-05    3.0502470883E-05    3.0886144735E-05
    3.1274644610E-05    3.1668031212E-05    3.2066366007E-05    3.2469711238E-05
    3.2878129928E-05    3.3291685892E-05    3.3710443749E-05    3.4134468932E-05
    3.4563827695E-05    3.4998587127E-05    3.5438815159E-05    3.5884580578E-05
    3.6335953036E-05    3.6793003060E-05    3.7255802066E-05    3.7724422367E-05
    3.8198937185E-05    3.8679420665E-05    3.9165947884E-05    3.9658594861E-05
    4.0157438575E-05    4.0662556969E-05    4.1174028972E-05    4.1691934500E-05
    4.2216354477E-05    4.2747370846E-05    4.3285066578E-05    4.3829525691E-05
    4.4380833255E-05    4.4939075416E-05    4.5504339398E-05    4.6076713525E-05
    4.6656287233E-05    4.7243151081E-05    4.7837396767E-05    4.8439117144E-05
    4.9048406232E-05    4.9665359232E-05    5.0290072546E-05    5.0922643786E-05
    5.1563171793E-05    5.2211756651E-05    5.2868499701E-05    5.3533503562E-05
    5.4206872142E-05    5.4888710656E-05    5.5579125643E-05    5.6278224981E-05
    5.6986117906E-05    5.7702915028E-05    5.8428728348E-05    5.9163671276E-05
    5.9907858647E-05    6.0661406744E-05    6.1424433308E-05    6.2197057565E-05
    6.2979400239E-05    6.3771583573E-05    6.4573731346E-05    6.5385968895E-05
    6.6208423136E-05    6.7041222577E-05    6.7884497346E-05    6.8738379205E-05
    6.9603001576E-05    7.0478499558E-05    7.1365009948E-05    7.2262671266E-05
    7.3171623774E-05    7.4092009497E-05    7.5023972247E-05    7.5967657645E-05
    7.6923213144E-05    7.7890788052E-05    7.8870533554E-05    7.9862602737E-05
    8.0867150614E-05    8.1884334148E-05    8.2914312275E-05    8.3957245933E-05
    8.5013298081E-05    8.6082633729E-05    8.7165419964E-05    8.8261825974E-05
    8.9372023073E-05    9.0496184732E-05    9.1634486604E-05    9.2787106552E-05
    9.3954224673E-05    9.5136023333E-05    9.6332687190E-05    9.7544403225E-05
    9.8771360772E-05    1.0001375154E-04    1.0127176967E-04    1.0254561171E-04
    1.0383547672E-04    1.0514156623E-04    1.0646408432E-04    1.0780323764E-04
    1.0915923544E-04    1.1053228959E-04    1.1192261463E-04    1.1333042781E-04
    1.1475594911E-04    1.1619940125E-04    1.1766100978E-04    1.1914100309E-04
    1.2063961241E-04    1.2215707193E-04    1.2369361873E-04    1.2524949292E-04
    1.2682493759E-04    1.2842019892E-04    1.3003552616E-04    1.3167117172E-04
    1.3332739116E-04    1.3500444329E-04    1.3670259013E-04    1.3842209703E-04
    1.4016323266E-04    1.4192626908E-04    1.4371148177E-04    1.4551914967E-04
    1.4734955524E-04    1.4920298447E-04    1.5107972697E-04    1.5298007599E-04
    1.5490432845E-04    1.5685278503E-04    1.5882575017E-04    1.6082353217E-04
    1.6284644316E-04    1.6489479924E-04    1.6696892047E-04    1.6906913094E-04
    1.7119575879E-04    1.7334913634E-04    1.7552960003E-04    1.7773749059E-04
    1.7997315299E-04    1.8223693655E-04    1.8452919501E-04    1.8685028653E-04
    1.8920057379E-04    1.9158042402E-04    1.9399020908E-04    1.9643030551E-04
    1.9890109457E-04    2.0140296233E-04    2.0393629971E-04    2.0650150255E-04
    2.0909897167E-04    2.1172911293E-04    2.1439233729E-04    2.1708906089E-04
    2.1981970509E-04    2.2258469657E-04    2.2538446736E-04    2.2821945493E-04
    2.3109010226E-04    2.3399685788E-04    2.3694017598E-04    2.3992051647E-04
    2.4293834502E-04    2.4599413319E-04    2.4908835843E-04    2.5222150424E-04
    2.5539406016E-04    2.5860652193E-04    2.6185939149E-04    2.6515317711E-04
    2.6848839345E-04    2.7186556164E-04    2.7528520938E-04    2.7874787099E-04
    2.8225408752E-04    2.8580440683E-04    2.8939938365E-04    2.9303957971E-04
    2.9672556379E-04    3.0045791185E-04    3.0423720706E-04    3.0806403995E-04
    3.1193900848E-04    3.1586271810E-04    3.1983578191E-04    3.2385882071E-04
    3.2793246310E-04    3.3205734560E-04    3.3623411274E-04    3.4046341713E-04
    3.4474591962E-04    3.4908228936E-04    3.5347320391E-04    3.5791934936E-04
    3.6242142043E-04    3.6698012058E-04    3.7159616211E-04    3.7627026629E-04
    3.8100316346E-04    3.8579559315E-04    3.9064830417E-04    3.9556205478E-04
    4.0053761275E-04    4.0557575554E-04    4.1067727035E-04    4.1584295431E-04
    4.2107361457E-04    4.2637006843E-04    4.3173314347E-04    4.3716367769E-04
    4.4266251960E-04    4.4823052843E-04    4.5386857417E-04    4.5957753779E-04
    4.6535831133E-04    4.7121179803E-04    4.7713891252E-04    4.8314058093E-04
    4.8921774101E-04    4.9537134236E-04    5.0160234646E-04    5.0791172694E-04
    5.1430046964E-04    5.2076957282E-04    5.2732004728E-04    5.3395291656E-04
    5.4066921705E-04    5.4746999818E-04    5.5435632259E-04    5.6132926628E-04
    5.6838991879E-04    5.7553938336E-04    5.8277877710E-04    5.9010923119E-04
    5.9753189102E-04    6.0504791640E-04    6.1265848171E-04    6.2036477613E-04
    6.2816800378E-04    6.3606938393E-04    6.4407015117E-04    6.5217155566E-04
    6.6037486324E-04    6.6868135570E-04    6.7709233094E-04    6.8560910320E-04
    6.9423300324E-04    7.0296537855E-04    7.1180759359E-04    7.2076102997E-04
    7.2982708667E-04    7.3900718030E-04    7.4830274524E-04    7.5771523396E-04
    7.6724611717E-04    7.7689688409E-04    7.8666904267E-04    7.9656411983E-04
    8.0658366168E-04    8.1672923381E-04    8.2700242147E-04    8.3740482987E-04
    8.4793808440E-04    8.5860383091E-04    8.6940373593E-04    8.8033948697E-04
    8.9141279275E-04    9.0262538351E-04    9.1397901123E-04    9.2547544993E-04
    9.3711649595E-04    9.4890396822E-04    9.6083970856E-04    9.7292558195E-04
    9.8516347682E-04    9.9755530537E-04    1.0101030038E-03    1.0228085328E-03
    1.0356738776E-03    1.0487010483E-03    1.0618920806E-03    1.0752490356E-03
    1.0887740002E-03    1.1024690878E-03    1.1163364383E-03    1.1303782184E-03
    1.1445966223E-03    1.1589938715E-03    1.1735722157E-03    1.1883339327E-03
    1.2032813291E-03    1.2184167404E-03    1.2337425316E-03    1.2492610973E-03
    1.2649748624E-03    1.2808862821E-03    1.2969978426E-03    1.3133120614E-03
    1.3298314875E-03    1.3465587023E-03    1.3634963193E-03    1.3806469850E-03
    1.3980133793E-03    1.4155982157E-03    1.4334042418E-03    1.4514342399E-03
    1.4696910271E-03    1.4881774562E-03    1.5068964155E-03    1.5258508301E-03
    1.5450436615E-03    1.5644779087E-03    1.5841566082E-03    1.6040828349E-03
    1.6242597023E-03    1.6446903630E-03    1.6653780093E-03    1.6863258738E-03
    1.7075372295E-03    1.7290153908E-03    1.7507637135E-03    1.7727855960E-03
    1.7950844791E-03    1.8176638470E-03    1.8405272279E-03    1.8636781941E-03
    1.8871203630E-03    1.9108573974E-03    1.9348930063E-03    1.9592309452E-03
    1.9838750170E-03    2.0088290723E-03    2.0340970102E-03    2.0596827788E-03
    2.0855903759E-03    2.1118238496E-03    2.1383872988E-03    2.1652848742E-03
    2.1925207784E-03    2.2200992672E-03    2.2480246495E-03    2.2763012888E-03
    2.3049336034E-03    2.3339260669E-03    2.3632832095E-03    2.3930096182E-03
    2.4231099378E-03    2.4535888714E-03    2.4844511814E-03    2.5157016900E-03
    2.5473452800E-03    2.5793868958E-03    2.6118315439E-03    2.6446842937E-03
    2.6779502784E-03    2.7116346959E-03    2.7457428092E-03    2.7802799478E-03
    2.8152515080E-03    2.8506629542E-03    2.8865198193E-03    2.9228277059E-03
    2.9595922871E-03    2.9968193073E-03    3.0345145831E-03    3.0726840045E-03
    3.1113335353E-03    3.1504692144E-03    3.1900971567E-03    3.2302235541E-03
    3.2708546761E-03    3.3119968714E-03    3.3536565683E-03    3.3958402760E-03
    3.4385545857E-03    3.4818061713E-03    3.5256017908E-03    3.5699482872E-03
    3.6148525894E-03    3.6603217137E-03    3.7063627644E-03    3.7529829353E-03
    3.8001895107E-03    3.8479898664E-03    3.8963914710E-03    3.9454018872E-03
    3.9950287726E-03    4.0452798812E-03    4.0961630646E-03    4.1476862730E-03
    4.1998575567E-03    4.2526850672E-03    4.3061770586E-03    4.3603418886E-03
    4.4151880204E-03    4.4707240233E-03    4.5269585744E-03    4.5839004602E-03
    4.6415585774E-03    4.6999419349E-03    4.7590596545E-03    4.8189209731E-03
    4.8795352436E-03    4.9409119365E-03    5.0030606416E-03    5.0659910691E-03
    5.1297130513E-03    5.1942365444E-03    5.2595716296E-03    5.3257285149E-03
    5.3927175368E-03    5.4605491618E-03    5.5292339879E-03    5.5987827464E-03
    5.6692063036E-03    5.7405156626E-03    5.8127219646E-03    5.8858364912E-03
    5.9598706656E-03    6.0348360548E-03    6.1107443714E-03    6.1876074750E-03
    6.2654373745E-03    6.3442462300E-03    6.4240463541E-03    6.5048502147E-03
    6.5866704362E-03    6.6695198017E-03    6.7534112554E-03    6.8383579039E-03
    6.9243730189E-03    7.0114700387E-03    7.0996625710E-03    7.1889643942E-03
    7.2793894601E-03    7.3709518962E-03    7.4636660073E-03    7.5575462782E-03
    7.6526073759E-03    7.7488641518E-03    7.8463316439E-03    7.9450250795E-03
    8.0449598773E-03    8.1461516499E-03    8.2486162061E-03    8.3523695536E-03
    8.4574279014E-03    8.5638076620E-03    8.6715254547E-03    8.7805981075E-03
    8.8910426601E-03    9.0028763662E-03    9.1161166968E-03    9.2307813423E-03
    9.3468882156E-03    9.4644554547E-03    9.5835014258E-03    9.7040447259E-03
    9.8261041859E-03    9.9496988733E-03    1.0074848095E-02    1.0201571402E-02
    1.0329888590E-02    1.0459819702E-02    1.0591385036E-02    1.0724605144E-02
    1.0859500835E-02    1.0996093182E-02    1.1134403521E-02    1.1274453456E-02
    1.1416264864E-02    1.1559859896E-02    1.1705260983E-02    1.1852490835E-02
    1.2001572450E-02    1.2152529114E-02    1.2305384406E-02    1.2460162201E-02
    1.2616886675E-02    1.2775582305E-02    1.2936273880E-02    1.3098986497E-02
    1.3263745569E-02    1.3430576831E-02    1.3599506337E-02    1.3770560472E-02
    1.3943765952E-02    1.4119149826E-02    1.4296739487E-02    1.4476562668E-02
    1.4658647453E-02    1.4843022279E-02    1.5029715940E-02    1.5218757589E-02
    1.5410176750E-02    1.5604003314E-02    1.5800267549E-02    1.5999000104E-02
    1.6200232011E-02    1.6403994693E-02    1.6610319969E-02    1.6819240054E-02
    1.7030787572E-02    1.7244995552E-02    1.7461897442E-02    1.7681527109E-02
    1.7903918842E-02    1.8129107365E-02    1.8357127836E-02    1.8588015854E-02
    1.8821807466E-02    1.9058539171E-02    1.9298247925E-02    1.9540971151E-02
    1.9786746738E-02    2.0035613054E-02    2.0287608947E-02    2.0542773751E-02
    2.0801147296E-02    2.1062769911E-02    2.1327682432E-02    2.1595926205E-02
    2.1867543097E-02    2.2142575500E-02    2.2421066336E-02    2.2703059066E-02
    2.2988597699E-02    2.3277726793E-02    2.3570491465E-02    2.3866937399E-02
    2.4167110851E-02    2.4471058657E-02    2.4778828241E-02    2.5090467620E-02
    2.5406025415E-02    2.5725550855E-02    2.6049093786E-02    2.6376704679E-02
    2.6708434637E-02    2.7044335405E-02    2.7384459373E-02    2.7728859592E-02
    2.8077589772E-02    2.8430704301E-02    2.8788258244E-02    2.9150307357E-02
    2.9516908095E-02    2.9888117619E-02    3.0263993804E-02    3.0644595253E-02
    3.1029981299E-02    3.1420212018E-02    3.1815348239E-02    3.2215451550E-02
    3.2620584312E-02    3.3030809663E-02    3.3446191533E-02    3.3866794648E-02
    3.4292684546E-02    3.4723927583E-02    3.5160590945E-02    3.5602742655E-02
    3.6050451589E-02    3.6503787480E-02    3.6962820935E-02    3.7427623439E-02
    3.7898267372E-02    3.8374826017E-02    3.8857373570E-02    3.9345985154E-02
    3.9840736827E-02    4.0341705598E-02    4.0848969434E-02    4.1362607275E-02
    4.1882699044E-02    4.2409325660E-02    4.2942569049E-02    4.3482512158E-02
    4.4029238967E-02    4.4582834499E-02    4.5143384838E-02    4.5710977136E-02
    4.6285699630E-02    4.6867641653E-02    4.7456893650E-02    4.8053547187E-02
    4.8657694969E-02    4.9269430851E-02    4.9888849855E-02    5.0516048178E-02
    5.1151123214E-02    5.1794173562E-02    5.2445299043E-02    5.3104600717E-02
    5.3772180893E-02    5.4448143147E-02    5.5132592337E-02    5.5825634617E-02
    5.6527377456E-02    5.7237929649E-02    5.7957401333E-02    5.8685904008E-02
    5.9423550548E-02    6.0170455221E-02    6.0926733701E-02    6.1692503089E-02
    6.2467881927E-02    6.3252990218E-02    6.4047949438E-02    6.4852882559E-02
    6.5667914062E-02    6.6493169957E-02    6.7328777802E-02    6.8174866716E-02
    6.9031567403E-02    6.9899012167E-02    7.0777334929E-02    7.1666671250E-02
    7.2567158347E-02    7.3478935112E-02    7.4402142133E-02    7.5336921710E-02
    7.6283417878E-02    7.7241776423E-02    7.8212144906E-02    7.9194672680E-02
    8.0189510909E-02    8.1196812594E-02    8.2216732585E-02    8.3249427611E-02
    8.4295056291E-02    8.5353779164E-02    8.6425758703E-02    8.7511159339E-02
    8.8610147485E-02    8.9722891553E-02    9.0849561975E-02    9.1990331232E-02
    9.3145373868E-02    9.4314866514E-02    9.5498987914E-02    9.6697918942E-02
    9.7911842629E-02    9.9140944180E-02    1.0038541100E-01    1.0164543272E-01
    1.0292120122E-01    1.0421291062E-01    1.0552075738E-01    1.0684494023E-01
    1.0818566025E-01    1.0954312089E-01    1.1091752798E-01    1.1230908974E-01
    1.1371801684E-01    1.1514452238E-01    1.1658882197E-01    1.1805113368E-01
    1.1953167812E-01    1.2103067846E-01    1.2254836041E-01    1.2408495229E-01
    1.2564068502E-01    1.2721579218E-01    1.2881050999E-01    1.3042507736E-01
    1.3205973589E-01    1.3371472994E-01    1.3539030658E-01    1.3708671569E-01
    1.3880420992E-01    1.4054304473E-01    1.4230347843E-01    1.4408577219E-01
    1.4589019004E-01    1.4771699893E-01    1.4956646869E-01    1.5143887214E-01
    1.5333448501E-01    1.5525358603E-01    1.5719645691E-01    1.5916338238E-01
    1.6115465019E-01    1.6317055115E-01    1.6521137909E-01    1.6727743096E-01
    1.6936900677E-01    1.7148640965E-01    1.7362994582E-01    1.7579992464E-01
    1.7799665861E-01    1.8022046338E-01    1.8247165774E-01    1.8475056364E-01
    1.8705750623E-01    1.8939281379E-01    1.9175681781E-01    1.9414985294E-01
    1.9657225702E-01    1.9902437107E-01    2.0150653928E-01    2.0401910902E-01
    2.0656243081E-01    2.0913685834E-01    2.1174274845E-01    2.1438046112E-01
    2.1705035943E-01    2.1975280957E-01    2.2248818084E-01    2.2525684556E-01
    2.2805917913E-01    2.3089555992E-01    2.3376636930E-01    2.3667199158E-01
    2.3961281398E-01    2.4258922657E-01    2.4560162226E-01    2.4865039672E-01
    2.5173594833E-01    2.5485867816E-01    2.5801898985E-01    2.6121728959E-01
    2.6445398602E-01    2.6772949017E-01    2.7104421537E-01    2.7439857719E-01
    2.7779299327E-01    2.8122788332E-01    2.8470366893E-01    2.8822077352E-01
    2.9177962216E-01    2.9538064149E-01    2.9902425957E-01    3.0271090570E-01
    3.0644101032E-01    3.1021500483E-01    3.1403332139E-01    3.1789639277E-01
    3.2180465215E-01    3.2575853291E-01    3.2975846841E-01    3.3380489180E-01
    3.3789823570E-01    3.4203893205E-01    3.4622741177E-01    3.5046410450E-01
    3.5474943830E-01    3.5908383936E-01    3.6346773164E-01    3.6790153655E-01
    3.7238567257E-01    3.7692055487E-01    3.8150659493E-01    3.8614420007E-01
    3.9083377306E-01    3.9557571161E-01    4.0037040791E-01    4.0521824809E-01
    4.1011961169E-01    4.1507487111E-01    4.2008439097E-01    4.2514852752E-01
    4.3026762800E-01    4.3544202988E-01    4.4067206022E-01    4.4595803485E-01
    4.5130025763E-01    4.5669901957E-01    4.6215459798E-01    4.6766725557E-01
    4.7323723947E-01    4.7886478022E-01    4.8455009077E-01    4.9029336532E-01
    4.9609477821E-01    5.0195448269E-01    5.0787260970E-01    5.1384926648E-01
    5.1988453528E-01    5.2597847185E-01    5.3213110395E-01    5.3834242980E-01
    5.4461241639E-01    5.5094099778E-01    5.5732807330E-01    5.6377350567E-01
    5.7027711903E-01    5.7683869691E-01    5.8345798006E-01    5.9013466424E-01
    5.9686839788E-01    6.0365877966E-01    6.1050535597E-01    6.1740761827E-01
    6.2436500034E-01    6.3137687540E-01    6.3844255315E-01    6.4556127664E-01
    6.5273221905E-01    6.5995448030E-01    6.6722708358E-01    6.7454897169E-01
    6.8191900327E-01    6.8933594888E-01    6.9679848691E-01    7.0430519936E-01
    7.1185456745E-01    7.1944496709E-01    7.2707466415E-01    7.3474180961E-01
    7.4244443448E-01    7.5018044466E-01    7.5794761546E-01    7.6574358614E-01
    7.7356585408E-01    7.8141176896E-01    7.8927852660E-01    7.9716316276E-01
    8.0506254667E-01    8.1297337444E-01    8.2089216231E-01    8.2881523967E-01
    8.3673874202E-01    8.4465860370E-01    8.5257055052E-01    8.6047009224E-01
    8.6835251495E-01    8.7621287327E-01    8.8404598259E-01    8.9184641111E-01
    8.9960847186E-01    9.0732621471E-01    9.1499341838E-01    9.2260358236E-01
    9.3014991906E-01    9.3762534586E-01    9.4502247737E-01    9.5233361786E-01
    9.5955075386E-01    9.6666554700E-01    9.7366932718E-01    9.8055308613E-01
    9.8730747133E-01    9.9392278050E-01    1.0003889566E+00    1.0066955835E+00
    1.0128318823E+00    1.0187867088E+00    1.0245485515E+00    1.0301055307E+00
    1.0354453989E+00    1.0405555424E+00    1.0454229844E+00    1.0500343890E+00
    1.0543760680E+00    1.0584339881E+00    1.0621937814E+00    1.0656407570E+00
    1.0687599154E+00    1.0715359648E+00    1.0739533413E+00    1.0759962299E+00
    1.0776485906E+00    1.0788941857E+00    1.0797166123E+00    1.0800993369E+00
    1.0800257344E+00    1.0794791311E+00    1.0784428514E+00    1.0769002693E+00
    1.0748348636E+00    1.0722302785E+00    1.0690703885E+00    1.0653393680E+00
    1.0610217666E+00    1.0561025880E+00    1.0505673758E+00    1.0444023029E+00
    1.0375942663E+00    1.0301309876E+00    1.0220011170E+00    1.0131943431E+00
    1.0037015064E+00    9.9351471748E-01    9.8262747769E-01    9.7103480444E-01
    9.5873335808E-01    9.4572157116E-01    9.3199977875E-01    9.1757034901E-01
    9.0243781315E-01    8.8660899350E-01    8.7009312860E-01    8.5290199377E-01
    8.3505001588E-01    8.1655438054E-01    7.9743513002E-01    7.7771525008E-01
    7.5742074358E-01    7.3658068902E-01    7.1522728157E-01    6.9339585452E-01
    6.7112487879E-01    6.4845593808E-01    6.2543367753E-01    6.0210572336E-01
    5.7852257143E-01    5.5473744269E-01    5.3080610337E-01    5.0678664868E-01
    4.8273924824E-01    4.5872585264E-01    4.3480986051E-01    4.1105574616E-01
    3.8752864854E-01    3.6429392295E-01    3.4141665778E-01    3.1896115935E-01
    2.9699040916E-01    2.7556549857E-01    2.5474504750E-01    2.3458461456E-01
    2.1513610740E-01    1.9644720344E-01    1.7856079205E-01    1.6151445071E-01
    1.4533996861E-01    1.3006293196E-01    1.1570238631E-01    1.0227059124E-01
    8.9772883231E-02    7.8207662055E-02    6.7566515315E-02    5.7834494564E-02
    4.8990554371E-02    4.1008163214E-02    3.3856091677E-02    2.7499379316E-02
    2.1900476578E-02    1.7020552392E-02    1.2820951396E-02    9.2647774541E-03
    6.3185719647E-03    3.9538225752E-03    2.1469007259E-03    8.8655871236E-04
    1.7140488802E-04   -3.1321386119E-06   -1.6659330868E-07    0.0000000000E+00
    0.0000000000E+00    0.0000000000E+00    0.0000000000E+00    0.0000000000E+00
    0.0000000000E+00    0.0000000000E+00    0.0000000000E+00    0.0000000000E+00
 0. 0. 0. 0.
 0. 0. 0. 0.
 0. 0. 0. 0.
 0. 0. 0. 0.
 0. 0. 0. 0.
 0. 0. 0. 0.
 0. 0. 0. 0.
 0. 0. 0. 0.
 0. 0. 0. 0.
 0. 0. 0. 0.
 0. 0. 0. 0.
 0. 0. 0. 0.
 0. 0. 0. 0.
 0. 0. 0. 0.
 0. 0. 0. 0.
 0. 0. 0. 0.
 0. 0. 0. 0.
 0. 0. 0. 0.
 0. 0. 0. 0.
 0. 0. 0. 0.
 0. 0. 0. 0.
 0. 0. 0. 0.
 0. 0. 0. 0.
 0. 0. 0. 0.
 0. 0. 0. 0.
 0. 0. 0. 0.
 0. 0. 0. 0.
 0. 0. 0. 0.
 0. 0. 0. 0.
 0. 0. 0. 0.
 0. 0. 0. 0.
 0. 0. 0. 0.
 0. 0. 0. 0.
   </PP_BETA.2>
   <PP_BETA.3
       type="real"
       size="1164"
       columns="4"
       index="3"
       angular_momentum="1"
       cutoff_radius_index="1032"
       cutoff_radius="    2.6712123880E+00" >
    0.0000000000E+00    1.7976512430E-10    1.8431594788E-10    1.8898144395E-10
    1.9376620224E-10    1.9867100390E-10    2.0370053560E-10    2.0885694185E-10
    2.1414500943E-10    2.1956581791E-10    2.2512353267E-10    2.3082309120E-10
    2.3666635445E-10    2.4265744540E-10    2.4880009893E-10    2.5509895164E-10
    2.6155662327E-10    2.6817745573E-10    2.7496675161E-10    2.8192762064E-10
    2.8906418636E-10    2.9638229621E-10    3.0388522802E-10    3.1157779729E-10
    3.1946632482E-10    3.2755361736E-10    3.3584525974E-10    3.4434672102E-10
    3.5306492775E-10    3.6200227695E-10    3.7116662826E-10    3.8056256959E-10
    3.9019681624E-10    4.0007395974E-10    4.1020237187E-10    4.2058678190E-10
    4.3123326248E-10    4.4215082341E-10    4.5334359776E-10    4.6481942231E-10
    4.7658703497E-10    4.8865210418E-10    5.0102218511E-10    5.1370584907E-10
    5.2671077545E-10    5.4004397919E-10    5.5371457847E-10    5.6773235284E-10
    5.8210472020E-10    5.9684068645E-10    6.1194977048E-10    6.2744119456E-10
    6.4332550934E-10    6.5961112441E-10    6.7630903658E-10    6.9342956050E-10
    7.1098425705E-10    7.2898298970E-10    7.4743712348E-10    7.6635916567E-10
    7.8575896196E-10    8.0565116641E-10    8.2604604229E-10    8.4695749237E-10
    8.6839824711E-10    8.9038186819E-10    9.1292263723E-10    9.3603287136E-10
    9.5972792552E-10    9.8402420266E-10    1.0089348550E-09    1.0344761669E-09
    1.0606637501E-09    1.0875150329E-09    1.1150449937E-09    1.1432731527E-09
    1.1722148722E-09    1.2018902051E-09    1.2323158400E-09    1.2635119709E-09
    1.2954981539E-09    1.3282931537E-09    1.3619196527E-09    1.3963969091E-09
    1.4317471588E-09    1.4679914751E-09    1.5051541436E-09    1.5432571737E-09
    1.5823247698E-09    1.6223821255E-09    1.6634528336E-09    1.7055628997E-09
    1.7487394901E-09    1.7930091315E-09    1.8383995124E-09    1.8849385755E-09
    1.9326557894E-09    1.9815812771E-09    2.0317450083E-09    2.0831791605E-09
    2.1359145080E-09    2.1899862962E-09    2.2454258751E-09    2.3022687447E-09
    2.3605509817E-09    2.4203088997E-09    2.4815789361E-09    2.5444007934E-09
    2.6088124973E-09    2.6748550012E-09    2.7425688745E-09    2.8119977153E-09
    2.8831840272E-09    2.9561720606E-09    3.0310083332E-09    3.1077384632E-09
    3.1864104375E-09    3.2670751903E-09    3.3497817003E-09    3.4345816546E-09
    3.5215282259E-09    3.6106765771E-09    3.7020813516E-09    3.7958003874E-09
    3.8918907846E-09    3.9904144854E-09    4.0914324634E-09    4.1950076911E-09
    4.3012049195E-09    4.4100900637E-09    4.5217324175E-09    4.6362008621E-09
    4.7535661805E-09    4.8739034716E-09    4.9972864297E-09    5.1237942332E-09
    5.2535036741E-09    5.3864959946E-09    5.5228560784E-09    5.6626679139E-09
    5.8060184562E-09    5.9529992254E-09    6.1036998872E-09    6.2582162847E-09
    6.4166427307E-09    6.5790811374E-09    6.7456314701E-09    6.9163984694E-09
    7.0914877095E-09    7.2710092681E-09    7.4550755414E-09    7.6438022390E-09
    7.8373058550E-09    8.0357081116E-09    8.2391338216E-09    8.4477083015E-09
    8.6615624221E-09    8.8808314017E-09    9.1056510651E-09    9.3361607856E-09
    9.5725075102E-09    9.8148363341E-09    1.0063299818E-08    1.0318053986E-08
    1.0579256671E-08    1.0847072124E-08    1.1121666549E-08    1.1403212638E-08
    1.1691886289E-08    1.1987868132E-08    1.2291342810E-08    1.2602499415E-08
    1.2921532941E-08    1.3248643045E-08    1.3584033771E-08    1.3927915975E-08
    1.4280502617E-08    1.4642015318E-08    1.5012679827E-08    1.5392727680E-08
    1.5782396694E-08    1.6181929021E-08    1.6591576557E-08    1.7011594500E-08
    1.7442245289E-08    1.7883797459E-08    1.8336528203E-08    1.8800719382E-08
    1.9276662018E-08    1.9764653494E-08    2.0264997842E-08    2.0778008539E-08
    2.1304006355E-08    2.1843319275E-08    2.2396286052E-08    2.2963250636E-08
    2.3544567774E-08    2.4140601927E-08    2.4751724098E-08    2.5378316847E-08
    2.6020772007E-08    2.6679490676E-08    2.7354885758E-08    2.8047377784E-08
    2.8757400984E-08    2.9485397723E-08    3.0231823562E-08    3.0997146288E-08
    3.1781842782E-08    3.2586403662E-08    3.3411332524E-08    3.4257143869E-08
    3.5124368529E-08    3.6013545979E-08    3.6925233180E-08    3.7859999824E-08
    3.8818430149E-08    3.9801122837E-08    4.0808693689E-08    4.1841771038E-08
    4.2901000080E-08    4.3987044266E-08    4.5100581575E-08    4.6242308020E-08
    4.7412937764E-08    4.8613202004E-08    4.9843850609E-08    5.1105654162E-08
    5.2399399626E-08    5.3725897124E-08    5.5085974555E-08    5.6480482576E-08
    5.7910292671E-08    5.9376298770E-08    6.0879417131E-08    6.2420587045E-08
    6.4000771550E-08    6.5620958201E-08    6.7282161021E-08    6.8985416228E-08
    7.0731790933E-08    7.2522374964E-08    7.4358287306E-08    7.6240676450E-08
    7.8170718407E-08    8.0149619374E-08    8.2178616812E-08    8.4258978408E-08
    8.6392003965E-08    8.8579028135E-08    9.0821416791E-08    9.3120571696E-08
    9.5477930377E-08    9.7894965378E-08    1.0037318836E-07    1.0291414751E-07
    1.0551943126E-07    1.0819066847E-07    1.1092952874E-07    1.1373772269E-07
    1.1661700685E-07    1.1956918026E-07    1.2259608816E-07    1.2569962346E-07
    1.2888172403E-07    1.3214438014E-07    1.3548963059E-07    1.3891956699E-07
    1.4243633248E-07    1.4604212571E-07    1.4973919966E-07    1.5352986511E-07
    1.5741649181E-07    1.6140150905E-07    1.6548740740E-07    1.6967674088E-07
    1.7397212793E-07    1.7837625334E-07    1.8289186929E-07    1.8752179809E-07
    1.9226893466E-07    1.9713624637E-07    2.0212677396E-07    2.0724363715E-07
    2.1249003481E-07    2.1786924553E-07    2.2338463097E-07    2.2903963978E-07
    2.3483780569E-07    2.4078275190E-07    2.4687819602E-07    2.5312794678E-07
    2.5953591110E-07    2.6610609312E-07    2.7284260017E-07    2.7974964340E-07
    2.8683153837E-07    2.9409271310E-07    3.0153770441E-07    3.0917116752E-07
    3.1699787331E-07    3.2502271050E-07    3.3325069952E-07    3.4168697987E-07
    3.5033682635E-07    3.5920564472E-07    3.6829897777E-07    3.7762250930E-07
    3.8718206814E-07    3.9698362736E-07    4.0703331496E-07    4.1733741137E-07
    4.2790235698E-07    4.3873475464E-07    4.4984137697E-07    4.6122916433E-07
    4.7290523447E-07    4.8487688540E-07    4.9715160050E-07    5.0973705178E-07
    5.2264110448E-07    5.3587182460E-07    5.4943748260E-07    5.6334655680E-07
    5.7760774025E-07    5.9222994761E-07    6.0722231733E-07    6.2259422045E-07
    6.3835526562E-07    6.5451530289E-07    6.7108443360E-07    6.8807301357E-07
    7.0549166139E-07    7.2335126431E-07    7.4166298521E-07    7.6043826856E-07
    7.7968885116E-07    7.9942676309E-07    8.1966434372E-07    8.4041424007E-07
    8.6168942279E-07    8.8350318897E-07    9.0586917325E-07    9.2880135488E-07
    9.5231406642E-07    9.7642200475E-07    1.0011402392E-06    1.0264842169E-06
    1.0524697816E-06    1.0791131731E-06    1.1064310442E-06    1.1344404701E-06
    1.1631589578E-06    1.1926044572E-06    1.2227953723E-06    1.2537505740E-06
    1.2854894088E-06    1.3180317162E-06    1.3513978353E-06    1.3856086211E-06
    1.4206854560E-06    1.4566502653E-06    1.4935255259E-06    1.5313342884E-06
    1.5701001835E-06    1.6098474405E-06    1.6506009033E-06    1.6923860445E-06
    1.7352289798E-06    1.7791564884E-06    1.8241960265E-06    1.8703757441E-06
    1.9177245062E-06    1.9662719061E-06    2.0160482880E-06    2.0670847632E-06
    2.1194132321E-06    2.1730664003E-06    2.2280778034E-06    2.2844818253E-06
    2.3423137189E-06    2.4016096342E-06    2.4624066287E-06    2.5247427045E-06
    2.5886568238E-06    2.6541889344E-06    2.7213799949E-06    2.7902720035E-06
    2.8609080184E-06    2.9333321894E-06    3.0075897843E-06    3.0837272151E-06
    3.1617920711E-06    3.2418331453E-06    3.3239004656E-06    3.4080453255E-06
    3.4943203174E-06    3.5827793680E-06    3.6734777653E-06    3.7664721992E-06
    3.8618207928E-06    3.9595831409E-06    4.0598203508E-06    4.1625950716E-06
    4.2679715403E-06    4.3760156206E-06    4.4867948424E-06    4.6003784471E-06
    4.7168374263E-06    4.8362445709E-06    4.9586745132E-06    5.0842037757E-06
    5.2129108176E-06    5.3448760831E-06    5.4801820554E-06    5.6189133047E-06
    5.7611565407E-06    5.9070006686E-06    6.0565368465E-06    6.2098585377E-06
    6.3670615710E-06    6.5282442047E-06    6.6935071804E-06    6.8629537930E-06
    7.0366899489E-06    7.2148242399E-06    7.3974680025E-06    7.5847353951E-06
    7.7767434640E-06    7.9736122172E-06    8.1754647048E-06    8.3824270889E-06
    8.5946287252E-06    8.8122022448E-06    9.0352836355E-06    9.2640123304E-06
    9.4985312900E-06    9.7389870917E-06    9.9855300272E-06    1.0238314191E-05
    1.0497497579E-05    1.0763242187E-05    1.1035714109E-05    1.1315083647E-05
    1.1601525414E-05    1.1895218439E-05    1.2196346289E-05    1.2505097173E-05
    1.2821664067E-05    1.3146244831E-05    1.3479042334E-05    1.3820264582E-05
    1.4170124843E-05    1.4528841787E-05    1.4896639618E-05    1.5273748216E-05
    1.5660403279E-05    1.6056846476E-05    1.6463325586E-05    1.6880094668E-05
    1.7307414206E-05    1.7745551283E-05    1.8194779741E-05    1.8655380352E-05
    1.9127640999E-05    1.9611856850E-05    2.0108330545E-05    2.0617372388E-05
    2.1139300533E-05    2.1674441193E-05    2.2223128835E-05    2.2785706393E-05
    2.3362525485E-05    2.3953946626E-05    2.4560339458E-05    2.5182082983E-05
    2.5819565792E-05    2.6473186318E-05    2.7143353073E-05    2.7830484918E-05
    2.8535011311E-05    2.9257372583E-05    2.9998020211E-05    3.0757417101E-05
    3.1536037875E-05    3.2334369173E-05    3.3152909948E-05    3.3992171789E-05
    3.4852679231E-05    3.5734970087E-05    3.6639595786E-05    3.7567121712E-05
    3.8518127563E-05    3.9493207711E-05    4.0492971571E-05    4.1518043988E-05
    4.2569065618E-05    4.3646693339E-05    4.4751600654E-05    4.5884478113E-05
    4.7046033748E-05    4.8236993511E-05    4.9458101730E-05    5.0710121575E-05
    5.1993835533E-05    5.3310045896E-05    5.4659575266E-05    5.6043267064E-05
    5.7461986062E-05    5.8916618921E-05    6.0408074742E-05    6.1937285640E-05
    6.3505207323E-05    6.5112819688E-05    6.6761127436E-05    6.8451160697E-05
    7.0183975675E-05    7.1960655310E-05    7.3782309948E-05    7.5650078046E-05
    7.7565126867E-05    7.9528653226E-05    8.1541884226E-05    8.3606078031E-05
    8.5722524647E-05    8.7892546734E-05    9.0117500424E-05    9.2398776177E-05
    9.4737799644E-05    9.7136032557E-05    9.9594973647E-05    1.0211615957E-04
    1.0470116589E-04    1.0735160803E-04    1.1006914231E-04    1.1285546695E-04
    1.1571232318E-04    1.1864149627E-04    1.2164481669E-04    1.2472416123E-04
    1.2788145418E-04    1.3111866853E-04    1.3443782718E-04    1.3784100427E-04
    1.4133032639E-04    1.4490797397E-04    1.4857618261E-04    1.5233724449E-04
    1.5619350979E-04    1.6014738817E-04    1.6420135028E-04    1.6835792927E-04
    1.7261972241E-04    1.7698939269E-04    1.8146967048E-04    1.8606335525E-04
    1.9077331730E-04    1.9560249958E-04    2.0055391948E-04    2.0563067078E-04
    2.1083592550E-04    2.1617293596E-04    2.2164503674E-04    2.2725564682E-04
    2.3300827167E-04    2.3890650548E-04    2.4495403334E-04    2.5115463362E-04
    2.5751218024E-04    2.6403064518E-04    2.7071410088E-04    2.7756672282E-04
    2.8459279212E-04    2.9179669820E-04    2.9918294154E-04    3.0675613647E-04
    3.1452101404E-04    3.2248242500E-04    3.3064534279E-04    3.3901486668E-04
    3.4759622491E-04    3.5639477799E-04    3.6541602202E-04    3.7466559210E-04
    3.8414926590E-04    3.9387296719E-04    4.0384276959E-04    4.1406490033E-04
    4.2454574415E-04    4.3529184724E-04    4.4630992136E-04    4.5760684803E-04
    4.6918968276E-04    4.8106565950E-04    4.9324219515E-04    5.0572689414E-04
    5.1852755319E-04    5.3165216617E-04    5.4510892908E-04    5.5890624515E-04
    5.7305273006E-04    5.8755721733E-04    6.0242876381E-04    6.1767665530E-04
    6.3331041236E-04    6.4933979622E-04    6.6577481485E-04    6.8262572921E-04
    6.9990305960E-04    7.1761759226E-04    7.3578038600E-04    7.5440277915E-04
    7.7349639660E-04    7.9307315700E-04    8.1314528017E-04    8.3372529474E-04
    8.5482604591E-04    8.7646070341E-04    8.9864276974E-04    9.2138608851E-04
    9.4470485307E-04    9.6861361530E-04    9.9312729470E-04    1.0182611876E-03
    1.0440309766E-03    1.0704527405E-03    1.0975429642E-03    1.1253185486E-03
    1.1537968217E-03    1.1829955490E-03    1.2129329442E-03    1.2436276812E-03
    1.2750989052E-03    1.3073662447E-03    1.3404498235E-03    1.3743702735E-03
    1.4091487472E-03    1.4448069308E-03    1.4813670579E-03    1.5188519229E-03
    1.5572848954E-03    1.5966899346E-03    1.6370916038E-03    1.6785150861E-03
    1.7209861995E-03    1.7645314133E-03    1.8091778641E-03    1.8549533726E-03
    1.9018864609E-03    1.9500063702E-03    1.9993430786E-03    2.0499273197E-03
    2.1017906014E-03    2.1549652257E-03    2.2094843084E-03    2.2653817992E-03
    2.3226925031E-03    2.3814521015E-03    2.4416971743E-03    2.5034652223E-03
    2.5667946904E-03    2.6317249910E-03    2.6982965285E-03    2.7665507236E-03
    2.8365300396E-03    2.9082780074E-03    2.9818392529E-03    3.0572595243E-03
    3.1345857196E-03    3.2138659160E-03    3.2951493989E-03    3.3784866919E-03
    3.4639295882E-03    3.5515311819E-03    3.6413459001E-03    3.7334295370E-03
    3.8278392869E-03    3.9246337798E-03    4.0238731166E-03    4.1256189060E-03
    4.2299343019E-03    4.3368840417E-03    4.4465344855E-03    4.5589536565E-03
    4.6742112825E-03    4.7923788376E-03    4.9135295858E-03    5.0377386253E-03
    5.1650829337E-03    5.2956414148E-03    5.4294949457E-03    5.5667264263E-03
    5.7074208282E-03    5.8516652468E-03    5.9995489530E-03    6.1511634469E-03
    6.3066025130E-03    6.4659622760E-03    6.6293412583E-03    6.7968404393E-03
    6.9685633152E-03    7.1446159611E-03    7.3251070938E-03    7.5101481367E-03
    7.6998532861E-03    7.8943395786E-03    8.0937269605E-03    8.2981383592E-03
    8.5076997552E-03    8.7225402567E-03    8.9427921757E-03    9.1685911056E-03
    9.4000760010E-03    9.6373892590E-03    9.8806768024E-03    1.0130088165E-02
    1.0385776580E-02    1.0647899067E-02    1.0916616523E-02    1.1192093819E-02
    1.1474499892E-02    1.1764007846E-02    1.2060795046E-02    1.2365043225E-02
    1.2676938588E-02    1.2996671917E-02    1.3324438678E-02    1.3660439136E-02
    1.4004878467E-02    1.4357966875E-02    1.4719919711E-02    1.5090957591E-02
    1.5471306525E-02    1.5861198039E-02    1.6260869310E-02    1.6670563291E-02
    1.7090528852E-02    1.7521020915E-02    1.7962300593E-02    1.8414635337E-02
    1.8878299081E-02    1.9353572391E-02    1.9840742617E-02    2.0340104051E-02
    2.0851958082E-02    2.1376613363E-02    2.1914385970E-02    2.2465599576E-02
    2.3030585618E-02    2.3609683475E-02    2.4203240644E-02    2.4811612923E-02
    2.5435164597E-02    2.6074268623E-02    2.6729306824E-02    2.7400670084E-02
    2.8088758546E-02    2.8793981816E-02    2.9516759166E-02    3.0257519746E-02
    3.1016702793E-02    3.1794757852E-02    3.2592144991E-02    3.3409335028E-02
    3.4246809754E-02    3.5105062167E-02    3.5984596702E-02    3.6885929470E-02
    3.7809588497E-02    3.8756113971E-02    3.9726058483E-02    4.0719987281E-02
    4.1738478524E-02    4.2782123535E-02    4.3851527064E-02    4.4947307545E-02
    4.6070097365E-02    4.7220543132E-02    4.8399305940E-02    4.9607061648E-02
    5.0844501147E-02    5.2112330644E-02    5.3411271935E-02    5.4742062686E-02
    5.6105456718E-02    5.7502224284E-02    5.8933152356E-02    6.0399044909E-02
    6.1900723204E-02    6.3439026072E-02    6.5014810200E-02    6.6628950414E-02
    6.8282339959E-02    6.9975890781E-02    7.1710533808E-02    7.3487219220E-02
    7.5306916729E-02    7.7170615845E-02    7.9079326141E-02    8.1034077515E-02
    8.3035920444E-02    8.5085926235E-02    8.7185187265E-02    8.9334817216E-02
    9.1535951302E-02    9.3789746485E-02    9.6097381680E-02    9.8460057950E-02
    1.0087899869E-01    1.0335544979E-01    1.0589067981E-01    1.0848598008E-01
    1.1114266486E-01    1.1386207140E-01    1.1664556009E-01    1.1949451443E-01
    1.2241034114E-01    1.2539447015E-01    1.2844835456E-01    1.3157347064E-01
    1.3477131772E-01    1.3804341811E-01    1.4139131694E-01    1.4481658197E-01
    1.4832080342E-01    1.5190559365E-01    1.5557258690E-01    1.5932343891E-01
    1.6315982653E-01    1.6708344726E-01    1.7109601873E-01    1.7519927813E-01
    1.7939498160E-01    1.8368490347E-01    1.8807083553E-01    1.9255458616E-01
    1.9713797943E-01    2.0182285405E-01    2.0661106228E-01    2.1150446876E-01
    2.1650494921E-01    2.2161438903E-01    2.2683468181E-01    2.3216772774E-01
    2.3761543182E-01    2.4317970209E-01    2.4886244759E-01    2.5466557623E-01
    2.6059099260E-01    2.6664059548E-01    2.7281627532E-01    2.7911991147E-01
    2.8555336933E-01    2.9211849722E-01    2.9881712314E-01    3.0565105130E-01
    3.1262205846E-01    3.1973189008E-01    3.2698225617E-01    3.3437482703E-01
    3.4191122866E-01    3.4959303797E-01    3.5742177773E-01    3.6539891122E-01
    3.7352583669E-01    3.8180388141E-01    3.9023429556E-01    3.9881824573E-01
    4.0755680814E-01    4.1645096154E-01    4.2550157975E-01    4.3470942390E-01
    4.4407513431E-01    4.5359922196E-01    4.6328205970E-01    4.7312387294E-01
    4.8312473011E-01    4.9328453258E-01    5.0360300429E-01    5.1407968092E-01
    5.2471389868E-01    5.3550478263E-01    5.4645123464E-01    5.5755192089E-01
    5.6880525893E-01    5.8020940438E-01    5.9176223714E-01    6.0346134715E-01
    6.1530401986E-01    6.2728722112E-01    6.3940758182E-01    6.5166138202E-01
    6.6404453473E-01    6.7655256942E-01    6.8918061500E-01    7.0192338269E-01
    7.1477514839E-01    7.2772973498E-01    7.4078049421E-01    7.5392028854E-01
    7.6714147274E-01    7.8043587546E-01    7.9379478070E-01    8.0720890930E-01
    8.2066840061E-01    8.3416279418E-01    8.4768101177E-01    8.6121133970E-01
    8.7474141159E-01    8.8825819164E-01    9.0174795858E-01    9.1519629039E-01
    9.2858804986E-01    9.4190737132E-01    9.5513764846E-01    9.6826152359E-01
    9.8126087843E-01    9.9411682664E-01    1.0068097082E+00    1.0193190863E+00
    1.0316237460E+00    1.0437016958E+00    1.0555301727E+00    1.0670856491E+00
    1.0783438442E+00    1.0892797386E+00    1.0998675930E+00    1.1100809712E+00
    1.1198927675E+00    1.1292752395E+00    1.1382000457E+00    1.1466382889E+00
    1.1545605656E+00    1.1619370214E+00    1.1687374134E+00    1.1749311793E+00
    1.1804875138E+00    1.1853754525E+00    1.1895639639E+00    1.1930220492E+00
    1.1957188508E+00    1.1976237692E+00    1.1987065886E+00    1.1989376115E+00
    1.1982878020E+00    1.1967289384E+00    1.1942337742E+00    1.1907762080E+00
    1.1863314620E+00    1.1808762679E+00    1.1743890615E+00    1.1668501833E+00
    1.1582420858E+00    1.1485495464E+00    1.1377598842E+00    1.1258631807E+00
    1.1128525017E+00    1.0987241201E+00    1.0834777365E+00    1.0671166974E+00
    1.0496482072E+00    1.0310835329E+00    1.0114381984E+00    9.9073216574E-01
    9.6899000099E-01    9.4624102078E-01    9.2251941738E-01    8.9786435844E-01
    8.7232005819E-01    8.4593581685E-01    8.1876602476E-01    7.9087012791E-01
    7.6231255174E-01    7.3316258010E-01    7.0349418660E-01    6.7338581584E-01
    6.4292011241E-01    6.1218359609E-01    5.8126628212E-01    5.5026124614E-01
    5.1926413401E-01    4.8837261776E-01    4.5768579939E-01    4.2730356559E-01
    3.9732589713E-01    3.6785213777E-01    3.3898022867E-01    3.1080591508E-01
    2.8342193325E-01    2.5691718643E-01    2.3137591957E-01    2.0687690305E-01
    1.8349263660E-01    1.6128858472E-01    1.4032245528E-01    1.2064353304E-01
    1.0229207951E-01    8.5298810346E-02    6.9684460571E-02    5.5459447251E-02
    4.2623638007E-02    3.1166232585E-02    2.1065763223E-02    1.2290218092E-02
    4.7972904966E-03   -1.4652450030E-03   -6.5590299187E-03   -1.0554494362E-02
   -1.3530107789E-02   -1.5571512087E-02   -1.6770542052E-02   -1.7224139091E-02
   -1.7033164673E-02   -1.6301120697E-02   -1.5132784623E-02   -1.3632768140E-02
   -1.1904009287E-02   -1.0046209601E-02   -8.1542300511E-03   -6.3164624341E-03
   -4.6131970757E-03   -3.1150084623E-03   -1.8799582315E-03   -9.4722890668E-04
   -3.3673739960E-04   -4.0793870552E-05    2.6440146484E-07    9.7497449672E-10
   -0.0000000000E+00   -0.0000000000E+00   -0.0000000000E+00   -0.0000000000E+00
 0. 0. 0. 0.
 0. 0. 0. 0.
 0. 0. 0. 0.
 0. 0. 0. 0.
 0. 0. 0. 0.
 0. 0. 0. 0.
 0. 0. 0. 0.
 0. 0. 0. 0.
 0. 0. 0. 0.
 0. 0. 0. 0.
 0. 0. 0. 0.
 0. 0. 0. 0.
 0. 0. 0. 0.
 0. 0. 0. 0.
 0. 0. 0. 0.
 0. 0. 0. 0.
 0. 0. 0. 0.
 0. 0. 0. 0.
 0. 0. 0. 0.
 0. 0. 0. 0.
 0. 0. 0. 0.
 0. 0. 0. 0.
 0. 0. 0. 0.
 0. 0. 0. 0.
 0. 0. 0. 0.
 0. 0. 0. 0.
 0. 0. 0. 0.
 0. 0. 0. 0.
 0. 0. 0. 0.
 0. 0. 0. 0.
 0. 0. 0. 0.
 0. 0. 0. 0.
 0. 0. 0. 0.
   </PP_BETA.3>
   <PP_BETA.4
       type="real"
       size="1164"
       columns="4"
       index="4"
       angular_momentum="1"
       cutoff_radius_index="1032"
       cutoff_radius="    2.6712123880E+00" >
    0.0000000000E+00   -8.5945924354E-11   -8.8126915017E-11   -9.0350586359E-11
   -9.2635235159E-11   -9.4986872528E-11   -9.7384771518E-11   -9.9844599438E-11
   -1.0236161907E-10   -1.0495672385E-10   -1.0760750577E-10   -1.1035315318E-10
   -1.1316756016E-10   -1.1600353000E-10   -1.1894850464E-10   -1.2195988908E-10
   -1.2505090703E-10   -1.2820808407E-10   -1.3146590840E-10   -1.3476411303E-10
   -1.3818254327E-10   -1.4169289903E-10   -1.4527644233E-10   -1.4896103164E-10
   -1.5271645177E-10   -1.5658131703E-10   -1.6055694612E-10   -1.6461860668E-10
   -1.6879369143E-10   -1.7307033411E-10   -1.7743457481E-10   -1.8195283765E-10
   -1.8656363774E-10   -1.9127485777E-10   -1.9610865351E-10   -2.0107809830E-10
   -2.0615206715E-10   -2.1137052968E-10   -2.1673620748E-10   -2.2221043972E-10
   -2.2784382814E-10   -2.3361181664E-10   -2.3952378391E-10   -2.4557673439E-10
   -2.5180060564E-10   -2.5818828127E-10   -2.6468519786E-10   -2.7142662410E-10
   -2.7828990485E-10   -2.8532955249E-10   -2.9253985398E-10   -2.9996870503E-10
   -3.0756690162E-10   -3.1533892502E-10   -3.2333059383E-10   -3.3151199836E-10
   -3.3989247216E-10   -3.4848703953E-10   -3.5730525950E-10   -3.6638059159E-10
   -3.7564358797E-10   -3.8517204522E-10   -3.9491829431E-10   -4.0491469644E-10
   -4.1516485095E-10   -4.2566671648E-10   -4.3644452934E-10   -4.4750416683E-10
   -4.5881208663E-10   -4.7042917957E-10   -4.8235403583E-10   -4.9455277152E-10
   -5.0707781732E-10   -5.1990347586E-10   -5.3303594087E-10   -5.4657326387E-10
   -5.6040364230E-10   -5.7461221213E-10   -5.8913149499E-10   -6.0405388362E-10
   -6.1933185252E-10   -6.3501393041E-10   -6.5110940561E-10   -6.6758727105E-10
   -6.8448313462E-10   -7.0180654318E-10   -7.1957893321E-10   -7.3779236463E-10
   -7.5647027898E-10   -7.7561697734E-10   -7.9526582609E-10   -8.1537798670E-10
   -8.3601629986E-10   -8.5718601883E-10   -8.7889129081E-10   -9.0112588398E-10
   -9.2395978304E-10   -9.4733308359E-10   -9.7131575999E-10   -9.9592123764E-10
   -1.0211246822E-09   -1.0469914184E-09   -1.0734905383E-09   -1.1006632972E-09
   -1.1285009582E-09   -1.1570781620E-09   -1.1863745319E-09   -1.2163898499E-09
   -1.2471959353E-09   -1.2787696609E-09   -1.3111564802E-09   -1.3443408841E-09
   -1.3783622728E-09   -1.4132647212E-09   -1.4490285882E-09   -1.4857328080E-09
   -1.5233318103E-09   -1.5618860895E-09   -1.6014323797E-09   -1.6419651854E-09
   -1.6835382702E-09   -1.7261633800E-09   -1.7698506106E-09   -1.8146768051E-09
   -1.8606108965E-09   -1.9077063952E-09   -1.9559746195E-09   -2.0055097128E-09
   -2.0562748176E-09   -2.1083248325E-09   -2.1617099246E-09   -2.2164504405E-09
   -2.2725409141E-09   -2.3300754834E-09   -2.3890657704E-09   -2.4495297446E-09
   -2.5115636969E-09   -2.5751306170E-09   -2.6403138343E-09   -2.7071567618E-09
   -2.7756896907E-09   -2.8459632228E-09   -2.9179824130E-09   -2.9918634154E-09
   -3.0676043898E-09   -3.1452541081E-09   -3.2248949215E-09   -3.3065265943E-09
   -3.3902436845E-09   -3.4760682320E-09   -3.5640568749E-09   -3.6542690055E-09
   -3.7468082957E-09   -3.8416366901E-09   -3.9389101021E-09   -4.0386159972E-09
   -4.1408396977E-09   -4.2456925976E-09   -4.3531617887E-09   -4.4633524435E-09
   -4.5763271285E-09   -4.6921840188E-09   -4.8109861031E-09   -4.9327651843E-09
   -5.0576344003E-09   -5.1856770641E-09   -5.3169352952E-09   -5.4515621959E-09
   -5.5895450685E-09   -5.7310307373E-09   -5.8761373428E-09   -6.0248804449E-09
   -6.1774278491E-09   -6.3337645967E-09   -6.4941407056E-09   -6.6585424396E-09
   -6.8270967283E-09   -6.9999189366E-09   -7.1771365159E-09   -7.3588134817E-09
   -7.5451094678E-09   -7.7361141517E-09   -7.9319475657E-09   -8.1327631092E-09
   -8.3386282176E-09   -8.5497331201E-09   -8.7661552095E-09   -8.9880779513E-09
   -9.2156177636E-09   -9.4489338734E-09   -9.6880927840E-09   -9.9333706560E-09
   -1.0184846313E-08   -1.0442670482E-08   -1.0707005774E-08   -1.0978072011E-08
   -1.1255979728E-08   -1.1540918265E-08   -1.1833079646E-08   -1.2132645002E-08
   -1.2439780731E-08   -1.2754685922E-08   -1.3077598101E-08   -1.3408659473E-08
   -1.3748078692E-08   -1.4096122579E-08   -1.4452968629E-08   -1.4818839517E-08
   -1.5193970194E-08   -1.5578628457E-08   -1.5972997219E-08   -1.6377357416E-08
   -1.6791952419E-08   -1.7217040450E-08   -1.7652904687E-08   -1.8099781904E-08
   -1.8557963480E-08   -1.9027768914E-08   -1.9509446826E-08   -2.0003343272E-08
   -2.0509731498E-08   -2.1028931323E-08   -2.1561305907E-08   -2.2107130690E-08
   -2.2666785259E-08   -2.3240573507E-08   -2.3828910816E-08   -2.4432141130E-08
   -2.5050641098E-08   -2.5684821715E-08   -2.6335025447E-08   -2.7001696789E-08
   -2.7685250800E-08   -2.8386116643E-08   -2.9104703233E-08   -2.9841480469E-08
   -3.0596933092E-08   -3.1371504724E-08   -3.2165653422E-08   -3.2979944132E-08
   -3.3814844245E-08   -3.4670856988E-08   -3.5548556903E-08   -3.6448467270E-08
   -3.7371179208E-08   -3.8317242100E-08   -3.9287234269E-08   -4.0281801467E-08
   -4.1301529224E-08   -4.2347076927E-08   -4.3419107619E-08   -4.4518271539E-08
   -4.5645258929E-08   -4.6800760086E-08   -4.7985531717E-08   -4.9200295592E-08
   -5.0445807367E-08   -5.1722838065E-08   -5.3032229674E-08   -5.4374736930E-08
   -5.5751240235E-08   -5.7162597947E-08   -5.8609664013E-08   -6.0093390233E-08
   -6.1614647513E-08   -6.3174421078E-08   -6.4773696384E-08   -6.6413448855E-08
   -6.8094710116E-08   -6.9818522534E-08   -7.1586021445E-08   -7.3398215514E-08
   -7.5256306997E-08   -7.7161413404E-08   -7.9114778735E-08   -8.1117579164E-08
   -8.3171072245E-08   -8.5276559467E-08   -8.7435351839E-08   -8.9648770960E-08
   -9.1918227935E-08   -9.4245163137E-08   -9.6631014447E-08   -9.9077221430E-08
   -1.0158537401E-07   -1.0415701087E-07   -1.0679376581E-07   -1.0949726041E-07
   -1.1226920987E-07   -1.1511131538E-07   -1.1802537178E-07   -1.2101318059E-07
   -1.2407665733E-07   -1.2721765879E-07   -1.3043818101E-07   -1.3374027131E-07
   -1.3712590438E-07   -1.4059726514E-07   -1.4415650863E-07   -1.4780584467E-07
   -1.5154757630E-07   -1.5538399680E-07   -1.5931760749E-07   -1.6335071249E-07
   -1.6748595930E-07   -1.7172589073E-07   -1.7607315909E-07   -1.8053046910E-07
   -1.8510061852E-07   -1.8978644643E-07   -1.9459093411E-07   -1.9951700755E-07
   -2.0456782150E-07   -2.0974647976E-07   -2.1505623840E-07   -2.2050040005E-07
   -2.2608239620E-07   -2.3180570778E-07   -2.3767388441E-07   -2.4369062784E-07
   -2.4985967594E-07   -2.5618490828E-07   -2.6267024417E-07   -2.6931979027E-07
   -2.7613764394E-07   -2.8312809944E-07   -2.9029552898E-07   -2.9764439595E-07
   -3.0517928007E-07   -3.1290494416E-07   -3.2082614864E-07   -3.2894791642E-07
   -3.3727528305E-07   -3.4581343694E-07   -3.5456773058E-07   -3.6354365587E-07
   -3.7274682865E-07   -3.8218296012E-07   -3.9185796056E-07   -4.0177786891E-07
   -4.1194891931E-07   -4.2237746440E-07   -4.3306999934E-07   -4.4403320497E-07
   -4.5527396183E-07   -4.6679927968E-07   -4.7861637826E-07   -4.9073257518E-07
   -5.0315553742E-07   -5.1589297551E-07   -5.2895287442E-07   -5.4234336246E-07
   -5.5607284627E-07   -5.7014989655E-07   -5.8458330097E-07   -5.9938210230E-07
   -6.1455550016E-07   -6.3011307883E-07   -6.4606444616E-07   -6.6241963953E-07
   -6.7918886006E-07   -6.9638260391E-07   -7.1401159667E-07   -7.3208688882E-07
   -7.5061974719E-07   -7.6962175793E-07   -7.8910483448E-07   -8.0908108639E-07
   -8.2956307891E-07   -8.5056355529E-07   -8.7209567989E-07   -8.9417286458E-07
   -9.1680895063E-07   -9.4001806007E-07   -9.6381471107E-07   -9.8821379502E-07
   -1.0132305348E-06   -1.0388805583E-06   -1.0651799332E-06   -1.0921450770E-06
   -1.1197928203E-06   -1.1481405300E-06   -1.1772058080E-06   -1.2070068837E-06
   -1.2375624049E-06   -1.2688914184E-06   -1.3010135383E-06   -1.3339488325E-06
   -1.3677178695E-06   -1.4023417784E-06   -1.4378422143E-06   -1.4742413332E-06
   -1.5115618778E-06   -1.5498272096E-06   -1.5890612516E-06   -1.6292885078E-06
   -1.6705340804E-06   -1.7128237992E-06   -1.7561841083E-06   -1.8006420704E-06
   -1.8462254976E-06   -1.8929628690E-06   -1.9408833819E-06   -1.9900170400E-06
   -2.0403944957E-06   -2.0920472745E-06   -2.1450076254E-06   -2.1993087001E-06
   -2.2549843942E-06   -2.3120695192E-06   -2.3705997691E-06   -2.4306116738E-06
   -2.4921428329E-06   -2.5552316179E-06   -2.6199175151E-06   -2.6862409462E-06
   -2.7542433489E-06   -2.8239672438E-06   -2.8954562018E-06   -2.9687548865E-06
   -3.0439091408E-06   -3.1209659292E-06   -3.1999733956E-06   -3.2809809799E-06
   -3.3640392419E-06   -3.4492001212E-06   -3.5365168629E-06   -3.6260440540E-06
   -3.7178375723E-06   -3.8119548767E-06   -3.9084547396E-06   -4.0073975255E-06
   -4.1088450601E-06   -4.2128606797E-06   -4.3195094961E-06   -4.4288581214E-06
   -4.5409749074E-06   -4.6559299389E-06   -4.7737950353E-06   -4.8946438866E-06
   -5.0185520308E-06   -5.1455968986E-06   -5.2758578938E-06   -5.4094164574E-06
   -5.5463560656E-06   -5.6867622714E-06   -5.8307228733E-06   -5.9783278063E-06
   -6.1296693639E-06   -6.2848421017E-06   -6.4439430703E-06   -6.6070716260E-06
   -6.7743297791E-06   -6.9458220788E-06   -7.1216556698E-06   -7.3019404804E-06
   -7.4867891938E-06   -7.6763173283E-06   -7.8706433479E-06   -8.0698887025E-06
   -8.2741779135E-06   -8.4836386979E-06   -8.6984019653E-06   -8.9186019394E-06
   -9.1443762215E-06   -9.3758659466E-06   -9.6132158068E-06   -9.8565741306E-06
   -1.0106093040E-05   -1.0361928486E-05   -1.0624240334E-05   -1.0893192559E-05
   -1.1168953275E-05   -1.1451694806E-05   -1.1741593863E-05   -1.2038831660E-05
   -1.2343593965E-05   -1.2656071265E-05   -1.2976458818E-05   -1.3304956914E-05
   -1.3641770849E-05   -1.3987111136E-05   -1.4341193612E-05   -1.4704239571E-05
   -1.5076475921E-05   -1.5458135341E-05   -1.5849456293E-05   -1.6250683434E-05
   -1.6662067486E-05   -1.7083865571E-05   -1.7516341312E-05   -1.7959765019E-05
   -1.8414413800E-05   -1.8880571802E-05   -1.9358530417E-05   -1.9848588336E-05
   -2.0351051839E-05   -2.0866234949E-05   -2.1394459675E-05   -2.1936056144E-05
   -2.2491362836E-05   -2.3060726810E-05   -2.3644503904E-05   -2.4243059020E-05
   -2.4856766166E-05   -2.5486008949E-05   -2.6131180587E-05   -2.6792684336E-05
   -2.7470933616E-05   -2.8166352326E-05   -2.8879375021E-05   -2.9610447362E-05
   -3.0360026298E-05   -3.1128580181E-05   -3.1916589402E-05   -3.2724546467E-05
   -3.3552956255E-05   -3.4402336522E-05   -3.5273218063E-05   -3.6166145183E-05
   -3.7081675898E-05   -3.8020382378E-05   -3.8982851293E-05   -3.9969684090E-05
   -4.0981497491E-05   -4.2018923893E-05   -4.3082611552E-05   -4.4173225223E-05
   -4.5291446530E-05   -4.6437974193E-05   -4.7613524783E-05   -4.8818832919E-05
   -5.0054651837E-05   -5.1321753841E-05   -5.2620930741E-05   -5.3952994426E-05
   -5.5318777354E-05   -5.6719133005E-05   -5.8154936474E-05   -5.9627085016E-05
   -6.1136498572E-05   -6.2684120381E-05   -6.4270917564E-05   -6.5897881666E-05
   -6.7566029403E-05   -6.9276403163E-05   -7.1030071711E-05   -7.2828130907E-05
   -7.4671704364E-05   -7.6561943958E-05   -7.8500030935E-05   -8.0487176320E-05
   -8.2524621786E-05   -8.4613640472E-05   -8.6755537687E-05   -8.8951651759E-05
   -9.1203354968E-05   -9.3512054207E-05   -9.5879192076E-05   -9.8306247585E-05
   -1.0079473725E-04   -1.0334621589E-04   -1.0596227774E-04   -1.0864455726E-04
   -1.1139473041E-04   -1.1421451545E-04   -1.1710567416E-04   -1.2007001288E-04
   -1.2310938363E-04   -1.2622568536E-04   -1.2942086500E-04   -1.3269691876E-04
   -1.3605589333E-04   -1.3949988720E-04   -1.4303105198E-04   -1.4665159369E-04
   -1.5036377411E-04   -1.5416991230E-04   -1.5807238597E-04   -1.6207363296E-04
   -1.6617615282E-04   -1.7038250825E-04   -1.7469532690E-04   -1.7911730271E-04
   -1.8365119797E-04   -1.8829984465E-04   -1.9306614651E-04   -1.9795308057E-04
   -2.0296369937E-04   -2.0810113244E-04   -2.1336858862E-04   -2.1876935779E-04
   -2.2430681312E-04   -2.2998441304E-04   -2.3580570342E-04   -2.4177431980E-04
   -2.4789398971E-04   -2.5416853490E-04   -2.6060187375E-04   -2.6719802367E-04
   -2.7396110378E-04   -2.8089533719E-04   -2.8800505390E-04   -2.9529469334E-04
   -3.0276880715E-04   -3.1043206203E-04   -3.1828924273E-04   -3.2634525482E-04
   -3.3460512805E-04   -3.4307401910E-04   -3.5175721514E-04   -3.6066013690E-04
   -3.6978834214E-04   -3.7914752906E-04   -3.8874353984E-04   -3.9858236436E-04
   -4.0867014384E-04   -4.1901317457E-04   -4.2961791208E-04   -4.4049097491E-04
   -4.5163914883E-04   -4.6306939104E-04   -4.7478883453E-04   -4.8680479240E-04
   -4.9912476249E-04   -5.1175643209E-04   -5.2470768248E-04   -5.3798659416E-04
   -5.5160145160E-04   -5.6556074845E-04   -5.7987319285E-04   -5.9454771275E-04
   -6.0959346163E-04   -6.2501982388E-04   -6.4083642088E-04   -6.5705311686E-04
   -6.7368002499E-04   -6.9072751367E-04   -7.0820621296E-04   -7.2612702114E-04
   -7.4450111146E-04   -7.6333993909E-04   -7.8265524816E-04   -8.0245907903E-04
   -8.2276377572E-04   -8.4358199370E-04   -8.6492670739E-04   -8.8681121851E-04
   -9.0924916404E-04   -9.3225452485E-04   -9.5584163415E-04   -9.8002518648E-04
   -1.0048202466E-03   -1.0302422591E-03   -1.0563070574E-03   -1.0830308741E-03
   -1.1104303504E-03   -1.1385225471E-03   -1.1673249541E-03   -1.1968555021E-03
   -1.2271325730E-03   -1.2581750116E-03   -1.2900021369E-03   -1.3226337541E-03
   -1.3560901667E-03   -1.3903921892E-03   -1.4255611595E-03   -1.4616189521E-03
   -1.4985879916E-03   -1.5364912666E-03   -1.5753523432E-03   -1.6151953800E-03
   -1.6560451427E-03   -1.6979270192E-03   -1.7408670349E-03   -1.7848918690E-03
   -1.8300288705E-03   -1.8763060749E-03   -1.9237522215E-03   -1.9723967704E-03
   -2.0222699213E-03   -2.0734026307E-03   -2.1258266317E-03   -2.1795744530E-03
   -2.2346794382E-03   -2.2911757668E-03   -2.3490984740E-03   -2.4084834728E-03
   -2.4693675752E-03   -2.5317885143E-03   -2.5957849677E-03   -2.6613965804E-03
   -2.7286639886E-03   -2.7976288446E-03   -2.8683338413E-03   -2.9408227387E-03
   -3.0151403891E-03   -3.0913327649E-03   -3.1694469857E-03   -3.2495313465E-03
   -3.3316353470E-03   -3.4158097205E-03   -3.5021064648E-03   -3.5905788727E-03
   -3.6812815638E-03   -3.7742705175E-03   -3.8696031053E-03   -3.9673381255E-03
   -4.0675358379E-03   -4.1702579990E-03   -4.2755678991E-03   -4.3835303990E-03
   -4.4942119685E-03   -4.6076807254E-03   -4.7240064755E-03   -4.8432607531E-03
   -4.9655168633E-03   -5.0908499248E-03   -5.2193369130E-03   -5.3510567055E-03
   -5.4860901275E-03   -5.6245199986E-03   -5.7664311810E-03   -5.9119106278E-03
   -6.0610474337E-03   -6.2139328861E-03   -6.3706605168E-03   -6.5313261562E-03
   -6.6960279878E-03   -6.8648666036E-03   -7.0379450618E-03   -7.2153689448E-03
   -7.3972464190E-03   -7.5836882955E-03   -7.7748080925E-03   -7.9707220990E-03
   -8.1715494393E-03   -8.3774121396E-03   -8.5884351958E-03   -8.8047466426E-03
   -9.0264776237E-03   -9.2537624644E-03   -9.4867387448E-03   -9.7255473751E-03
   -9.9703326719E-03   -1.0221242437E-02   -1.0478428035E-02   -1.0742044479E-02
   -1.1012250509E-02   -1.1289208678E-02   -1.1573085439E-02   -1.1864051233E-02
   -1.2162280578E-02   -1.2467952157E-02   -1.2781248919E-02   -1.3102358166E-02
   -1.3431471653E-02   -1.3768785685E-02   -1.4114501219E-02   -1.4468823964E-02
   -1.4831964484E-02   -1.5204138305E-02   -1.5585566021E-02   -1.5976473405E-02
   -1.6377091516E-02   -1.6787656815E-02   -1.7208411279E-02   -1.7639602514E-02
   -1.8081483877E-02   -1.8534314593E-02   -1.8998359880E-02   -1.9473891066E-02
   -1.9961185721E-02   -2.0460527779E-02   -2.0972207668E-02   -2.1496522439E-02
   -2.2033775900E-02   -2.2584278748E-02   -2.3148348703E-02   -2.3726310643E-02
   -2.4318496745E-02   -2.4925246624E-02   -2.5546907469E-02   -2.6183834189E-02
   -2.6836389554E-02   -2.7504944339E-02   -2.8189877469E-02   -2.8891576163E-02
   -2.9610436085E-02   -3.0346861484E-02   -3.1101265349E-02   -3.1874069553E-02
   -3.2665705000E-02   -3.3476611777E-02   -3.4307239300E-02   -3.5158046463E-02
   -3.6029501784E-02   -3.6922083553E-02   -3.7836279977E-02   -3.8772589327E-02
   -3.9731520080E-02   -4.0713591057E-02   -4.1719331571E-02   -4.2749281557E-02
   -4.3803991710E-02   -4.4884023618E-02   -4.5989949887E-02   -4.7122354272E-02
   -4.8281831790E-02   -4.9468988844E-02   -5.0684443327E-02   -5.1928824733E-02
   -5.3202774256E-02   -5.4506944878E-02   -5.5842001460E-02   -5.7208620819E-02
   -5.8607491792E-02   -6.0039315304E-02   -6.1504804408E-02   -6.3004684332E-02
   -6.4539692501E-02   -6.6110578554E-02   -6.7718104343E-02   -6.9363043918E-02
   -7.1046183499E-02   -7.2768321427E-02   -7.4530268101E-02   -7.6332845891E-02
   -7.8176889034E-02   -8.0063243503E-02   -8.1992766858E-02   -8.3966328066E-02
   -8.5984807295E-02   -8.8049095680E-02   -9.0160095054E-02   -9.2318717652E-02
   -9.4525885768E-02   -9.6782531387E-02   -9.9089595763E-02   -1.0144802896E-01
   -1.0385878935E-01   -1.0632284305E-01   -1.0884116331E-01   -1.1141472985E-01
   -1.1404452812E-01   -1.1673154852E-01   -1.1947678551E-01   -1.2228123672E-01
   -1.2514590186E-01   -1.2807178167E-01   -1.3105987669E-01   -1.3411118598E-01
   -1.3722670574E-01   -1.4040742774E-01   -1.4365433776E-01   -1.4696841377E-01
   -1.5035062408E-01   -1.5380192525E-01   -1.5732325993E-01   -1.6091555449E-01
   -1.6457971642E-01   -1.6831663167E-01   -1.7212716161E-01   -1.7601213992E-01
   -1.7997236919E-01   -1.8400861719E-01   -1.8812161302E-01   -1.9231204282E-01
   -1.9658054527E-01   -2.0092770668E-01   -2.0535405580E-01   -2.0986005818E-01
   -2.1444611016E-01   -2.1911253238E-01   -2.2385956289E-01   -2.2868734965E-01
   -2.3359594263E-01   -2.3858528519E-01   -2.4365520496E-01   -2.4880540404E-01
   -2.5403544843E-01   -2.5934475683E-01   -2.6473258854E-01   -2.7019803061E-01
   -2.7573998402E-01   -2.8135714894E-01   -2.8704800899E-01   -2.9281081441E-01
   -2.9864356409E-01   -3.0454398643E-01   -3.1050951890E-01   -3.1653728631E-01
   -3.2262407764E-01   -3.2876632140E-01   -3.3496005951E-01   -3.4120091949E-01
   -3.4748408503E-01   -3.5380426479E-01   -3.6015565939E-01   -3.6653192660E-01
   -3.7292614450E-01   -3.7933077281E-01   -3.8573761209E-01   -3.9213776105E-01
   -3.9852157172E-01   -4.0487860262E-01   -4.1119756991E-01   -4.1746629663E-01
   -4.2367165990E-01   -4.2979953643E-01   -4.3583474625E-01   -4.4176099497E-01
   -4.4756081469E-01   -4.5321550380E-01   -4.5870506599E-01   -4.6400814887E-01
   -4.6910198253E-01   -4.7396231854E-01   -4.7856336996E-01   -4.8287775307E-01
   -4.8687643137E-01   -4.9052866281E-01   -4.9380195114E-01   -4.9666200236E-01
   -4.9907268741E-01   -5.0099601245E-01   -5.0239209797E-01   -5.0321916828E-01
   -5.0343355312E-01   -5.0298970296E-01   -5.0184022005E-01   -4.9993590717E-01
   -4.9722583617E-01   -4.9365743873E-01   -4.8917662142E-01   -4.8372790781E-01
   -4.7725460989E-01   -4.6969903150E-01   -4.6100270625E-01   -4.5110667248E-01
   -4.3995178778E-01   -4.2747908530E-01   -4.1363017417E-01   -3.9834768580E-01
   -3.8157576783E-01   -3.6326062687E-01   -3.4335112073E-01   -3.2179940049E-01
   -2.9856160172E-01   -2.7359858363E-01   -2.4687671401E-01   -2.1836869665E-01
   -1.8805443704E-01   -1.5592194059E-01   -1.2196823670E-01   -8.6200319955E-02
   -4.8636098789E-02   -9.3053398968E-03    3.1749404813E-02    7.4471903639E-02
    1.1879139950E-01    1.6462183159E-01    2.1186114402E-01    2.6039070253E-01
    3.1007484161E-01    3.6076056507E-01    4.1227742363E-01    4.6443759320E-01
    5.1703617694E-01    5.6985175313E-01    6.2264718902E-01    6.7517073849E-01
    7.2715743752E-01    7.7833080766E-01    8.2840487225E-01    8.7708648389E-01
    9.2407795500E-01    9.6907997490E-01    1.0117947888E+00    1.0519296041E+00
    1.0892001805E+00    1.1233345504E+00    1.1540768048E+00    1.1811908745E+00
    1.2044642238E+00    1.2237113697E+00    1.2387771344E+00    1.2495395353E+00
    1.2559122184E+00    1.2578463435E+00    1.2553318383E+00    1.2483979497E+00
    1.2371130375E+00    1.2215835747E+00    1.2019523466E+00    1.1783958651E+00
    1.1511210519E+00    1.1203612724E+00    1.0863718426E+00    1.0494251592E+00
    1.0098056409E+00    9.6780468797E-01    9.2371589351E-01    8.7783074409E-01
    8.3043505054E-01    7.8180633335E-01    7.3221236086E-01    6.8191099601E-01
    6.3115145293E-01    5.8017699856E-01    5.2922906132E-01    4.7855263250E-01
    4.2840277439E-01    3.7905198893E-01    3.3079816096E-01    2.8397278098E-01
    2.3894918161E-01    1.9615059909E-01    1.5605800105E-01    1.1921780822E-01
    8.6249907477E-02    5.7856433621E-02    3.4762843328E-02    1.7440415220E-02
    6.1706618912E-03    7.4337512068E-04   -4.7953043278E-06   -1.7762386079E-08
   -0.0000000000E+00   -0.0000000000E+00   -0.0000000000E+00   -0.0000000000E+00
 0. 0. 0. 0.
 0. 0. 0. 0.
 0. 0. 0. 0.
 0. 0. 0. 0.
 0. 0. 0. 0.
 0. 0. 0. 0.
 0. 0. 0. 0.
 0. 0. 0. 0.
 0. 0. 0. 0.
 0. 0. 0. 0.
 0. 0. 0. 0.
 0. 0. 0. 0.
 0. 0. 0. 0.
 0. 0. 0. 0.
 0. 0. 0. 0.
 0. 0. 0. 0.
 0. 0. 0. 0.
 0. 0. 0. 0.
 0. 0. 0. 0.
 0. 0. 0. 0.
 0. 0. 0. 0.
 0. 0. 0. 0.
 0. 0. 0. 0.
 0. 0. 0. 0.
 0. 0. 0. 0.
 0. 0. 0. 0.
 0. 0. 0. 0.
 0. 0. 0. 0.
 0. 0. 0. 0.
 0. 0. 0. 0.
 0. 0. 0. 0.
 0. 0. 0. 0.
 0. 0. 0. 0.
   </PP_BETA.4>
   <PP_BETA.5
       type="real"
       size="1164"
       columns="4"
       index="5"
       angular_momentum="2"
       cutoff_radius_index="1032"
       cutoff_radius="    2.6712123880E+00" >
    0.0000000000E+00    1.0870775256E-15    1.1286321335E-15    1.1716923693E-15
    1.2165114614E-15    1.2629784347E-15    1.3112500847E-15    1.3613444090E-15
    1.4133955939E-15    1.4674020833E-15    1.5234535284E-15    1.5817315828E-15
    1.6421176700E-15    1.7048946546E-15    1.7700106238E-15    1.8376812154E-15
    1.9079000509E-15    1.9807810825E-15    2.0564563369E-15    2.1350297714E-15
    2.2166274919E-15    2.3013475167E-15    2.3892779585E-15    2.4805789647E-15
    2.5753337846E-15    2.6737740822E-15    2.7759496815E-15    2.8820285013E-15
    2.9921425427E-15    3.1064959766E-15    3.2251712624E-15    3.3484448460E-15
    3.4763859355E-15    3.6091919106E-15    3.7471477190E-15    3.8903342190E-15
    4.0389078783E-15    4.1932888949E-15    4.3535323205E-15    4.5198820246E-15
    4.6926077092E-15    4.8718715041E-15    5.0580876442E-15    5.2513274867E-15
    5.4520478242E-15    5.6603400266E-15    5.8765915491E-15    6.1012283642E-15
    6.3343508635E-15    6.5763710626E-15    6.8277305870E-15    7.0886351875E-15
    7.3594608681E-15    7.6407096920E-15    7.9326531673E-15    8.2358169798E-15
    8.5505027139E-15    8.8772568865E-15    9.2164498441E-15    9.5685652286E-15
    9.9341709988E-15    1.0313868271E-14    1.0707972160E-14    1.1117190256E-14
    1.1541896341E-14    1.1982991255E-14    1.2440930446E-14    1.2916228376E-14
    1.3409804716E-14    1.3922253790E-14    1.4454184110E-14    1.5006525878E-14
    1.5580028918E-14    1.6175326877E-14    1.6793476084E-14    1.7435125183E-14
    1.8101323966E-14    1.8793013366E-14    1.9511175425E-14    2.0256791162E-14
    2.1030905319E-14    2.1834452870E-14    2.2668786710E-14    2.3534976729E-14
    2.4434237376E-14    2.5368020322E-14    2.6337438217E-14    2.7343729855E-14
    2.8388588029E-14    2.9473359822E-14    3.0599678487E-14    3.1768822798E-14
    3.2982874243E-14    3.4243280969E-14    3.5551659451E-14    3.6910243599E-14
    3.8320663846E-14    3.9784947582E-14    4.1305165258E-14    4.2883584399E-14
    4.4522160842E-14    4.6223526939E-14    4.7989838683E-14    4.9823549659E-14
    5.1727397760E-14    5.3703969400E-14    5.5756231205E-14    5.7886745956E-14
    6.0098740647E-14    6.2395118505E-14    6.4779491657E-14    6.7254786066E-14
    6.9824812080E-14    7.2492898216E-14    7.5262949512E-14    7.8138895951E-14
    8.1124747337E-14    8.4224686900E-14    8.7443148515E-14    9.0784365166E-14
    9.4253492909E-14    9.7854976855E-14    1.0159421391E-13    1.0547652776E-13
    1.0950691639E-13    1.1369141530E-13    1.1803563950E-13    1.2254620281E-13
    1.2722894605E-13    1.3209048302E-13    1.3713803192E-13    1.4237833055E-13
    1.4781898979E-13    1.5346732276E-13    1.5933160763E-13    1.6542003890E-13
    1.7174111864E-13    1.7830367503E-13    1.8511685572E-13    1.9219077667E-13
    1.9953460013E-13    2.0715930682E-13    2.1507530314E-13    2.2329379000E-13
    2.3182631537E-13    2.4068469523E-13    2.4988175952E-13    2.5943019947E-13
    2.6934343908E-13    2.7963575797E-13    2.9032118805E-13    3.0141487321E-13
    3.1293260694E-13    3.2489036464E-13    3.3730518502E-13    3.5019436150E-13
    3.6357587924E-13    3.7746880476E-13    3.9189279104E-13    4.0686759132E-13
    4.2241487078E-13    4.3855616354E-13    4.5531416223E-13    4.7271294046E-13
    4.9077598726E-13    5.0952941043E-13    5.2899996136E-13    5.4921372794E-13
    5.7020043963E-13    5.9198891230E-13    6.1460999432E-13    6.3809544500E-13
    6.6247845565E-13    6.8779293474E-13    7.1407510266E-13    7.4136116448E-13
    7.6969017653E-13    7.9910165672E-13    8.2963655198E-13    8.6133923676E-13
    8.9425219752E-13    9.2842361521E-13    9.6390060686E-13    1.0007331239E-12
    1.0389729290E-12    1.0786742124E-12    1.1198922852E-12    1.1626857722E-12
    1.2071143339E-12    1.2532408333E-12    1.3011294881E-12    1.3508482166E-12
    1.4024669322E-12    1.4560577857E-12    1.5116967623E-12    1.5694621149E-12
    1.6294342512E-12    1.6916981463E-12    1.7563412356E-12    1.8234545690E-12
    1.8931323170E-12    1.9654724550E-12    2.0405772591E-12    2.1185518210E-12
    2.1995058643E-12    2.2835534580E-12    2.3708125542E-12    2.4614059514E-12
    2.5554609022E-12    2.6531105266E-12    2.7544913223E-12    2.8597460355E-12
    2.9690224747E-12    3.0824743993E-12    3.2002622769E-12    3.3225507624E-12
    3.4495119809E-12    3.5813244737E-12    3.7181740143E-12    3.8602532540E-12
    4.0077608508E-12    4.1609052159E-12    4.3199022790E-12    4.4849744814E-12
    4.6563544802E-12    4.8342817603E-12    5.0190106264E-12    5.2107967259E-12
    5.4099117760E-12    5.6166351801E-12    5.8312576127E-12    6.0540820560E-12
    6.2854205891E-12    6.5255990781E-12    6.7749555204E-12    7.0338399803E-12
    7.3026171305E-12    7.5816645598E-12    7.8713752469E-12    8.1721555899E-12
    8.4844302140E-12    8.8086374550E-12    9.1452334089E-12    9.4946909900E-12
    9.8575013336E-12    1.0234176363E-11    1.0625245306E-11    1.1031257109E-11
    1.1452783198E-11    1.1890417404E-11    1.2344773138E-11    1.2816491556E-11
    1.3306235600E-11    1.3814693400E-11    1.4342580398E-11    1.4890639397E-11
    1.5459640319E-11    1.6050383493E-11    1.6663701651E-11    1.7300454191E-11
    1.7961539162E-11    1.8647885358E-11    1.9360458584E-11    2.0100260042E-11
    2.0868332115E-11    2.1665751773E-11    2.2493642654E-11    2.3353170959E-11
    2.4245541182E-11    2.5172012653E-11    2.6133884900E-11    2.7132513312E-11
    2.8169300701E-11    2.9245706155E-11    3.0363242821E-11    3.1523482918E-11
    3.2728058394E-11    3.3978663301E-11    3.5277055666E-11    3.6625062869E-11
    3.8024579769E-11    3.9477574906E-11    4.0986090882E-11    4.2552251516E-11
    4.4178257605E-11    4.5866396200E-11    4.7619043678E-11    4.9438663402E-11
    5.1327812280E-11    5.3289151141E-11    5.5325436235E-11    5.7439531914E-11
    5.9634411468E-11    6.1913159912E-11    6.4278987079E-11    6.6735214134E-11
    6.9285300764E-11    7.1932831425E-11    7.4681528249E-11    7.7535258651E-11
    8.0498034755E-11    8.3574024963E-11    8.6767556302E-11    9.0083118069E-11
    9.3525372863E-11    9.7099165103E-11    1.0080951816E-10    1.0466165217E-10
    1.0866098077E-10    1.1281313488E-10    1.1712394999E-10    1.2159949137E-10
    1.2624605025E-10    1.3107016234E-10    1.3607861571E-10    1.4127845167E-10
    1.4667698498E-10    1.5228180619E-10    1.5810079620E-10    1.6414214472E-10
    1.7041434259E-10    1.7692621679E-10    1.8368692027E-10    1.9070596464E-10
    1.9799321954E-10    2.0555893597E-10    2.1341375600E-10    2.2156872025E-10
    2.3003530362E-10    2.3882541298E-10    2.4795140930E-10    2.5742612642E-10
    2.6726289328E-10    2.7747554467E-10    2.8807843712E-10    2.9908648820E-10
    3.1051518338E-10    3.2238058975E-10    3.3469939729E-10    3.4748892753E-10
    3.6076717348E-10    3.7455280914E-10    3.8886521960E-10    4.0372453427E-10
    4.1915165836E-10    4.3516828127E-10    4.5179693215E-10    4.6906099294E-10
    4.8698474963E-10    5.0559341165E-10    5.2491314797E-10    5.4497112981E-10
    5.6579556395E-10    5.8741574414E-10    6.0986207197E-10    6.3316612102E-10
    6.5736066654E-10    6.8247972839E-10    7.0855864418E-10    7.3563408644E-10
    7.6374413588E-10    7.9292832629E-10    8.2322770071E-10    8.5468487778E-10
    8.8734409696E-10    9.2125128684E-10    9.5645414297E-10    9.9300216267E-10
    1.0309467609E-09    1.0703413016E-09    1.1112411820E-09    1.1537039301E-09
    1.1977892652E-09    1.2435591860E-09    1.2910780730E-09    1.3404127440E-09
    1.3916325939E-09    1.4448096618E-09    1.5000187279E-09    1.5573374438E-09
    1.6168464240E-09    1.6786293587E-09    1.7427731456E-09    1.8093679892E-09
    1.8785075607E-09    1.9502890915E-09    2.0248135387E-09    2.1021857162E-09
    2.1825144427E-09    2.2659126815E-09    2.3524977446E-09    2.4423913887E-09
    2.5357200471E-09    2.6326149868E-09    2.7332124753E-09    2.8376539928E-09
    2.9460864283E-09    3.0586622951E-09    3.1755399045E-09    3.2968836419E-09
    3.4228641674E-09    3.5536586600E-09    3.6894510714E-09    3.8304323805E-09
    3.9768008769E-09    4.1287623987E-09    4.2865306828E-09    4.4503276064E-09
    4.6203835423E-09    4.7969376553E-09    4.9802382490E-09    5.1705431303E-09
    5.3681199445E-09    5.5732465632E-09    5.7862114875E-09    6.0073142253E-09
    6.2368657484E-09    6.4751888875E-09    6.7226188420E-09    6.9795035813E-09
    7.2462044121E-09    7.5230964156E-09    7.8105690192E-09    8.1090265267E-09
    8.4188887030E-09    8.7405913279E-09    9.0745868627E-09    9.4213450402E-09
    9.7813535458E-09    1.0155118697E-08    1.0543166164E-08    1.0946041721E-08
    1.1364311958E-08    1.1798565145E-08    1.2249412022E-08    1.2717486663E-08
    1.3203447374E-08    1.3707977645E-08    1.4231787020E-08    1.4775612210E-08
    1.5340218065E-08    1.5926398642E-08    1.6534978375E-08    1.7166813157E-08
    1.7822791635E-08    1.8503836365E-08    1.9210905207E-08    1.9944992573E-08
    2.0707130902E-08    2.1498392073E-08    2.2319888946E-08    2.3172776877E-08
    2.4058255386E-08    2.4977569825E-08    2.5932013130E-08    2.6922927654E-08
    2.7951707027E-08    2.9019798166E-08    3.0128703218E-08    3.1279981808E-08
    3.2475253066E-08    3.3716198106E-08    3.5004562148E-08    3.6342157230E-08
    3.7730864535E-08    3.9172637180E-08    4.0669502902E-08    4.2223566914E-08
    4.3837014885E-08    4.5512115999E-08    4.7251226156E-08    4.9056791261E-08
    5.0931350712E-08    5.2877540932E-08    5.4898099040E-08    5.6995866832E-08
    5.9173794640E-08    6.1434945534E-08    6.3782499657E-08    6.6219758646E-08
    6.8750150314E-08    7.1377233479E-08    7.4104702883E-08    7.6936394529E-08
    7.9876290951E-08    8.2928526892E-08    8.6097395082E-08    8.9387352290E-08
    9.2803025569E-08    9.6349218813E-08    1.0003091945E-07    1.0385330552E-07
    1.0782175292E-07    1.1194184293E-07    1.1621937018E-07    1.2066035066E-07
    1.2527103030E-07    1.3005789362E-07    1.3502767301E-07    1.4018735808E-07
    1.4554420555E-07    1.5110574941E-07    1.5687981154E-07    1.6287451276E-07
    1.6909828415E-07    1.7555987894E-07    1.8226838493E-07    1.8923323717E-07
    1.9646423118E-07    2.0397153680E-07    2.1176571253E-07    2.1985772031E-07
    2.2825894094E-07    2.3698119019E-07    2.4603673522E-07    2.5543831206E-07
    2.6519914331E-07    2.7533295691E-07    2.8585400538E-07    2.9677708581E-07
    3.0811756078E-07    3.1989137982E-07    3.3211510210E-07    3.4480591936E-07
    3.5798168044E-07    3.7166091609E-07    3.8586286533E-07    4.0060750216E-07
    4.1591556405E-07    4.3180858066E-07    4.4830890458E-07    4.6543974241E-07
    4.8322518759E-07    5.0169025423E-07    5.2086091222E-07    5.4076412403E-07
    5.6142788218E-07    5.8288124902E-07    6.0515439738E-07    6.2827865319E-07
    6.5228653923E-07    6.7721182134E-07    7.0308955531E-07    7.2995613682E-07
    7.5784935212E-07    7.8680843152E-07    8.1687410433E-07    8.4808865627E-07
    8.8049598898E-07    9.1414168165E-07    9.4907305519E-07    9.8533923879E-07
    1.0229912390E-06    1.0620820116E-06    1.1026665357E-06    1.1448018917E-06
    1.1885473408E-06    1.2339644091E-06    1.2811169737E-06    1.3300713526E-06
    1.3808963980E-06    1.4336635933E-06    1.4884471535E-06    1.5453241293E-06
    1.6043745162E-06    1.6656813663E-06    1.7293309055E-06    1.7954126547E-06
    1.8640195558E-06    1.9352481020E-06    2.0091984743E-06    2.0859746816E-06
    2.1656847075E-06    2.2484406623E-06    2.3343589399E-06    2.4235603826E-06
    2.5161704501E-06    2.6123193968E-06    2.7121424543E-06    2.8157800220E-06
    2.9233778648E-06    3.0350873175E-06    3.1510654981E-06    3.2714755290E-06
    3.3964867659E-06    3.5262750363E-06    3.6610228870E-06    3.8009198407E-06
    3.9461626624E-06    4.0969556365E-06    4.2535108543E-06    4.4160485115E-06
    4.5847972190E-06    4.7599943238E-06    4.9418862432E-06    5.1307288112E-06
    5.3267876384E-06    5.5303384859E-06    5.7416676531E-06    5.9610723801E-06
    6.1888612663E-06    6.4253547043E-06    6.6708853307E-06    6.9257984938E-06
    7.1904527398E-06    7.4652203169E-06    7.7504876991E-06    8.0466561297E-06
    8.3541421862E-06    8.6733783656E-06    9.0048136938E-06    9.3489143565E-06
    9.7061643553E-06    1.0077066189E-05    1.0462141559E-05    1.0861932107E-05
    1.1277000172E-05    1.1707929584E-05    1.2155326488E-05    1.2619820190E-05
    1.3102064050E-05    1.3602736396E-05    1.4122541481E-05    1.4662210472E-05
    1.5222502480E-05    1.5804205628E-05    1.6408138159E-05    1.7035149589E-05
    1.7686121901E-05    1.8361970784E-05    1.9063646927E-05    1.9792137351E-05
    2.0548466801E-05    2.1333699186E-05    2.2148939079E-05    2.2995333268E-05
    2.3874072372E-05    2.4786392514E-05    2.5733577063E-05    2.6716958440E-05
    2.7737919990E-05    2.8797897932E-05    2.9898383379E-05    3.1040924435E-05
    3.2227128376E-05    3.3458663911E-05    3.4737263530E-05    3.6064725944E-05
    3.7442918612E-05    3.8873780376E-05    4.0359324185E-05    4.1901639929E-05
    4.3502897381E-05    4.5165349253E-05    4.6891334363E-05    4.8683280930E-05
    5.0543709990E-05    5.2475238945E-05    5.4480585251E-05    5.6562570239E-05
    5.8724123085E-05    6.0968284942E-05    6.3298213212E-05    6.5717185997E-05
    6.8228606711E-05    7.0836008873E-05    7.3543061082E-05    7.6353572181E-05
    7.9271496621E-05    8.2300940029E-05    8.5446164988E-05    8.8711597039E-05
    9.2101830915E-05    9.5621637008E-05    9.9275968090E-05    1.0306996628E-04
    1.0700897031E-04    1.1109852300E-04    1.1534437910E-04    1.1975251339E-04
    1.2432912909E-04    1.2908066660E-04    1.3401381255E-04    1.3913550926E-04
    1.4445296448E-04    1.4997366158E-04    1.5570537005E-04    1.6165615649E-04
    1.6783439594E-04    1.7424878370E-04    1.8090834757E-04    1.8782246056E-04
    1.9500085414E-04    2.0245363189E-04    2.1019128381E-04    2.1822470104E-04
    2.2656519122E-04    2.3522449447E-04    2.4421479988E-04    2.5354876273E-04
    2.6323952230E-04    2.7330072041E-04    2.8374652063E-04    2.9459162829E-04
    3.0585131115E-04    3.1754142095E-04    3.2967841579E-04    3.4227938329E-04
    3.5536206468E-04    3.6894487989E-04    3.8304695341E-04    3.9768814135E-04
    4.1288905942E-04    4.2867111196E-04    4.4505652219E-04    4.6206836351E-04
    4.7973059207E-04    4.9806808055E-04    5.1710665323E-04    5.3687312246E-04
    5.5739532643E-04    5.7870216850E-04    6.0082365794E-04    6.2379095225E-04
    6.4763640119E-04    6.7239359237E-04    6.9809739864E-04    7.2478402733E-04
    7.5249107134E-04    7.8125756214E-04    8.1112402493E-04    8.4213253574E-04
    8.7432678091E-04    9.0775211866E-04    9.4245564314E-04    9.7848625090E-04
    1.0158947099E-03    1.0547337311E-03    1.0950580431E-03    1.1369244688E-03
    1.1803920065E-03    1.2255219123E-03    1.2723777870E-03    1.3210256658E-03
    1.3715341114E-03    1.4239743110E-03    1.4784201764E-03    1.5349484485E-03
    1.5936388057E-03    1.6545739759E-03    1.7178398539E-03    1.7835256220E-03
    1.8517238757E-03    1.9225307551E-03    1.9960460796E-03    2.0723734892E-03
    2.1516205904E-03    2.2338991080E-03    2.3193250425E-03    2.4080188338E-03
    2.5001055304E-03    2.5957149662E-03    2.6949819428E-03    2.7980464197E-03
    2.9050537112E-03    3.0161546908E-03    3.1315060035E-03    3.2512702862E-03
    3.3756163962E-03    3.5047196486E-03    3.6387620627E-03    3.7779326172E-03
    3.9224275159E-03    4.0724504627E-03    4.2282129469E-03    4.3899345403E-03
    4.5578432039E-03    4.7321756075E-03    4.9131774601E-03    5.1011038540E-03
    5.2962196204E-03    5.4987996991E-03    5.7091295218E-03    5.9275054093E-03
    6.1542349844E-03    6.3896375986E-03    6.6340447761E-03    6.8878006729E-03
    7.1512625539E-03    7.4248012863E-03    7.7088018525E-03    8.0036638802E-03
    8.3098021930E-03    8.6276473801E-03    8.9576463874E-03    9.3002631291E-03
    9.6559791215E-03    1.0025294140E-02    1.0408726899E-02    1.0806815755E-02
    1.1220119437E-02    1.1649217799E-02    1.2094712603E-02    1.2557228324E-02
    1.3037412990E-02    1.3535939041E-02    1.4053504227E-02    1.4590832531E-02
    1.5148675121E-02    1.5727811344E-02    1.6329049736E-02    1.6953229084E-02
    1.7601219507E-02    1.8273923578E-02    1.8972277485E-02    1.9697252222E-02
    2.0449854820E-02    2.1231129614E-02    2.2042159553E-02    2.2884067540E-02
    2.3758017822E-02    2.4665217408E-02    2.5606917537E-02    2.6584415181E-02
    2.7599054591E-02    2.8652228877E-02    2.9745381641E-02    3.0880008635E-02
    3.2057659474E-02    3.3279939377E-02    3.4548510948E-02    3.5865096006E-02
    3.7231477436E-02    3.8649501086E-02    4.0121077698E-02    4.1648184861E-02
    4.3232869007E-02    4.4877247426E-02    4.6583510308E-02    4.8353922806E-02
    5.0190827115E-02    5.2096644568E-02    5.4073877735E-02    5.6125112530E-02
    5.8253020313E-02    6.0460359985E-02    6.2749980060E-02    6.5124820725E-02
    6.7587915852E-02    7.0142394981E-02    7.2791485239E-02    7.5538513203E-02
    7.8386906679E-02    8.1340196394E-02    8.4402017580E-02    8.7576111443E-02
    9.0866326481E-02    9.4276619655E-02    9.7811057378E-02    1.0147381630E-01
    1.0526918389E-01    1.0920155872E-01    1.1327545056E-01    1.1749548006E-01
    1.2186637821E-01    1.2639298532E-01    1.3108024973E-01    1.3593322592E-01
    1.4095707233E-01    1.4615704847E-01    1.5153851163E-01    1.5710691287E-01
    1.6286779241E-01    1.6882677433E-01    1.7498956044E-01    1.8136192339E-01
    1.8794969893E-01    1.9475877717E-01    2.0179509293E-01    2.0906461496E-01
    2.1657333409E-01    2.2432725021E-01    2.3233235795E-01    2.4059463107E-01
    2.4912000548E-01    2.5791436078E-01    2.6698350028E-01    2.7633312946E-01
    2.8596883274E-01    2.9589604855E-01    3.0612004267E-01    3.1664587965E-01
    3.2747839243E-01    3.3862215001E-01    3.5008142317E-01    3.6186014817E-01
    3.7396188849E-01    3.8638979453E-01    3.9914656129E-01    4.1223438413E-01
    4.2565491243E-01    4.3940920155E-01    4.5349766277E-01    4.6792001161E-01
    4.8267521448E-01    4.9776143388E-01    5.1317597224E-01    5.2891521468E-01
    5.4497457085E-01    5.6134841616E-01    5.7803003260E-01    5.9501154959E-01
    6.1228388508E-01    6.2983668747E-01    6.4765827853E-01    6.6573559802E-01
    6.8405415036E-01    7.0259795385E-01    7.2134949317E-01    7.4028967544E-01
    7.5939779074E-01    7.7865147751E-01    7.9802669350E-01    8.1749769286E-01
    8.3703701008E-01    8.5661545127E-01    8.7620209340E-01    8.9576429198E-01
    9.1526769779E-01    9.3467628281E-01    9.5395237600E-01    9.7305670883E-01
    9.9194847095E-01    1.0105853757E+00    1.0289237354E+00    1.0469185466E+00
    1.0645235831E+00    1.0816914985E+00    1.0983739352E+00    1.1145216397E+00
    1.1300845830E+00    1.1450120836E+00    1.1592529327E+00    1.1727555186E+00
    1.1854679483E+00    1.1973381652E+00    1.2083140587E+00    1.2183435654E+00
    1.2273747589E+00    1.2353559251E+00    1.2422356236E+00    1.2479627318E+00
    1.2524864715E+00    1.2557564185E+00    1.2577224950E+00    1.2583349465E+00
    1.2575443068E+00    1.2553013548E+00    1.2515570681E+00    1.2462625825E+00
    1.2393691643E+00    1.2308282083E+00    1.2205912730E+00    1.2086101680E+00
    1.1948371112E+00    1.1792249716E+00    1.1617276195E+00    1.1423004019E+00
    1.1209007662E+00    1.0974890496E+00    1.0720294546E+00    1.0444912271E+00
    1.0148500496E+00    9.8308965696E-01    9.4920367880E-01    9.1319770018E-01
    8.7509152660E-01    8.3492162629E-01    7.9274371057E-01    7.4863539924E-01
    7.0269890265E-01    6.5506363629E-01    6.0588866777E-01    5.5536488061E-01
    5.0371672510E-01    4.5120341425E-01    3.9811941503E-01    3.4479408030E-01
    2.9159026947E-01    2.3890181452E-01    1.8714970573E-01    1.3677689795E-01
    8.8241676067E-02    4.2009565654E-02   -1.4561658669E-03   -4.1705303393E-02
   -7.8312581526E-02   -1.1089040850E-01   -1.3910205192E-01   -1.6267483433E-01
   -1.8141280509E-01   -1.9520828556E-01   -2.0405163395E-01   -2.0803855133E-01
   -2.0737425930E-01   -2.0237392840E-01   -1.9345883183E-01   -1.8114784372E-01
   -1.6604409776E-01   -1.4881686757E-01   -1.3017901869E-01   -1.1086070210E-01
   -9.1580295299E-02   -7.3013925705E-02   -5.5765208476E-02   -4.0337064555E-02
   -2.7107623721E-02   -1.6312229275E-02   -8.0334170342E-03   -2.2004198336E-03
    1.4007603451E-03    3.1063796469E-03    3.3460775090E-03    2.6351399298E-03
    1.5064053110E-03    4.7072760627E-04    3.6641933990E-06    1.9362492548E-08
    0.0000000000E+00    0.0000000000E+00    0.0000000000E+00    0.0000000000E+00
 0. 0. 0. 0.
 0. 0. 0. 0.
 0. 0. 0. 0.
 0. 0. 0. 0.
 0. 0. 0. 0.
 0. 0. 0. 0.
 0. 0. 0. 0.
 0. 0. 0. 0.
 0. 0. 0. 0.
 0. 0. 0. 0.
 0. 0. 0. 0.
 0. 0. 0. 0.
 0. 0. 0. 0.
 0. 0. 0. 0.
 0. 0. 0. 0.
 0. 0. 0. 0.
 0. 0. 0. 0.
 0. 0. 0. 0.
 0. 0. 0. 0.
 0. 0. 0. 0.
 0. 0. 0. 0.
 0. 0. 0. 0.
 0. 0. 0. 0.
 0. 0. 0. 0.
 0. 0. 0. 0.
 0. 0. 0. 0.
 0. 0. 0. 0.
 0. 0. 0. 0.
 0. 0. 0. 0.
 0. 0. 0. 0.
 0. 0. 0. 0.
 0. 0. 0. 0.
 0. 0. 0. 0.
   </PP_BETA.5>
   <PP_BETA.6
       type="real"
       size="1164"
       columns="4"
       index="6"
       angular_momentum="2"
       cutoff_radius_index="1032"
       cutoff_radius="    2.6712123880E+00" >
    0.0000000000E+00   -2.9869215505E-16   -3.1022856520E-16   -3.2171326934E-16
   -3.3425211692E-16   -3.4693481304E-16   -3.6020683256E-16   -3.7402469926E-16
   -3.8835231142E-16   -4.0318818103E-16   -4.1852299699E-16   -4.3475174705E-16
   -4.5123517681E-16   -4.6850283484E-16   -4.8632786908E-16   -5.0504667139E-16
   -5.2435811653E-16   -5.4431442993E-16   -5.6496227811E-16   -5.8657186538E-16
   -6.0905725084E-16   -6.3239450374E-16   -6.5650765723E-16   -6.8168838641E-16
   -7.0748007185E-16   -7.3469976522E-16   -7.6271170584E-16   -7.9202412839E-16
   -8.2219670337E-16   -8.5357173380E-16   -8.8615250812E-16   -9.2012662535E-16
   -9.5526399758E-16   -9.9159560665E-16   -1.0297244767E-15   -1.0691015229E-15
   -1.1095419199E-15   -1.1521291450E-15   -1.1962127170E-15   -1.2419046497E-15
   -1.2894170371E-15   -1.3384305275E-15   -1.3898180201E-15   -1.4427328170E-15
   -1.4980962016E-15   -1.5551373800E-15   -1.6143851514E-15   -1.6764892247E-15
   -1.7404200953E-15   -1.8067840586E-15   -1.8761956692E-15   -1.9477890041E-15
   -2.0221204370E-15   -2.0994173132E-15   -2.1796348259E-15   -2.2630280525E-15
   -2.3494685773E-15   -2.4393597159E-15   -2.5323254765E-15   -2.6289255634E-15
   -2.7292984233E-15   -2.8338495217E-15   -2.9420847409E-15   -3.0547928314E-15
   -3.1709852416E-15   -3.2925036724E-15   -3.4185239092E-15   -3.5488167576E-15
   -3.6844538722E-15   -3.8253343794E-15   -3.9712838530E-15   -4.1229753181E-15
   -4.2809634545E-15   -4.4442687099E-15   -4.6143264753E-15   -4.7903549546E-15
   -4.9732818830E-15   -5.1634445510E-15   -5.3608476949E-15   -5.5658165114E-15
   -5.7790693059E-15   -5.9993883884E-15   -6.2286579320E-15   -6.4664457667E-15
   -6.7134376850E-15   -6.9702936293E-15   -7.2368535375E-15   -7.5128869491E-15
   -7.8000393769E-15   -8.0980126554E-15   -8.4078902928E-15   -8.7286130668E-15
   -9.0625093501E-15   -9.4092018621E-15   -9.7679987032E-15   -1.0141625550E-14
   -1.0529335383E-14   -1.0931543689E-14   -1.1348979264E-14   -1.1782843180E-14
   -1.2232882744E-14   -1.2700609333E-14   -1.3185934806E-14   -1.3689568014E-14
   -1.4212725231E-14   -1.4755433768E-14   -1.5320102374E-14   -1.5905083787E-14
   -1.6513021576E-14   -1.7143560804E-14   -1.7799337322E-14   -1.8479211232E-14
   -1.9185596410E-14   -1.9918481344E-14   -2.0679415400E-14   -2.1469631885E-14
   -2.2290045950E-14   -2.3141679128E-14   -2.4026543593E-14   -2.4943843286E-14
   -2.5897220864E-14   -2.6886286296E-14   -2.7913660825E-14   -2.8981086174E-14
   -3.0088274961E-14   -3.1238015991E-14   -3.2430992751E-14   -3.3671202714E-14
   -3.4957640704E-14   -3.6293134251E-14   -3.7680420841E-14   -3.9119897678E-14
   -4.0615392964E-14   -4.2166545366E-14   -4.3778064507E-14   -4.5451225104E-14
   -4.7188219724E-14   -4.8991249731E-14   -5.0862666334E-14   -5.2807234822E-14
   -5.4824529615E-14   -5.6919816513E-14   -5.9094664263E-14   -6.1353058722E-14
   -6.3697520381E-14   -6.6131053441E-14   -6.8658006412E-14   -7.1281241028E-14
   -7.4004828926E-14   -7.6833303509E-14   -7.9769177901E-14   -8.2817109650E-14
   -8.5981928760E-14   -8.9267424906E-14   -9.2678450454E-14   -9.6220485853E-14
   -9.9896533940E-14   -1.0371381549E-13   -1.0767794394E-13   -1.1179163714E-13
   -1.1606348964E-13   -1.2049822841E-13   -1.2510278464E-13   -1.2988437848E-13
   -1.3484636053E-13   -1.3999842368E-13   -1.4534977932E-13   -1.5090257704E-13
   -1.5666974033E-13   -1.6265600444E-13   -1.6887138296E-13   -1.7532427879E-13
   -1.8202466261E-13   -1.8897888553E-13   -1.9620133706E-13   -2.0369788462E-13
   -2.1148206448E-13   -2.1956383869E-13   -2.2795188962E-13   -2.3666479423E-13
   -2.4570650841E-13   -2.5509606276E-13   -2.6484431456E-13   -2.7496406913E-13
   -2.8547042806E-13   -2.9637874888E-13   -3.0770295171E-13   -3.1946244280E-13
   -3.3166966232E-13   -3.4434402181E-13   -3.5750071035E-13   -3.7116175665E-13
   -3.8534489293E-13   -4.0006918475E-13   -4.1535757916E-13   -4.3123028105E-13
   -4.4770790025E-13   -4.6481583151E-13   -4.8257705338E-13   -5.0101765977E-13
   -5.2016186885E-13   -5.4003633972E-13   -5.6067380944E-13   -5.8209835857E-13
   -6.0434175322E-13   -6.2743430026E-13   -6.5141022079E-13   -6.7630130575E-13
   -7.0214314898E-13   -7.2897437374E-13   -7.5683090968E-13   -7.8575142596E-13
   -8.1577621593E-13   -8.4694705556E-13   -8.7931184471E-13   -9.1291220556E-13
   -9.4779624010E-13   -9.8401222493E-13   -1.0216135469E-12   -1.0606532926E-12
   -1.1011811320E-12   -1.1432583818E-12   -1.1869468465E-12   -1.2323032344E-12
   -1.2793928641E-12   -1.3282760090E-12   -1.3790369422E-12   -1.4317317961E-12
   -1.4864414428E-12   -1.5432406795E-12   -1.6022096050E-12   -1.6634339156E-12
   -1.7269977456E-12   -1.7929897291E-12   -1.8615046560E-12   -1.9326369287E-12
   -2.0064860374E-12   -2.0831565998E-12   -2.1627603859E-12   -2.2454004420E-12
   -2.3312022612E-12   -2.4202834269E-12   -2.5127685180E-12   -2.6087866109E-12
   -2.7084700702E-12   -2.8119669722E-12   -2.9194200967E-12   -3.0309765332E-12
   -3.1467961906E-12   -3.2670439164E-12   -3.3918792982E-12   -3.5214915812E-12
   -3.6560542413E-12   -3.7957589197E-12   -3.9408034199E-12   -4.0913909011E-12
   -4.2477297269E-12   -4.4100418067E-12   -4.5785632985E-12   -4.7535178259E-12
   -4.9351566982E-12   -5.1237391361E-12   -5.3195300685E-12   -5.5227978336E-12
   -5.7338386510E-12   -5.9529380427E-12   -6.1804066046E-12   -6.4165771243E-12
   -6.6617624181E-12   -6.9163277944E-12   -7.1806084860E-12   -7.4549985544E-12
   -7.7398671526E-12   -8.0356257032E-12   -8.3426805187E-12   -8.6614719213E-12
   -8.9924457186E-12   -9.3360651040E-12   -9.6928152726E-12   -1.0063199146E-11
   -1.0447733961E-11   -1.0846962351E-11   -1.1261442709E-11   -1.1691768049E-11
   -1.2138530322E-11   -1.2602365319E-11   -1.3083929717E-11   -1.3583900573E-11
   -1.4102961195E-11   -1.4641866138E-11   -1.5201362853E-11   -1.5782238529E-11
   -1.6385309770E-11   -1.7011419382E-11   -1.7661467655E-11   -1.8336342731E-11
   -1.9037013345E-11   -1.9764459183E-11   -2.0519698052E-11   -2.1303799583E-11
   -2.2117855020E-11   -2.2963022012E-11   -2.3840491787E-11   -2.4751483103E-11
   -2.5697282265E-11   -2.6679230124E-11   -2.7698696916E-11   -2.8757125382E-11
   -2.9855985801E-11   -3.0996846374E-11   -3.2181299183E-11   -3.3411016441E-11
   -3.4687717137E-11   -3.6013197815E-11   -3.7389337465E-11   -3.8818058782E-11
   -4.0301384515E-11   -4.1841386967E-11   -4.3440220896E-11   -4.5100164455E-11
   -4.6823533688E-11   -4.8612759736E-11   -5.0470348007E-11   -5.2398923910E-11
   -5.4401191682E-11   -5.6479969708E-11   -5.8638196920E-11   -6.0878874118E-11
   -6.3205178899E-11   -6.5620384455E-11   -6.8127870808E-11   -7.0731168729E-11
   -7.3433957224E-11   -7.6240027798E-11   -7.9153302927E-11   -8.2177908492E-11
   -8.5318109372E-11   -8.8578293420E-11   -9.1963053681E-11   -9.5477142801E-11
   -9.9125521489E-11   -1.0291331613E-10   -1.0684584635E-10   -1.1092863580E-10
   -1.1516745963E-10   -1.1956825032E-10   -1.2413720816E-10   -1.2888073484E-10
   -1.3380553264E-10   -1.3891852627E-10   -1.4422689857E-10   -1.4973811496E-10
   -1.5545991468E-10   -1.6140036343E-10   -1.6756780659E-10   -1.7397092060E-10
   -1.8061872960E-10   -1.8752053747E-10   -1.9468609486E-10   -2.0212546262E-10
   -2.0984910587E-10   -2.1786788447E-10   -2.2619306887E-10   -2.3483639160E-10
   -2.4380998999E-10   -2.5312648079E-10   -2.6279899397E-10   -2.7284108008E-10
   -2.8326691695E-10   -2.9409117077E-10   -3.0532902016E-10   -3.1699630301E-10
   -3.2910941805E-10   -3.4168538479E-10   -3.5474193489E-10   -3.6829737610E-10
   -3.8237081297E-10   -3.9698204017E-10   -4.1215158590E-10   -4.2790079924E-10
   -4.4425182693E-10   -4.6122766100E-10   -4.7885219013E-10   -4.9715016204E-10
   -5.1614736566E-10   -5.3587049311E-10   -5.5634729057E-10   -5.7760655663E-10
   -5.9967821063E-10   -6.2259322972E-10   -6.4638392521E-10   -6.7108370705E-10
   -6.9672729884E-10   -7.2335082726E-10   -7.5099170531E-10   -7.7968878800E-10
   -8.0948246222E-10   -8.4041467192E-10   -8.7252883306E-10   -9.0587016692E-10
   -9.4048555797E-10   -9.7642369099E-10   -1.0137350964E-09   -1.0524722498E-09
   -1.0926896929E-09   -1.1344439094E-09   -1.1777936985E-09   -1.2227999801E-09
   -1.2695260782E-09   -1.3180377047E-09   -1.3684030559E-09   -1.4206930297E-09
   -1.4749811248E-09   -1.5313437186E-09   -1.5898601112E-09   -1.6506125506E-09
   -1.7136865266E-09   -1.7791706844E-09   -1.8471572283E-09   -1.9177416836E-09
   -1.9910234093E-09   -2.0671054260E-09   -2.1460947495E-09   -2.2281024783E-09
   -2.3132439892E-09   -2.4016389730E-09   -2.4934118136E-09   -2.5886915701E-09
   -2.6876122468E-09   -2.7903129730E-09   -2.8969381961E-09   -3.0076379425E-09
   -3.1225678705E-09   -3.2418896260E-09   -3.3657710464E-09   -3.4943863408E-09
   -3.6279164234E-09   -3.7665492153E-09   -3.9104795681E-09   -4.0599099715E-09
   -4.2150506412E-09   -4.3761197327E-09   -4.5433438876E-09   -4.7169581859E-09
   -4.8972069676E-09   -5.0843436313E-09   -5.2786315265E-09   -5.4803438296E-09
   -5.6897643099E-09   -5.9071874952E-09   -6.1329192735E-09   -6.3672771010E-09
   -6.6105906545E-09   -6.8632021832E-09   -7.1254669637E-09   -7.3977539683E-09
   -7.6804461005E-09   -7.9739411446E-09   -8.2786517728E-09   -8.5950067511E-09
   -8.9234508989E-09   -9.2644464637E-09   -9.6184728062E-09   -9.9860281780E-09
   -1.0367629441E-08   -1.0763813456E-08   -1.1175137512E-08   -1.1602180177E-08
   -1.2045542141E-08   -1.2505847143E-08   -1.2983742663E-08   -1.3479900910E-08
   -1.3995019926E-08   -1.4529824336E-08   -1.5085066245E-08   -1.5661527019E-08
   -1.6260017425E-08   -1.6881379404E-08   -1.7526487104E-08   -1.8196247991E-08
   -1.8891604262E-08   -1.9613534236E-08   -2.0363053359E-08   -2.1141216146E-08
   -2.1949117267E-08   -2.2787893311E-08   -2.3658724345E-08   -2.4562835500E-08
   -2.5501498635E-08   -2.6476034342E-08   -2.7487813638E-08   -2.8538260127E-08
   -2.9628851527E-08   -3.0761122189E-08   -3.1936665209E-08   -3.3157134456E-08
   -3.4424247145E-08   -3.5739785925E-08   -3.7105601811E-08   -3.8523616407E-08
   -3.9995824971E-08   -4.1524298880E-08   -4.3111188635E-08   -4.4758727247E-08
   -4.6469232860E-08   -4.8245112051E-08   -5.0088863879E-08   -5.2003082831E-08
   -5.3990462284E-08   -5.6053798776E-08   -5.8195995775E-08   -6.0420067848E-08
   -6.2729144521E-08   -6.5126475434E-08   -6.7615434047E-08   -7.0199523128E-08
   -7.2882379101E-08   -7.5667777589E-08   -7.8559638717E-08   -8.1562032309E-08
   -8.4679183792E-08   -8.7915480235E-08   -9.1275476768E-08   -9.4763902125E-08
   -9.8385666427E-08   -1.0214586710E-07   -1.0604979707E-07   -1.1010295110E-07
   -1.1431103477E-07   -1.1867997093E-07   -1.2321590993E-07   -1.2792523691E-07
   -1.3281458118E-07   -1.3789082585E-07   -1.4316111690E-07   -1.4863287449E-07
   -1.5431380158E-07   -1.6021189650E-07   -1.6633546322E-07   -1.7269312374E-07
   -1.7929382941E-07   -1.8614687487E-07   -1.9326190909E-07   -2.0064895155E-07
   -2.0831840421E-07   -2.1628106749E-07   -2.2454815483E-07   -2.3313130884E-07
   -2.4204261781E-07   -2.5129463255E-07   -2.6090038389E-07   -2.7087340189E-07
   -2.8122773413E-07   -2.9197796587E-07   -3.0313924056E-07   -3.1472728169E-07
   -3.2675841413E-07   -3.3924958821E-07   -3.5221840245E-07   -3.6568313021E-07
   -3.7966274313E-07   -3.9417694029E-07   -4.0924617515E-07   -4.2489168316E-07
   -4.4113551407E-07   -4.5800056203E-07   -4.7551059705E-07   -4.9369030084E-07
   -5.1256529970E-07   -5.3216220130E-07   -5.5250863364E-07   -5.7363328200E-07
   -5.9556593129E-07   -6.1833750794E-07   -6.4198012249E-07   -6.6652711663E-07
   -6.9201310952E-07   -7.1847404762E-07   -7.4594725418E-07   -7.7447148425E-07
   -8.0408697799E-07   -8.3483551790E-07   -8.6676048909E-07   -8.9990694001E-07
   -9.3432164689E-07   -9.7005317870E-07   -1.0071519689E-06   -1.0456703847E-06
   -1.0856628016E-06   -1.1271856822E-06   -1.1702976552E-06   -1.2150595988E-06
   -1.2615347278E-06   -1.3097886830E-06   -1.3598896254E-06   -1.4119083324E-06
   -1.4659182982E-06   -1.5219958399E-06   -1.5802202060E-06   -1.6406736872E-06
   -1.7034417363E-06   -1.7686130892E-06   -1.8362798908E-06   -1.9065378273E-06
   -1.9794862620E-06   -2.0552283786E-06   -2.1338713278E-06   -2.2155263791E-06
   -2.3003090823E-06   -2.3883394310E-06   -2.4797420358E-06   -2.5746463008E-06
   -2.6731866103E-06   -2.7755025216E-06   -2.8817389634E-06   -2.9920464459E-06
   -3.1065812734E-06   -3.2255057738E-06   -3.3489885259E-06   -3.4772046071E-06
   -3.6103358405E-06   -3.7485710591E-06   -3.8921063778E-06   -4.0411454737E-06
   -4.1958998820E-06   -4.3565892986E-06   -4.5234418998E-06   -4.6966946701E-06
   -4.8765937434E-06   -5.0633947614E-06   -5.2573632413E-06   -5.4587749616E-06
   -5.6679163599E-06   -5.8850849496E-06   -6.1105897509E-06   -6.3447517385E-06
   -6.5879043093E-06   -6.8403937679E-06   -7.1025798270E-06   -7.3748361331E-06
   -7.6575508147E-06   -7.9511270409E-06   -8.2559836174E-06   -8.5725555937E-06
   -8.9012949012E-06   -9.2426710152E-06   -9.5971716425E-06   -9.9653034366E-06
   -1.0347592741E-05   -1.0744586364E-05   -1.1156852384E-05   -1.1584980984E-05
   -1.2029585323E-05   -1.2491302440E-05   -1.2970794201E-05   -1.3468748269E-05
   -1.3985879131E-05   -1.4522929153E-05   -1.5080669686E-05   -1.5659902210E-05
   -1.6261459525E-05   -1.6886207003E-05   -1.7535043868E-05   -1.8208904548E-05
   -1.8908760068E-05   -1.9635619515E-05   -2.0390531540E-05   -2.1174585951E-05
   -2.1988915339E-05   -2.2834696797E-05   -2.3713153695E-05   -2.4625557528E-05
   -2.5573229851E-05   -2.6557544278E-05   -2.7579928577E-05   -2.8641866847E-05
   -2.9744901774E-05   -3.0890637001E-05   -3.2080739579E-05   -3.3316942532E-05
   -3.4601047517E-05   -3.5934927602E-05   -3.7320530161E-05   -3.8759879888E-05
   -4.0255081934E-05   -4.1808325181E-05   -4.3421885655E-05   -4.5098130069E-05
   -4.6839519536E-05   -4.8648613423E-05   -5.0528073378E-05   -5.2480667518E-05
   -5.4509274810E-05   -5.6616889619E-05   -5.8806626470E-05   -6.1081724999E-05
   -6.3445555126E-05   -6.5901622441E-05   -6.8453573833E-05   -7.1105203352E-05
   -7.3860458331E-05   -7.6723445768E-05   -7.9698438987E-05   -8.2789884596E-05
   -8.6002409733E-05   -8.9340829649E-05   -9.2810155599E-05   -9.6415603102E-05
   -1.0016260055E-04   -1.0405679822E-04   -1.0810407762E-04   -1.1231056135E-04
   -1.1668262332E-04   -1.2122689944E-04   -1.2595029881E-04   -1.3086001542E-04
   -1.3596354028E-04   -1.4126867426E-04   -1.4678354134E-04   -1.5251660256E-04
   -1.5847667058E-04   -1.6467292490E-04   -1.7111492776E-04   -1.7781264074E-04
   -1.8477644222E-04   -1.9201714551E-04   -1.9954601790E-04   -2.0737480056E-04
   -2.1551572932E-04   -2.2398155653E-04   -2.3278557377E-04   -2.4194163574E-04
   -2.5146418518E-04   -2.6136827907E-04   -2.7166961587E-04   -2.8238456424E-04
   -2.9353019296E-04   -3.0512430233E-04   -3.1718545702E-04   -3.2973302051E-04
   -3.4278719114E-04   -3.5636903986E-04   -3.7050054977E-04   -3.8520465762E-04
   -4.0050529721E-04   -4.1642744488E-04   -4.3299716722E-04   -4.5024167108E-04
   -4.6818935590E-04   -4.8686986869E-04   -5.0631416156E-04   -5.2655455213E-04
   -5.4762478677E-04   -5.6956010697E-04   -5.9239731899E-04   -6.1617486677E-04
   -6.4093290853E-04   -6.6671339702E-04   -6.9356016379E-04   -7.2151900745E-04
   -7.5063778642E-04   -7.8096651613E-04   -8.1255747102E-04   -8.4546529157E-04
   -8.7974709659E-04   -9.1546260108E-04   -9.5267423983E-04   -9.9144729720E-04
   -1.0318500432E-03   -1.0739538766E-03   -1.1178334745E-03   -1.1635669499E-03
   -1.2112360168E-03   -1.2609261637E-03   -1.3127268349E-03   -1.3667316219E-03
   -1.4230384635E-03   -1.4817498556E-03   -1.5429730724E-03   -1.6068203971E-03
   -1.6734093653E-03   -1.7428630193E-03   -1.8153101757E-03   -1.8908857053E-03
   -1.9697308280E-03   -2.0519934204E-03   -2.1378283404E-03   -2.2273977655E-03
   -2.3208715494E-03   -2.4184275951E-03   -2.5202522455E-03   -2.6265406941E-03
   -2.7374974144E-03   -2.8533366102E-03   -2.9742826879E-03   -3.1005707503E-03
   -3.2324471146E-03   -3.3701698546E-03   -3.5140093682E-03   -3.6642489715E-03
   -3.8211855205E-03   -3.9851300617E-03   -4.1564085120E-03   -4.3353623707E-03
   -4.5223494620E-03   -4.7177447128E-03   -4.9219409640E-03   -5.1353498176E-03
   -5.3584025218E-03   -5.5915508938E-03   -5.8352682820E-03   -6.0900505703E-03
   -6.3564172231E-03   -6.6349123745E-03   -6.9261059619E-03   -7.2305949055E-03
   -7.5490043339E-03   -7.8819888587E-03   -8.2302338969E-03   -8.5944570440E-03
   -8.9754094969E-03   -9.3738775290E-03   -9.7906840163E-03   -1.0226690016E-02
   -1.0682796398E-02   -1.1159945530E-02   -1.1659123009E-02   -1.2181359457E-02
   -1.2727732352E-02   -1.3299367923E-02   -1.3897443086E-02   -1.4523187428E-02
   -1.5177885240E-02   -1.5862877583E-02   -1.6579564403E-02   -1.7329406674E-02
   -1.8113928573E-02   -1.8934719678E-02   -1.9793437193E-02   -2.0691808171E-02
   -2.1631631759E-02   -2.2614781419E-02   -2.3643207153E-02   -2.4718937693E-02
   -2.5844082648E-02   -2.7020834617E-02   -2.8251471216E-02   -2.9538357034E-02
   -3.0883945482E-02   -3.2290780523E-02   -3.3761498255E-02   -3.5298828321E-02
   -3.6905595135E-02   -3.8584718873E-02   -4.0339216212E-02   -4.2172200779E-02
   -4.4086883272E-02   -4.6086571219E-02   -4.8174668320E-02   -5.0354673342E-02
   -5.2630178503E-02   -5.5004867303E-02   -5.7482511736E-02   -6.0066968838E-02
   -6.2762176489E-02   -6.5572148412E-02   -6.8500968299E-02   -7.1552782983E-02
   -7.4731794582E-02   -7.8042251526E-02   -8.1488438385E-02   -8.5074664410E-02
   -8.8805250684E-02   -9.2684515797E-02   -9.6716759933E-02   -1.0090624728E-01
   -1.0525718667E-01   -1.0977371024E-01   -1.1445985025E-01   -1.1931951364E-01
   -1.2435645443E-01   -1.2957424387E-01   -1.3497623805E-01   -1.4056554307E-01
   -1.4634497765E-01   -1.5231703292E-01   -1.5848382960E-01   -1.6484707225E-01
   -1.7140800071E-01   -1.7816733863E-01   -1.8512523908E-01   -1.9228122725E-01
   -1.9963414035E-01   -2.0718206462E-01   -2.1492226970E-01   -2.2285114040E-01
   -2.3096410611E-01   -2.3925556800E-01   -2.4771882430E-01   -2.5634599403E-01
   -2.6512793947E-01   -2.7405418791E-01   -2.8311285306E-01   -2.9229055685E-01
   -3.0157235212E-01   -3.1094164706E-01   -3.2038013217E-01   -3.2986771053E-01
   -3.3938243259E-01   -3.4890043637E-01   -3.5839589429E-01   -3.6784096784E-01
   -3.7720577159E-01   -3.8645834766E-01   -3.9556465238E-01   -4.0448855658E-01
   -4.1319186108E-01   -4.2163432908E-01   -4.2977373705E-01   -4.3756594571E-01
   -4.4496499282E-01   -4.5192320926E-01   -4.5839135985E-01   -4.6431881025E-01
   -4.6965372113E-01   -4.7434327044E-01   -4.7833390456E-01   -4.8157161856E-01
   -4.8400226555E-01   -4.8557189465E-01   -4.8622711646E-01   -4.8591549455E-01
   -4.8458596060E-01   -4.8218925036E-01   -4.7867835648E-01   -4.7400899399E-01
   -4.6814007255E-01   -4.6103416952E-01   -4.5265799625E-01   -4.4298284956E-01
   -4.3198503910E-01   -4.1964628067E-01   -4.0595404456E-01   -3.9090184751E-01
   -3.7448947608E-01   -3.5672312923E-01   -3.3761546744E-01   -3.1718555631E-01
   -2.9545869290E-01   -2.7246610422E-01   -2.4824450865E-01   -2.2283553340E-01
   -1.9628498337E-01   -1.6864196038E-01   -1.3995783570E-01   -1.1028508325E-01
   -7.9675986654E-02   -4.8181239231E-02   -1.5848462832E-02    1.7279321062E-02
    5.1165226771E-02    8.5779996975E-02    1.2110339470E-01    1.5712542891E-01
    1.9384734040E-01    2.3128226773E-01    2.6945550789E-01    3.0840428264E-01
    3.4817692055E-01    3.8883136662E-01    4.3043293712E-01    4.7305124701E-01
    5.1675625256E-01    5.6161337171E-01    6.0767767144E-01    6.5498714392E-01
    7.0355513222E-01    7.5336201205E-01    8.0434628685E-01    8.5639531031E-01
    9.0933591013E-01    9.6292524895E-01    1.0168423201E+00    1.0706805340E+00
    1.1239419029E+00    1.1760333717E+00    1.2262658693E+00    1.2738566568E+00
    1.3179355324E+00    1.3575553987E+00    1.3917076117E+00    1.4193424069E+00
    1.4393945287E+00    1.4508139777E+00    1.4526015373E+00    1.4438484495E+00
    1.4237792837E+00    1.3917966996E+00    1.3475264527E+00    1.2908606533E+00
    1.2219969865E+00    1.1414713615E+00    1.0501813089E+00    9.4939742149E-01
    8.4076025821E-01    7.2626044583E-01    6.0820022163E-01    4.8913539523E-01
    3.7179765770E-01    2.5899832359E-01    1.5351592194E-01    5.7971501372E-02
   -2.5302994934E-02   -9.4396495565E-02   -1.4794266665E-01   -1.8522689710E-01
   -2.0626694634E-01   -2.1185792446E-01   -2.0357313169E-01   -1.8371396764E-01
   -1.5520467118E-01   -1.2143112459E-01   -8.6041185201E-02   -5.2842186513E-02
   -2.5442377607E-02   -6.9923941112E-03   -4.8099958412E-05   -2.6197385021E-07
   -0.0000000000E+00   -0.0000000000E+00   -0.0000000000E+00   -0.0000000000E+00
 0. 0. 0. 0.
 0. 0. 0. 0.
 0. 0. 0. 0.
 0. 0. 0. 0.
 0. 0. 0. 0.
 0. 0. 0. 0.
 0. 0. 0. 0.
 0. 0. 0. 0.
 0. 0. 0. 0.
 0. 0. 0. 0.
 0. 0. 0. 0.
 0. 0. 0. 0.
 0. 0. 0. 0.
 0. 0. 0. 0.
 0. 0. 0. 0.
 0. 0. 0. 0.
 0. 0. 0. 0.
 0. 0. 0. 0.
 0. 0. 0. 0.
 0. 0. 0. 0.
 0. 0. 0. 0.
 0. 0. 0. 0.
 0. 0. 0. 0.
 0. 0. 0. 0.
 0. 0. 0. 0.
 0. 0. 0. 0.
 0. 0. 0. 0.
 0. 0. 0. 0.
 0. 0. 0. 0.
 0. 0. 0. 0.
 0. 0. 0. 0.
 0. 0. 0. 0.
 0. 0. 0. 0.
   </PP_BETA.6>
   <PP_BETA.7
       type="real"
       size="1164"
       columns="4"
       index="7"
       angular_momentum="3"
       cutoff_radius_index="1032"
       cutoff_radius="    2.6712123880E+00" >
    0.0000000000E+00    2.0477506985E-20    2.1527310398E-20    2.2630974324E-20
    2.3791473661E-20    2.5011074690E-20    2.6293677870E-20    2.7641576070E-20
    2.9058817506E-20    3.0548788213E-20    3.2114974961E-20    3.3761644037E-20
    3.5492495182E-20    3.7312713716E-20    3.9225142204E-20    4.1236653121E-20
    4.3350697595E-20    4.5573368559E-20    4.7909901772E-20    5.0366299957E-20
    5.2948604038E-20    5.5663457283E-20    5.8517531000E-20    6.1517224989E-20
    6.4672049630E-20    6.7987694993E-20    7.1473195454E-20    7.5137505464E-20
    7.8989980770E-20    8.3039890760E-20    8.7297711403E-20    9.1773395895E-20
    9.6478566002E-20    1.0142513794E-19    1.0662561935E-19    1.1209245182E-19
    1.1783964200E-19    1.2388127939E-19    1.3023220644E-19    1.3690995431E-19
    1.4392926419E-19    1.5130892827E-19    1.5906659105E-19    1.6722189026E-19
    1.7579573081E-19    1.8480894597E-19    1.9428424881E-19    2.0424559083E-19
    2.1471714123E-19    2.2572629106E-19    2.3729992522E-19    2.4946580319E-19
    2.6225694434E-19    2.7570287557E-19    2.8983804314E-19    3.0469848944E-19
    3.2032057345E-19    3.3674377460E-19    3.5400885375E-19    3.7215970715E-19
    3.9124036752E-19    4.1129961918E-19    4.3238814961E-19    4.5455697879E-19
    4.7786227249E-19    5.0236258553E-19    5.2811951106E-19    5.5519633801E-19
    5.8366237178E-19    6.1358742325E-19    6.4504600910E-19    6.7811907971E-19
    7.1288628686E-19    7.4943791369E-19    7.8786058037E-19    8.2825647603E-19
    8.7072225115E-19    9.1536440999E-19    9.6229746255E-19    1.0116350144E-18
    1.0635028412E-18    1.1180290498E-18    1.1753513681E-18    1.2356140509E-18
    1.2989637062E-18    1.3655639713E-18    1.4355782120E-18    1.5091817768E-18
    1.5865585034E-18    1.6679049587E-18    1.7534183369E-18    1.8433184711E-18
    1.9378286481E-18    2.0371810563E-18    2.1416295427E-18    2.2514342807E-18
    2.3668667175E-18    2.4882203879E-18    2.6157935403E-18    2.7499078190E-18
    2.8908987445E-18    3.0391194442E-18    3.1949391134E-18    3.3587468941E-18
    3.5309515970E-18    3.7119887446E-18    3.9023034249E-18    4.1023816828E-18
    4.3127138681E-18    4.5338309592E-18    4.7662838204E-18    5.0106592813E-18
    5.2675587985E-18    5.5376357494E-18    5.8215549545E-18    6.1200308732E-18
    6.4338140608E-18    6.7636789913E-18    7.1104614287E-18    7.4750220321E-18
    7.8582782806E-18    8.2611787935E-18    8.6847380389E-18    9.1300165213E-18
    9.5981181592E-18    1.0090225389E-17    1.0607562649E-17    1.1151428526E-17
    1.1723171397E-17    1.2324231943E-17    1.2956108668E-17    1.3620382768E-17
    1.4318716348E-17    1.5052849883E-17    1.5824626466E-17    1.6635968290E-17
    1.7488918993E-17    1.8385590605E-17    1.9328240095E-17    2.0319223488E-17
    2.1361008818E-17    2.2456212071E-17    2.3607569229E-17    2.4817953594E-17
    2.6090401136E-17    2.7428082249E-17    2.8834350116E-17    3.0312718784E-17
    3.1866883673E-17    3.3500737122E-17    3.5218348791E-17    3.7024038033E-17
    3.8922297012E-17    4.0917888141E-17    4.3015796979E-17    4.5221267213E-17
    4.7539811416E-17    4.9977224326E-17    5.2539613975E-17    5.5233385507E-17
    5.8065243073E-17    6.1042320111E-17    6.4172021481E-17    6.7462194138E-17
    7.0921058197E-17    7.4557256855E-17    7.8379889098E-17    8.2398495008E-17
    8.6623162638E-17    9.1064438033E-17    9.5733419103E-17    1.0064176692E-16
    1.0580177500E-16    1.1122636192E-16    1.1692904801E-16    1.2292414171E-16
    1.2922659641E-16    1.3585218790E-16    1.4281746278E-16    1.5013987529E-16
    1.5783771806E-16    1.6593023144E-16    1.7443764254E-16    1.8338125253E-16
    1.9278341750E-16    2.0266763175E-16    2.1305863422E-16    2.2398236976E-16
    2.3546618209E-16    2.4753880366E-16    2.6023039800E-16    2.7357269796E-16
    2.8759906611E-16    3.0234456822E-16    3.1784614076E-16    3.3414244332E-16
    3.5127429660E-16    3.6928450088E-16    3.8821813817E-16    4.0812249628E-16
    4.2904739379E-16    4.5104509107E-16    4.7417070163E-16    4.9848192983E-16
    5.2403966763E-16    5.5090774581E-16    5.7915336203E-16    6.0884720423E-16
    6.4006348848E-16    6.7288022998E-16    7.0737953826E-16    7.4364764755E-16
    7.8177527739E-16    8.2185776813E-16    8.6399536477E-16    9.0829333780E-16
    9.5486249022E-16    1.0038193485E-15    1.0552863027E-15    1.1093919744E-15
    1.1662716927E-15    1.2260677548E-15    1.2889296001E-15    1.3550143969E-15
    1.4244874321E-15    1.4975224937E-15    1.5743021641E-15    1.6550183105E-15
    1.7398729406E-15    1.8290780851E-15    1.9228569148E-15    2.0214439647E-15
    2.1250856150E-15    2.2340410991E-15    2.3485828488E-15    2.4689971895E-15
    2.5955854479E-15    2.7286639635E-15    2.8685654607E-15    3.0156399697E-15
    3.1702551490E-15    3.3327975500E-15    3.5036737945E-15    3.6833108987E-15
    3.8721583992E-15    4.0706881796E-15    4.2793967051E-15    4.4988061764E-15
    4.7294648140E-15    4.9719496530E-15    5.2268670376E-15    5.4948541126E-15
    5.7765813765E-15    6.0727530056E-15    6.3841096469E-15    6.7114300129E-15
    7.0555323595E-15    7.4172772755E-15    7.7975691450E-15    8.1973591112E-15
    8.6176467620E-15    9.0594828488E-15    9.5239725370E-15    1.0012276936E-14
    1.0525617373E-14    1.1065277219E-14    1.1632606099E-14    1.2229022696E-14
    1.2856018060E-14    1.3515160225E-14    1.4208097131E-14    1.4936561883E-14
    1.5702375711E-14    1.6507453918E-14    1.7353808927E-14    1.8243557792E-14
    1.9178924882E-14    2.0162249508E-14    2.1195989723E-14    2.2282731536E-14
    2.3425191402E-14    2.4626226579E-14    2.5888840293E-14    2.7216189439E-14
    2.8611593271E-14    3.0078540903E-14    3.1620700548E-14    3.3241928467E-14
    3.4946278565E-14    3.6738012441E-14    3.8621610798E-14    4.0601782772E-14
    4.2683480492E-14    4.4871909116E-14    4.7172540701E-14    4.9591128893E-14
    5.2133720168E-14    5.4806673117E-14    5.7616670788E-14    6.0570740393E-14
    6.3676268664E-14    6.6941020569E-14    7.0373159831E-14    7.3981268689E-14
    7.7774368805E-14    8.1761945742E-14    8.5953969748E-14    9.0360924149E-14
    9.4993827067E-14    9.9864264308E-14    1.0498441388E-13    1.1036707979E-13
    1.1602572003E-13    1.2197448535E-13    1.2822825024E-13    1.3480265179E-13
    1.4171413185E-13    1.4897996944E-13    1.5661833465E-13    1.6464832719E-13
    1.7309002682E-13    1.8196454104E-13    1.9129406103E-13    2.0110191595E-13
    2.1141263022E-13    2.2225198566E-13    2.3364708727E-13    2.4562642809E-13
    2.5821996193E-13    2.7145918049E-13    2.8537718802E-13    3.0000878744E-13
    3.1539056366E-13    3.3156098138E-13    3.4856047325E-13    3.6643154709E-13
    3.8521889106E-13    4.0496948166E-13    4.2573270727E-13    4.4756048442E-13
    4.7050739717E-13    4.9463082196E-13    5.1999108028E-13    5.4665158785E-13
    5.7467900722E-13    6.0414342328E-13    6.3511851115E-13    6.6768172517E-13
    7.0191449050E-13    7.3790240766E-13    7.7573546194E-13    8.1550825831E-13
    8.5732024927E-13    9.0127598549E-13    9.4748537844E-13    9.9606397876E-13
    1.0471332548E-12    1.1008209081E-12    1.1572611831E-12    1.2165952137E-12
    1.2789713615E-12    1.3445456025E-12    1.4134819042E-12    1.4859526444E-12
    1.5621390361E-12    1.6422315862E-12    1.7264305646E-12    1.8149465163E-12
    1.9080007759E-12    2.0058260252E-12    2.1086668773E-12    2.2167804907E-12
    2.3304372048E-12    2.4499212181E-12    2.5755313017E-12    2.7075815482E-12
    2.8464021522E-12    2.9923402315E-12    3.1457607128E-12    3.3070472233E-12
    3.4766030638E-12    3.6548522070E-12    3.8422403760E-12    4.0392361300E-12
    4.2463320664E-12    4.4640460259E-12    4.6929224059E-12    4.9335335192E-12
    5.1864810132E-12    5.4523973901E-12    5.7319475788E-12    6.0258305908E-12
    6.3347812940E-12    6.6595722185E-12    7.0010155114E-12    7.3599649528E-12
    7.7373181028E-12    8.1340185317E-12    8.5510582103E-12    8.9894799334E-12
    9.4503799911E-12    9.9349108642E-12    1.0444284132E-11    1.0979773482E-11
    1.1542717917E-11    1.2134525092E-11    1.2756674812E-11    1.3410722779E-11
    1.4098304446E-11    1.4821139112E-11    1.5581034245E-11    1.6379889961E-11
    1.7219703807E-11    1.8102575744E-11    1.9030713397E-11    2.0006437601E-11
    2.1032188144E-11    2.2110529933E-11    2.3244159369E-11    2.4435911092E-11
    2.5688765088E-11    2.7005854139E-11    2.8390471619E-11    2.9846079780E-11
    3.1376318380E-11    3.2985013788E-11    3.4676188542E-11    3.6454071450E-11
    3.8323108105E-11    4.0287972033E-11    4.2353576404E-11    4.4525086245E-11
    4.6807931433E-11    4.9207820206E-11    5.1730753529E-11    5.4383039970E-11
    5.7171311583E-11    6.0102540409E-11    6.3184056018E-11    6.6423563740E-11
    6.9829163923E-11    7.3409372289E-11    7.7173141120E-11    8.1129881720E-11
    8.5289487893E-11    8.9662360723E-11    9.4259434549E-11    9.9092204306E-11
    1.0417275432E-10    1.0951378845E-10    1.1512866194E-10    1.2103141471E-10
    1.2723680651E-10    1.3376035389E-10    1.4061836887E-10    1.4782799988E-10
    1.5540727444E-10    1.6337514448E-10    1.7175153352E-10    1.8055738659E-10
    1.8981472253E-10    1.9954668920E-10    2.0977762118E-10    2.2053310071E-10
    2.3184002164E-10    2.4372665670E-10    2.5622272811E-10    2.6935948202E-10
    2.8316976653E-10    2.9768811389E-10    3.1295082688E-10    3.2899606941E-10
    3.4586396216E-10    3.6359668277E-10    3.8223857127E-10    4.0183624111E-10
    4.2243869563E-10    4.4409745033E-10    4.6686666230E-10    4.9080326493E-10
    5.1596711068E-10    5.4242112073E-10    5.7023144213E-10    5.9946761327E-10
    6.3020273786E-10    6.6251366749E-10    6.9648119402E-10    7.3219025139E-10
    7.6973012814E-10    8.0919469062E-10    8.5068261761E-10    8.9429764708E-10
    9.4014883575E-10    9.8835083141E-10    1.0390241600E-09    1.0922955266E-09
    1.1482981324E-09    1.2071720078E-09    1.2690643623E-09    1.3341299529E-09
    1.4025314708E-09    1.4744399482E-09    1.5500351859E-09    1.6295062030E-09
    1.7130517096E-09    1.8008806030E-09    1.8932124909E-09    1.9902782398E-09
    2.0923205522E-09    2.1995945742E-09    2.3123685324E-09    2.4309244053E-09
    2.5555586278E-09    2.6865828327E-09    2.8243246296E-09    2.9691284241E-09
    3.1213562790E-09    3.2813888195E-09    3.4496261841E-09    3.6264890263E-09
    3.8124195653E-09    4.0078826920E-09    4.2133671312E-09    4.4293866637E-09
    4.6564814101E-09    4.8952191820E-09    5.1461969013E-09    5.4100420924E-09
    5.6874144511E-09    5.9790074937E-09    6.2855502917E-09    6.6078092929E-09
    6.9465902393E-09    7.3027401802E-09    7.6771495901E-09    8.0707545958E-09
    8.4845393148E-09    8.9195383174E-09    9.3768392123E-09    9.8575853650E-09
    1.0362978757E-08    1.0894282991E-08    1.1452826447E-08    1.2040005608E-08
    1.2657288545E-08    1.3306218592E-08    1.3988418202E-08    1.4705593002E-08
    1.5459536058E-08    1.6252132356E-08    1.7085363517E-08    1.7961312744E-08
    1.8882170038E-08    1.9850237665E-08    2.0867935915E-08    2.1937809150E-08
    2.3062532164E-08    2.4244916871E-08    2.5487919329E-08    2.6794647135E-08
    2.8168367187E-08    2.9612513851E-08    3.1130697547E-08    3.2726713772E-08
    3.4404552586E-08    3.6168408582E-08    3.8022691378E-08    3.9972036628E-08
    4.2021317614E-08    4.4175657424E-08    4.6440441757E-08    4.8821332378E-08
    5.1324281275E-08    5.3955545529E-08    5.6721702952E-08    5.9629668522E-08
    6.2686711673E-08    6.5900474451E-08    6.9278990614E-08    7.2830705712E-08
    7.6564498187E-08    8.0489701555E-08    8.4616127738E-08    8.8954091574E-08
    9.3514436591E-08    9.8308562104E-08    1.0334845169E-07    1.0864670315E-07
    1.1421655995E-07    1.2007194435E-07    1.2622749213E-07    1.3269858923E-07
    1.3950141013E-07    1.4665295826E-07    1.5417110854E-07    1.6207465193E-07
    1.7038334246E-07    1.7911794654E-07    1.8830029483E-07    1.9795333676E-07
    2.0810119790E-07    2.1876924014E-07    2.2998412512E-07    2.4177388076E-07
    2.5416797128E-07    2.6719737077E-07    2.8089464058E-07    2.9529401058E-07
    3.1043146470E-07    3.2634483071E-07    3.4307387474E-07    3.6066040056E-07
    3.7914835391E-07    3.9858393227E-07    4.1901570021E-07    4.4049471056E-07
    4.6307463192E-07    4.8681188264E-07    5.1176577160E-07    5.3799864629E-07
    5.6557604843E-07    5.9456687753E-07    6.2504356287E-07    6.5708224424E-07
    6.9076296195E-07    7.2616985659E-07    7.6339137893E-07    8.0252051066E-07
    8.4365499636E-07    8.8689758738E-07    9.3235629811E-07    9.8014467550E-07
    1.0303820823E-06    1.0831939946E-06    1.1387123152E-06    1.1970757020E-06
    1.2584299141E-06    1.3229281756E-06    1.3907315567E-06    1.4620093764E-06
    1.5369396238E-06    1.6157094021E-06    1.6985153950E-06    1.7855643571E-06
    1.8770736288E-06    1.9732716781E-06    2.0743986699E-06    2.1807070647E-06
    2.2924622469E-06    2.4099431867E-06    2.5334431343E-06    2.6632703508E-06
    2.7997488756E-06    2.9432193337E-06    3.0940397830E-06    3.2525866069E-06
    3.4192554503E-06    3.5944622049E-06    3.7786440439E-06    3.9722605105E-06
    4.1757946607E-06    4.3897542654E-06    4.6146730735E-06    4.8511121395E-06
    5.0996612186E-06    5.3609402334E-06    5.6356008151E-06    5.9243279231E-06
    6.2278415479E-06    6.5468984998E-06    6.8822942899E-06    7.2348651061E-06
    7.6054898900E-06    7.9950925199E-06    8.4046441049E-06    8.8351653956E-06
    9.2877293177E-06    9.7634636349E-06    1.0263553747E-05    1.0789245630E-05
    1.1341848928E-05    1.1922740198E-05    1.2533366325E-05    1.3175248109E-05
    1.3849984029E-05    1.4559254209E-05    1.5304824576E-05    1.6088551234E-05
    1.6912385058E-05    1.7778376525E-05    1.8688680787E-05    1.9645563000E-05
    2.0651403928E-05    2.1708705831E-05    2.2820098645E-05    2.3988346485E-05
    2.5216354471E-05    2.6507175900E-05    2.7864019790E-05    2.9290258792E-05
    3.0789437513E-05    3.2365281261E-05    3.4021705223E-05    3.5762824119E-05
    3.7592962336E-05    3.9516664576E-05    4.1538707047E-05    4.3664109210E-05
    4.5898146130E-05    4.8246361444E-05    5.0714580979E-05    5.3308927073E-05
    5.6035833596E-05    5.8902061747E-05    6.1914716637E-05    6.5081264708E-05
    6.8409552032E-05    7.1907823524E-05    7.5584743132E-05    7.9449415026E-05
    8.3511405867E-05    8.7780768183E-05    9.2268064924E-05    9.6984395243E-05
    1.0194142157E-04    1.0715139806E-04    1.1262720042E-04    1.1838235728E-04
    1.2443108309E-04    1.3078831270E-04    1.3746973764E-04    1.4449184420E-04
    1.5187195344E-04    1.5962826315E-04    1.6777989199E-04    1.7634692568E-04
    1.8535046560E-04    1.9481267980E-04    2.0475685648E-04    2.1520746012E-04
    2.2619019049E-04    2.3773204448E-04    2.4986138100E-04    2.6260798913E-04
    2.7600315959E-04    2.9007975977E-04    3.0487231241E-04    3.2041707817E-04
    3.3675214231E-04    3.5391750551E-04    3.7195517923E-04    3.9090928572E-04
    4.1082616294E-04    4.3175447452E-04    4.5374532517E-04    4.7685238171E-04
    5.0113199990E-04    5.2664335756E-04    5.5344859400E-04    5.8161295635E-04
    6.1120495282E-04    6.4229651352E-04    6.7496315882E-04    7.0928417607E-04
    7.4534280454E-04    7.8322642944E-04    8.2302678511E-04    8.6484016794E-04
    9.0876765942E-04    9.5491535989E-04    1.0033946333E-03    1.0543223634E-03
    1.1078212226E-03    1.1640199528E-03    1.2230536600E-03    1.2850641221E-03
    1.3502001121E-03    1.4186177354E-03    1.4904807832E-03    1.5659611026E-03
    1.6452389833E-03    1.7285035623E-03    1.8159532480E-03    1.9077961624E-03
    2.0042506044E-03    2.1055455344E-03    2.2119210803E-03    2.3236290666E-03
    2.4409335677E-03    2.5641114857E-03    2.6934531541E-03    2.8292629686E-03
    2.9718600458E-03    3.1215789108E-03    3.2787702154E-03    3.4438014876E-03
    3.6170579136E-03    3.7989431541E-03    3.9898801951E-03    4.1903122361E-03
    4.4007036153E-03    4.6215407748E-03    4.8533332659E-03    5.0966147966E-03
    5.3519443229E-03    5.6199071850E-03    5.9011162900E-03    6.1962133430E-03
    6.5058701278E-03    6.8307898387E-03    7.1717084654E-03    7.5293962322E-03
    7.9046590940E-03    8.2983402889E-03    8.7113219511E-03    9.1445267843E-03
    9.5989197978E-03    1.0075510107E-02    1.0575352798E-02    1.1099550864E-02
    1.1649257201E-02    1.2225676687E-02    1.2830068316E-02    1.3463747423E-02
    1.4128087966E-02    1.4824524894E-02    1.5554556583E-02    1.6319747356E-02
    1.7121730073E-02    1.7962208803E-02    1.8842961572E-02    1.9765843189E-02
    2.0732788146E-02    2.1745813603E-02    2.2807022442E-02    2.3918606394E-02
    2.5082849251E-02    2.6302130135E-02    2.7578926844E-02    2.8915819263E-02
    3.0315492838E-02    3.1780742106E-02    3.3314474281E-02    3.4919712888E-02
    3.6599601440E-02    3.8357407155E-02    4.0196524688E-02    4.2120479902E-02
    4.4132933631E-02    4.6237685454E-02    4.8438677454E-02    5.0739997947E-02
    5.3145885177E-02    5.5660730957E-02    5.8289084228E-02    6.1035654538E-02
    6.3905315408E-02    6.6903107553E-02    7.0034241962E-02    7.3304102781E-02
    7.6718249993E-02    8.0282421849E-02    8.4002537027E-02    8.7884696479E-02
    9.1935184937E-02    9.6160472013E-02    1.0056721289E-01    1.0516224850E-01
    1.0995260523E-01    1.1494549395E-01    1.2014830855E-01    1.2556862358E-01
    1.3121419135E-01    1.3709293798E-01    1.4321295874E-01    1.4958251229E-01
    1.5621001388E-01    1.6310402747E-01    1.7027325652E-01    1.7772653358E-01
    1.8547280830E-01    1.9352113409E-01    2.0188065298E-01    2.1056057887E-01
    2.1957017885E-01    2.2891875252E-01    2.3861560927E-01    2.4867004328E-01
    2.5909130614E-01    2.6988857697E-01    2.8107092991E-01    2.9264729878E-01
    3.0462643883E-01    3.1701688536E-01    3.2982690910E-01    3.4306446824E-01
    3.5673715685E-01    3.7085214962E-01    3.8541614276E-01    4.0043529090E-01
    4.1591513983E-01    4.3186055500E-01    4.4827564561E-01    4.6516368417E-01
    4.8252702147E-01    5.0036699685E-01    5.1868384367E-01    5.3747659000E-01
    5.5674295446E-01    5.7647923723E-01    5.9668020631E-01    6.1733897902E-01
    6.3844689899E-01    6.5999340874E-01    6.8196591807E-01    7.0434966867E-01
    7.2712759512E-01    7.5028018296E-01    7.7378532423E-01    7.9761817106E-01
    8.2175098822E-01    8.4615300538E-01    8.7079027001E-01    8.9562550221E-01
    9.2061795251E-01    9.4572326433E-01    9.7089334247E-01    9.9607622955E-01
    1.0212159923E+00    1.0462526200E+00    1.0711219371E+00    1.0957555335E+00
    1.1200807136E+00    1.1440204697E+00    1.1674934801E+00    1.1904141379E+00
    1.2126926128E+00    1.2342349498E+00    1.2549432097E+00    1.2747156541E+00
    1.2934469815E+00    1.3110286155E+00    1.3273490532E+00    1.3422942747E+00
    1.3557482197E+00    1.3675933346E+00    1.3777111932E+00    1.3859831947E+00
    1.3922913400E+00    1.3965190897E+00    1.3985523029E+00    1.3982802568E+00
    1.3955967465E+00    1.3904012597E+00    1.3826002228E+00    1.3721083121E+00
    1.3588498199E+00    1.3427600658E+00    1.3237868392E+00    1.3018918578E+00
    1.2770522243E+00    1.2492618586E+00    1.2185328853E+00    1.1848969480E+00
    1.1484064255E+00    1.1091355176E+00    1.0671811719E+00    1.0226638180E+00
    9.7572787851E-01    9.2654202289E-01    8.7529913631E-01    8.2221597316E-01
    7.6753247136E-01    7.1151070644E-01    6.5443347046E-01    5.9660246681E-01
    5.3833612017E-01    4.7996700858E-01    4.2183893441E-01    3.6430366018E-01
    3.0771734525E-01    2.5243672862E-01    1.9881511240E-01    1.4719820812E-01
    9.7919914211E-02    5.1298097339E-02    7.6304521101E-03   -3.2809487690E-02
   -6.9776116967E-02   -1.0305524422E-01   -1.3246724140E-01   -1.5786981916E-01
   -1.7916040229E-01   -1.9627809501E-01   -2.0920524066E-01   -2.1796859261E-01
   -2.2264012217E-01   -2.2333749287E-01   -2.2022422635E-01   -2.1350957361E-01
   -2.0344808326E-01   -1.9033882799E-01   -1.7452421092E-01   -1.5638822737E-01
   -1.3635400925E-01   -1.1488043146E-01   -9.2457521726E-02   -6.9600391323E-02
   -4.6841404909E-02   -2.4720339936E-02   -3.7723573447E-03    1.5486278830E-02
    3.2574632923E-02    4.7065373494E-02    5.8604343862E-02    6.6930612809E-02
    7.1895925673E-02    7.3482238428E-02    7.1815840814E-02    6.7176495648E-02
    6.0000077032E-02    5.0873407670E-02    4.0518713088E-02    2.9759930386E-02
    1.9488196847E-02    1.0622835585E-02    4.0188997434E-03    4.4525066958E-04
    2.2361827371E-06   -3.4038067726E-10    0.0000000000E+00    0.0000000000E+00
 0. 0. 0. 0.
 0. 0. 0. 0.
 0. 0. 0. 0.
 0. 0. 0. 0.
 0. 0. 0. 0.
 0. 0. 0. 0.
 0. 0. 0. 0.
 0. 0. 0. 0.
 0. 0. 0. 0.
 0. 0. 0. 0.
 0. 0. 0. 0.
 0. 0. 0. 0.
 0. 0. 0. 0.
 0. 0. 0. 0.
 0. 0. 0. 0.
 0. 0. 0. 0.
 0. 0. 0. 0.
 0. 0. 0. 0.
 0. 0. 0. 0.
 0. 0. 0. 0.
 0. 0. 0. 0.
 0. 0. 0. 0.
 0. 0. 0. 0.
 0. 0. 0. 0.
 0. 0. 0. 0.
 0. 0. 0. 0.
 0. 0. 0. 0.
 0. 0. 0. 0.
 0. 0. 0. 0.
 0. 0. 0. 0.
 0. 0. 0. 0.
 0. 0. 0. 0.
 0. 0. 0. 0.
   </PP_BETA.7>
   <PP_BETA.8
       type="real"
       size="1164"
       columns="4"
       index="8"
       angular_momentum="3"
       cutoff_radius_index="1032"
       cutoff_radius="    2.6712123880E+00" >
    0.0000000000E+00   -2.2737360169E-20   -2.3903458481E-20   -2.5128448466E-20
   -2.6417353886E-20   -2.7770881102E-20   -2.9195470579E-20   -3.0691966825E-20
   -3.2265730642E-20   -3.3920144572E-20   -3.5659205226E-20   -3.7487406769E-20
   -3.9409302111E-20   -4.1431580585E-20   -4.3553691840E-20   -4.5787781195E-20
   -4.8135295847E-20   -5.0602851790E-20   -5.3196943573E-20   -5.5923678780E-20
   -5.8793310334E-20   -6.1807139173E-20   -6.4976401273E-20   -6.8305976517E-20
   -7.1809028232E-20   -7.5490993825E-20   -7.9360813249E-20   -8.3430134055E-20
   -8.7707694526E-20   -9.2204267064E-20   -9.6931788983E-20   -1.0190195594E-19
   -1.0712520998E-19   -1.1261826235E-19   -1.1839290225E-19   -1.2446330879E-19
   -1.3084569510E-19   -1.3755334950E-19   -1.4460389420E-19   -1.5202032507E-19
   -1.5981293664E-19   -1.6800834369E-19   -1.7662250967E-19   -1.8567721643E-19
   -1.9519805123E-19   -2.0520563996E-19   -2.1572519200E-19   -2.2678512851E-19
   -2.3841275382E-19   -2.5063868132E-19   -2.6348905325E-19   -2.7699673925E-19
   -2.9119977598E-19   -3.0613015905E-19   -3.2182499386E-19   -3.3832575827E-19
   -3.5567163391E-19   -3.7390597924E-19   -3.9307823342E-19   -4.1323234035E-19
   -4.3441749567E-19   -4.5669121172E-19   -4.8010844767E-19   -5.0472447353E-19
   -5.3059912962E-19   -5.5780480169E-19   -5.8640148533E-19   -6.1647038419E-19
   -6.4807575914E-19   -6.8130446090E-19   -7.1623209068E-19   -7.5296109894E-19
   -7.9156219729E-19   -8.3215021056E-19   -8.7480647853E-19   -9.1966514305E-19
   -9.6681721277E-19   -1.0163886202E-18   -1.0685007160E-18   -1.1232835192E-18
   -1.1808758235E-18   -1.2414157601E-18   -1.3050662270E-18   -1.3719803563E-18
   -1.4423222999E-18   -1.5162699874E-18   -1.5940144359E-18   -1.6757352647E-18
   -1.7616516298E-18   -1.8519789097E-18   -1.9469319056E-18   -2.0467512245E-18
   -2.1516919815E-18   -2.2620100332E-18   -2.3779825829E-18   -2.4999081375E-18
   -2.6280765232E-18   -2.7628259161E-18   -2.9044810147E-18   -3.0533946335E-18
   -3.2099510997E-18   -3.3745281202E-18   -3.5475477125E-18   -3.7294259682E-18
   -3.9206385306E-18   -4.1216504102E-18   -4.3329729891E-18   -4.5551321867E-18
   -4.7886727637E-18   -5.0341966308E-18   -5.2922964018E-18   -5.5636427550E-18
   -5.8488944936E-18   -6.1487894400E-18   -6.4640351824E-18   -6.7954488947E-18
   -7.1438606880E-18   -7.5101295891E-18   -7.8951865553E-18   -8.2999749427E-18
   -8.7255461567E-18   -9.1728967969E-18   -9.6432066341E-18   -1.0137628114E-17
   -1.0657392795E-17   -1.1203810229E-17   -1.1778245682E-17   -1.2382129945E-17
   -1.3016978742E-17   -1.3684353674E-17   -1.4385988040E-17   -1.5123560171E-17
   -1.5898964382E-17   -1.6714124626E-17   -1.7571080885E-17   -1.8471953882E-17
   -1.9419048776E-17   -2.0414657039E-17   -2.1461357926E-17   -2.2561704273E-17
   -2.3718475093E-17   -2.4934525985E-17   -2.6212957169E-17   -2.7556919996E-17
   -2.8969822271E-17   -3.0455125158E-17   -3.2016593679E-17   -3.3658123862E-17
   -3.5383796777E-17   -3.7197977017E-17   -3.9105130926E-17   -4.1110117952E-17
   -4.3217847764E-17   -4.5433675907E-17   -4.7763116623E-17   -5.0212027370E-17
   -5.2786444407E-17   -5.5492823022E-17   -5.8338020891E-17   -6.1329072847E-17
   -6.4473473206E-17   -6.7779097680E-17   -7.1254235460E-17   -7.4907481538E-17
   -7.8748096446E-17   -8.2785561786E-17   -8.7030088942E-17   -9.1492184344E-17
   -9.6183103569E-17   -1.0111454355E-16   -1.0629879918E-16   -1.1174887847E-16
   -1.1747830391E-16   -1.2350158227E-16   -1.2983360730E-16   -1.3649035845E-16
   -1.4348835336E-16   -1.5084522611E-16   -1.5857912881E-16   -1.6670973684E-16
   -1.7525705614E-16   -1.8424273111E-16   -1.9368902564E-16   -2.0361968237E-16
   -2.1405952426E-16   -2.2503457658E-16   -2.3657233806E-16   -2.4870161374E-16
   -2.6145286398E-16   -2.7485784461E-16   -2.8895015288E-16   -3.0376490564E-16
   -3.1933919149E-16   -3.3571212432E-16   -3.5292446220E-16   -3.7101926955E-16
   -3.9004184006E-16   -4.1003970549E-16   -4.3106291839E-16   -4.5316388316E-16
   -4.7639814431E-16   -5.0082361503E-16   -5.2650137485E-16   -5.5349576159E-16
   -5.8187402935E-16   -6.1170731956E-16   -6.4307025225E-16   -6.7604106980E-16
   -7.1070256309E-16   -7.4714094750E-16   -7.8544770824E-16   -8.2571849666E-16
   -8.6805404058E-16   -9.1256009579E-16   -9.5934815789E-16   -1.0085350032E-15
   -1.0602434873E-15   -1.1146034549E-15   -1.1717504578E-15   -1.2318273857E-15
   -1.2949844196E-15   -1.3613796210E-15   -1.4311791602E-15   -1.5045572975E-15
   -1.5816975294E-15   -1.6627928178E-15   -1.7480462809E-15   -1.8376704324E-15
   -1.9318898187E-15   -2.0309398424E-15   -2.1350682370E-15   -2.2445357120E-15
   -2.3596153780E-15   -2.4805958147E-15   -2.6077785298E-15   -2.7414822199E-15
   -2.8820408808E-15   -3.0298064232E-15   -3.1851477299E-15   -3.3484536755E-15
   -3.5201326637E-15   -3.7006136248E-15   -3.8903483671E-15   -4.0898104135E-15
   -4.2994996971E-15   -4.5199395233E-15   -4.7516820555E-15   -4.9953059985E-15
   -5.2514206563E-15   -5.5206668023E-15   -5.8037172131E-15   -6.1012803668E-15
   -6.4140996717E-15   -6.7429576795E-15   -7.0886762490E-15   -7.4521201917E-15
   -7.8341989007E-15   -8.2358670193E-15   -8.6581287036E-15   -9.1020405113E-15
   -9.5687123821E-15   -1.0059310070E-14   -1.0575062725E-14   -1.1117257346E-14
   -1.1687251233E-14   -1.2286469251E-14   -1.2916409900E-14   -1.3578649081E-14
   -1.4274840637E-14   -1.5006727261E-14   -1.5776138621E-14   -1.6584998414E-14
   -1.7435329412E-14   -1.8329258768E-14   -1.9269019308E-14   -2.0256963121E-14
   -2.1295559326E-14   -2.2387406672E-14   -2.3535232640E-14   -2.4741910052E-14
   -2.6010454588E-14   -2.7344039176E-14   -2.8745998021E-14   -3.0219836994E-14
   -3.1769241108E-14   -3.3398084425E-14   -3.5110441015E-14   -3.6910591222E-14
   -3.8803037607E-14   -4.0792511649E-14   -4.2883988376E-14   -4.5082697467E-14
   -4.7394136160E-14   -4.9824085407E-14   -5.2378620287E-14   -5.5064130303E-14
   -5.7887327629E-14   -6.0855273583E-14   -6.3975390489E-14   -6.7255476684E-14
   -7.0703739333E-14   -7.4328797859E-14   -7.8139716083E-14   -8.2146025583E-14
   -8.6357739882E-14   -9.0785397055E-14   -9.5440061796E-14   -1.0033337912E-13
   -1.0547757973E-13   -1.1088553078E-13   -1.1657075318E-13   -1.2254746158E-13
   -1.2883060303E-13   -1.3543589016E-13   -1.4237983321E-13   -1.4967980238E-13
   -1.5735404957E-13   -1.6542176096E-13   -1.7390311578E-13   -1.8281931670E-13
   -1.9219266154E-13   -2.0204658812E-13   -2.1240573737E-13   -2.2329600930E-13
   -2.3474463859E-13   -2.4678025068E-13   -2.5943294039E-13   -2.7273435065E-13
   -2.8671773353E-13   -3.0141806382E-13   -3.1687209494E-13   -3.3311847171E-13
   -3.5019781268E-13   -3.6815283599E-13   -3.8702843178E-13   -4.0687179675E-13
   -4.2773255313E-13   -4.4966286391E-13   -4.7271756326E-13   -4.9695430294E-13
   -5.2243368492E-13   -5.4921942619E-13   -5.7737849696E-13   -6.0698131807E-13
   -6.3810190316E-13   -6.7081807477E-13   -7.0521163852E-13   -7.4136859976E-13
   -7.7937936659E-13   -8.1933898324E-13   -8.6134737585E-13   -9.0550957697E-13
   -9.5193602953E-13   -1.0007428104E-12   -1.0520519642E-12   -1.1059918002E-12
   -1.1626971858E-12   -1.2223099133E-12   -1.2849790496E-12   -1.3508612991E-12
   -1.4201214017E-12   -1.4929325432E-12   -1.5694767879E-12   -1.6499455376E-12
   -1.7345400001E-12   -1.8234717174E-12   -1.9169630541E-12   -2.0152477851E-12
   -2.1185716847E-12   -2.2271931044E-12   -2.3413836507E-12   -2.4614288782E-12
   -2.5876289410E-12   -2.7202994127E-12   -2.8597720391E-12   -3.0063955732E-12
   -3.1605366468E-12   -3.3225806916E-12   -3.4929328987E-12   -3.6720192442E-12
   -3.8602875243E-12   -4.0582085253E-12   -4.2662771258E-12   -4.4850136210E-12
   -4.7149649667E-12   -4.9567061426E-12   -5.2108416315E-12   -5.4780069213E-12
   -5.7588700289E-12   -6.0541332799E-12   -6.3645349858E-12   -6.6908512780E-12
   -7.0338981550E-12   -7.3945333714E-12   -7.7736587335E-12   -8.1722222218E-12
   -8.5912204523E-12   -9.0317011446E-12   -9.4947657227E-12   -9.9815720734E-12
   -1.0493337469E-11   -1.1031341565E-11   -1.1596929668E-11   -1.2191516007E-11
   -1.2816587411E-11   -1.3473706806E-11   -1.4164517346E-11   -1.4890746407E-11
   -1.5654209931E-11   -1.6456816951E-11   -1.7300574410E-11   -1.8187592116E-11
   -1.9120088044E-11   -2.0100393943E-11   -2.1130961006E-11   -2.2214366237E-11
   -2.3353318646E-11   -2.4550666219E-11   -2.5809402894E-11   -2.7132676161E-11
   -2.8523794830E-11   -2.9986237453E-11   -3.1523660786E-11   -3.3139909234E-11
   -3.4839024152E-11   -3.6625254241E-11   -3.8503065888E-11   -4.0477154585E-11
   -4.2552456556E-11   -4.4734161021E-11   -4.7027723380E-11   -4.9438878625E-11
   -5.1973655868E-11   -5.4638393214E-11   -5.7439753911E-11   -6.0384742731E-11
   -6.3480723489E-11   -6.6735437725E-11   -7.0157023800E-11   -7.3754037337E-11
   -7.7535472556E-11   -8.1510784958E-11   -8.5689914716E-11   -9.0083311678E-11
   -9.4701961457E-11   -9.9557412913E-11   -1.0466180695E-10   -1.1002790699E-10
   -1.1566913090E-10   -1.2159958443E-10   -1.2783409642E-10   -1.3438825626E-10
   -1.4127845234E-10   -1.4852191345E-10   -1.5613675162E-10   -1.6414200759E-10
   -1.7255769809E-10   -1.8140486645E-10   -1.9070563461E-10   -2.0048325884E-10
   -2.1076218758E-10   -2.2156812306E-10   -2.3292808497E-10   -2.4487047859E-10
   -2.5742516508E-10   -2.7062353715E-10   -2.8449859637E-10   -2.9908503698E-10
   -3.1441933136E-10   -3.3053982232E-10   -3.4748681811E-10   -3.6530269387E-10
   -3.8403199702E-10   -4.0372155920E-10   -4.2442061266E-10   -4.4618091437E-10
   -4.6905687442E-10   -4.9310569227E-10   -5.1838750083E-10   -5.4496551491E-10
   -5.7290619103E-10   -6.0227939259E-10   -6.3315856505E-10   -6.6562091897E-10
   -6.9974762386E-10   -7.3562401037E-10   -7.7333978434E-10   -8.1298925021E-10
   -8.5467154771E-10   -8.9849089937E-10   -9.4455687080E-10   -9.9298464490E-10
   -1.0438953103E-09   -1.0974161633E-09   -1.1536810265E-09   -1.2128305835E-09
   -1.2750127301E-09   -1.3403829453E-09   -1.4091046784E-09   -1.4813497592E-09
   -1.5572988261E-09   -1.6371417791E-09   -1.7210782539E-09   -1.8093181207E-09
   -1.9020820094E-09   -1.9996018618E-09   -2.1021215098E-09   -2.2098972864E-09
   -2.3231986664E-09   -2.4423089395E-09   -2.5675259189E-09   -2.6991626859E-09
   -2.8375483729E-09   -2.9830289855E-09   -3.1359682676E-09   -3.2967486121E-09
   -3.4657720149E-09   -3.6434610815E-09   -3.8302600823E-09   -4.0266360646E-09
   -4.2330800184E-09   -4.4501081058E-09   -4.6782629495E-09   -4.9181149915E-09
   -5.1702639164E-09   -5.4353401526E-09   -5.7140064475E-09   -6.0069595249E-09
   -6.3149318256E-09   -6.6386933393E-09   -6.9790535295E-09   -7.3368633550E-09
   -7.7130174001E-09   -8.1084561087E-09   -8.5241681351E-09   -8.9611928177E-09
   -9.4206227737E-09   -9.9036066317E-09   -1.0411351904E-08   -1.0945128003E-08
   -1.1506269415E-08   -1.2096179036E-08   -1.2716331679E-08   -1.3368277757E-08
   -1.4053647163E-08   -1.4774153340E-08   -1.5531597565E-08   -1.6327873451E-08
   -1.7164971681E-08   -1.8044984980E-08   -1.8970113351E-08   -1.9942669567E-08
   -2.0965084954E-08   -2.2039915469E-08   -2.3169848088E-08   -2.4357707515E-08
   -2.5606463248E-08   -2.6919236998E-08   -2.8299310488E-08   -2.9750133660E-08
   -3.1275333285E-08   -3.2878722039E-08   -3.4564308024E-08   -3.6336304779E-08
   -3.8199141818E-08   -4.0157475694E-08   -4.2216201631E-08   -4.4380465763E-08
   -4.6655677982E-08   -4.9047525467E-08   -5.1561986881E-08   -5.4205347319E-08
   -5.6984214003E-08   -5.9905532798E-08   -6.2976605550E-08   -6.6205108343E-08
   -6.9599110670E-08   -7.3167095584E-08   -7.6917980903E-08   -8.0861141477E-08
   -8.5006432605E-08   -8.9364214656E-08   -9.3945378951E-08   -9.8761374957E-08
   -1.0382423889E-07   -1.0914662378E-07   -1.1474183106E-07   -1.2062384379E-07
   -1.2680736159E-07   -1.3330783734E-07   -1.4014151576E-07   -1.4732547399E-07
   -1.5487766421E-07   -1.6281695851E-07   -1.7116319595E-07   -1.7993723214E-07
   -1.8916099130E-07   -1.9885752098E-07   -2.0905104959E-07   -2.1976704693E-07
   -2.3103228772E-07   -2.4287491845E-07   -2.5532452764E-07   -2.6841221969E-07
   -2.8217069250E-07   -2.9663431907E-07   -3.1183923331E-07   -3.2782342018E-07
   -3.4462681048E-07   -3.6229138049E-07   -3.8086125670E-07   -4.0038282590E-07
   -4.2090485091E-07   -4.4247859221E-07   -4.6515793581E-07   -4.8899952769E-07
   -5.1406291502E-07   -5.4041069474E-07   -5.6810866961E-07   -5.9722601233E-07
   -6.2783543801E-07   -6.6001338547E-07   -6.9384020783E-07   -7.2940037278E-07
   -7.6678267319E-07   -8.0608044837E-07   -8.4739181676E-07   -8.9081992043E-07
   -9.3647318210E-07   -9.8446557528E-07   -1.0349169083E-06   -1.0879531226E-06
   -1.1437066068E-06   -1.2023165260E-06   -1.2639291687E-06   -1.3286983112E-06
   -1.3967855999E-06   -1.4683609546E-06   -1.5436029907E-06   -1.6226994645E-06
   -1.7058477399E-06   -1.7932552802E-06   -1.8851401636E-06   -1.9817316265E-06
   -2.0832706333E-06   -2.1900104757E-06   -2.3022174032E-06   -2.4201712847E-06
   -2.5441663042E-06   -2.6745116928E-06   -2.8115324967E-06   -2.9555703852E-06
   -3.1069844999E-06   -3.2661523466E-06   -3.4334707333E-06   -3.6093567559E-06
   -3.7942488332E-06   -3.9886077963E-06   -4.1929180318E-06   -4.4076886844E-06
   -4.6334549201E-06   -4.8707792538E-06   -5.1202529449E-06   -5.3824974630E-06
   -5.6581660293E-06   -5.9479452353E-06   -6.2525567449E-06   -6.5727590820E-06
   -6.9093495096E-06   -7.2631660043E-06   -7.6350893310E-06   -8.0260452233E-06
   -8.4370066738E-06   -8.8689963419E-06   -9.3230890827E-06   -9.8004146052E-06
   -1.0302160264E-05   -1.0829573996E-05   -1.1383967398E-05   -1.1966718972E-05
   -1.2579277527E-05   -1.3223165751E-05   -1.3899983972E-05   -1.4611414105E-05
   -1.5359223797E-05   -1.6145270784E-05   -1.6971507469E-05   -1.7839985732E-05
   -1.8752861977E-05   -1.9712402444E-05   -2.0720988779E-05   -2.1781123894E-05
   -2.2895438118E-05   -2.4066695658E-05   -2.5297801385E-05   -2.6591807970E-05
   -2.7951923369E-05   -2.9381518687E-05   -3.0884136449E-05   -3.2463499267E-05
   -3.4123518965E-05   -3.5868306142E-05   -3.7702180232E-05   -3.9629680060E-05
   -4.1655574929E-05   -4.3784876265E-05   -4.6022849843E-05   -4.8375028629E-05
   -5.0847226262E-05   -5.3445551210E-05   -5.6176421639E-05   -5.9046581016E-05
   -6.2063114500E-05   -6.5233466144E-05   -6.8565456962E-05   -7.2067303887E-05
   -7.5747639681E-05   -7.9615533831E-05   -8.3680514488E-05   -8.7952591487E-05
   -9.2442280518E-05   -9.7160628497E-05   -1.0211924018E-04   -1.0733030612E-04
   -1.1280663196E-04   -1.1856166925E-04   -1.2460954768E-04   -1.3096510903E-04
   -1.3764394264E-04   -1.4466242280E-04   -1.5203774780E-04   -1.5978798104E-04
   -1.6793209407E-04   -1.7649001178E-04   -1.8548265978E-04   -1.9493201409E-04
   -2.0486115328E-04   -2.1529431315E-04   -2.2625694400E-04   -2.3777577082E-04
   -2.4987885622E-04   -2.6259566662E-04   -2.7595714142E-04   -2.8999576568E-04
   -3.0474564625E-04   -3.2024259150E-04   -3.3652419500E-04   -3.5362992311E-04
   -3.7160120682E-04   -3.9048153796E-04   -4.1031656998E-04   -4.3115422358E-04
   -4.5304479729E-04   -4.7604108335E-04   -5.0019848902E-04   -5.2557516364E-04
   -5.5223213167E-04   -5.8023343197E-04   -6.0964626359E-04   -6.4054113842E-04
   -6.7299204089E-04   -7.0707659510E-04   -7.4287623977E-04   -7.8047641115E-04
   -8.1996673445E-04   -8.6144122401E-04   -9.0499849266E-04   -9.5074197061E-04
   -9.9878013428E-04   -1.0492267455E-03   -1.1022011016E-03   -1.1578282966E-03
   -1.2162394939E-03   -1.2775722118E-03   -1.3419706212E-03   -1.4095858562E-03
   -1.4805763390E-03   -1.5551081186E-03   -1.6333552246E-03   -1.7155000358E-03
   -1.8017336655E-03   -1.8922563622E-03   -1.9872779289E-03   -2.0870181584E-03
   -2.1917072888E-03   -2.3015864765E-03   -2.4169082898E-03   -2.5379372224E-03
   -2.6649502287E-03   -2.7982372797E-03   -2.9381019422E-03   -3.0848619814E-03
   -3.2388499864E-03   -3.4004140214E-03   -3.5699183015E-03   -3.7477438952E-03
   -3.9342894530E-03   -4.1299719643E-03   -4.3352275419E-03   -4.5505122360E-03
   -4.7763028774E-03   -5.0130979513E-03   -5.2614185021E-03   -5.5218090690E-03
   -5.7948386554E-03   -6.0811017291E-03   -6.3812192572E-03   -6.6958397740E-03
   -7.0256404828E-03   -7.3713283926E-03   -7.7336414893E-03   -8.1133499412E-03
   -8.5112573402E-03   -8.9282019773E-03   -9.3650581528E-03   -9.8227375213E-03
   -1.0302190470E-02   -1.0804407532E-02   -1.1330420830E-02   -1.1881305552E-02
   -1.2458181463E-02   -1.3062214435E-02   -1.3694618015E-02   -1.4356655017E-02
   -1.5049639129E-02   -1.5774936553E-02   -1.6533967656E-02   -1.7328208635E-02
   -1.8159193204E-02   -1.9028514271E-02   -1.9937825638E-02   -2.0888843683E-02
   -2.1883349041E-02   -2.2923188275E-02   -2.4010275524E-02   -2.5146594120E-02
   -2.6334198178E-02   -2.7575214134E-02   -2.8871842237E-02   -3.0226357975E-02
   -3.1641113425E-02   -3.3118538517E-02   -3.4661142202E-02   -3.6271513502E-02
   -3.7952322437E-02   -3.9706320801E-02   -4.1536342782E-02   -4.3445305397E-02
   -4.5436208728E-02   -4.7512135941E-02   -4.9676253050E-02   -5.1931808422E-02
   -5.4282131983E-02   -5.6730634102E-02   -5.9280804125E-02   -6.1936208529E-02
   -6.4700488657E-02   -6.7577358011E-02   -7.0570599050E-02   -7.3684059477E-02
   -7.6921647953E-02   -8.0287329208E-02   -8.3785118507E-02   -8.7419075408E-02
   -9.1193296788E-02   -9.5111909065E-02   -9.9179059575E-02   -1.0339890704E-01
   -1.0777561110E-01   -1.1231332077E-01   -1.1701616189E-01   -1.2188822337E-01
   -1.2693354227E-01   -1.3215608755E-01   -1.3755974256E-01   -1.4314828603E-01
   -1.4892537161E-01   -1.5489450588E-01   -1.6105902466E-01   -1.6742206766E-01
   -1.7398655135E-01   -1.8075513993E-01   -1.8773021439E-01   -1.9491383954E-01
   -2.0230772899E-01   -2.0991320788E-01   -2.1773117350E-01   -2.2576205344E-01
   -2.3400576152E-01   -2.4246165118E-01   -2.5112846633E-01   -2.6000428978E-01
   -2.6908648889E-01   -2.7837165863E-01   -2.8785556193E-01   -2.9753306730E-01
   -3.0739808363E-01   -3.1744349228E-01   -3.2766107640E-01   -3.3804144738E-01
   -3.4857396871E-01   -3.5924667708E-01   -3.7004620084E-01   -3.8095767596E-01
   -3.9196465958E-01   -4.0304904129E-01   -4.1419095225E-01   -4.2536867252E-01
   -4.3655853666E-01   -4.4773483813E-01   -4.5886973255E-01   -4.6993314060E-01
   -4.8089265066E-01   -4.9171342209E-01   -5.0235808951E-01   -5.1278666908E-01
   -5.2295646744E-01   -5.3282199427E-01   -5.4233487983E-01   -5.5144379834E-01
   -5.6009439895E-01   -5.6822924572E-01   -5.7578776846E-01   -5.8270622642E-01
   -5.8891768710E-01   -5.9435202265E-01   -5.9893592667E-01   -6.0259295448E-01
   -6.0524359016E-01   -6.0680534419E-01   -6.0719288557E-01   -6.0631821293E-01
   -6.0409086918E-01   -6.0041820496E-01   -5.9520569598E-01   -5.8835732020E-01
   -5.7977600048E-01   -5.6936411906E-01   -5.5702410996E-01   -5.4265913555E-01
   -5.2617385375E-01   -5.0747528148E-01   -4.8647376036E-01   -4.6308402940E-01
   -4.3722640907E-01   -4.0882809992E-01   -3.7782459752E-01   -3.4416122374E-01
   -3.0779477270E-01   -2.6869526664E-01   -2.2684781472E-01   -1.8225456408E-01
   -1.3493672883E-01   -8.4936678423E-02   -3.2320062399E-02    2.2822056862E-02
    8.0371096762E-02    1.4017891172E-01    2.0206585994E-01    2.6581903050E-01
    3.3119068710E-01    3.9789699024E-01    4.6561706426E-01    5.3399247942E-01
    6.0262722219E-01    6.7108822761E-01    7.3890654756E-01    8.0557922534E-01
    8.7057194195E-01    9.3332249092E-01    9.9324512734E-01    1.0497358214E+00
    1.1021784288E+00    1.1499517682E+00    1.1924375703E+00    1.2290292344E+00
    1.2591412986E+00    1.2822194943E+00    1.2977512238E+00    1.3052762662E+00
    1.3043974837E+00    1.2947912744E+00    1.2762174941E+00    1.2485285548E+00
    1.2116774017E+00    1.1657240782E+00    1.1108406040E+00    1.0473139283E+00
    9.7554676392E-01    8.9605617460E-01    8.0946985981E-01    7.1652017020E-01
    6.1803597972E-01    5.1493263679E-01    4.0820030911E-01    2.9889111737E-01
    1.8810551516E-01    7.6978405843E-02   -3.3334514232E-02   -1.4166974113E-01
   -2.4686792354E-01   -3.4778458377E-01   -4.4329957106E-01   -5.3232544201E-01
   -6.1381521023E-01   -6.8677015797E-01   -7.5024863060E-01   -8.0337690885E-01
   -8.4536333789E-01   -8.7551685161E-01   -8.9327083118E-01   -8.9821285231E-01
   -8.9012029305E-01   -8.6900099510E-01   -8.3513722322E-01   -7.8913009994E-01
   -7.3194058607E-01   -6.6492203689E-01   -5.8983851827E-01   -5.0886255637E-01
   -4.2454595838E-01   -3.3975793880E-01   -2.5760038174E-01   -1.8136486013E-01
   -1.1450154168E-01   -6.0483434909E-02   -2.2272308518E-02   -2.4104258057E-03
   -1.2039524379E-05    1.2740106781E-09    0.0000000000E+00    0.0000000000E+00
 0. 0. 0. 0.
 0. 0. 0. 0.
 0. 0. 0. 0.
 0. 0. 0. 0.
 0. 0. 0. 0.
 0. 0. 0. 0.
 0. 0. 0. 0.
 0. 0. 0. 0.
 0. 0. 0. 0.
 0. 0. 0. 0.
 0. 0. 0. 0.
 0. 0. 0. 0.
 0. 0. 0. 0.
 0. 0. 0. 0.
 0. 0. 0. 0.
 0. 0. 0. 0.
 0. 0. 0. 0.
 0. 0. 0. 0.
 0. 0. 0. 0.
 0. 0. 0. 0.
 0. 0. 0. 0.
 0. 0. 0. 0.
 0. 0. 0. 0.
 0. 0. 0. 0.
 0. 0. 0. 0.
 0. 0. 0. 0.
 0. 0. 0. 0.
 0. 0. 0. 0.
 0. 0. 0. 0.
 0. 0. 0. 0.
 0. 0. 0. 0.
 0. 0. 0. 0.
 0. 0. 0. 0.
   </PP_BETA.8>
   <PP_DIJ type="real"  size="  64" columns="4">
    3.4577318136E+00    0.0000000000E+00    0.0000000000E+00    0.0000000000E+00
    0.0000000000E+00    0.0000000000E+00    0.0000000000E+00    0.0000000000E+00
    0.0000000000E+00   -2.5958555130E+00    0.0000000000E+00    0.0000000000E+00
    0.0000000000E+00    0.0000000000E+00    0.0000000000E+00    0.0000000000E+00
    0.0000000000E+00    0.0000000000E+00   -3.0993085225E+00    0.0000000000E+00
    0.0000000000E+00    0.0000000000E+00    0.0000000000E+00    0.0000000000E+00
    0.0000000000E+00    0.0000000000E+00    0.0000000000E+00   -1.2379650537E-01
    0.0000000000E+00    0.0000000000E+00    0.0000000000E+00    0.0000000000E+00
    0.0000000000E+00    0.0000000000E+00    0.0000000000E+00    0.0000000000E+00
   -2.7469912089E+00    0.0000000000E+00    0.0000000000E+00    0.0000000000E+00
    0.0000000000E+00    0.0000000000E+00    0.0000000000E+00    0.0000000000E+00
    0.0000000000E+00   -6.2397314472E-01    0.0000000000E+00    0.0000000000E+00
    0.0000000000E+00    0.0000000000E+00    0.0000000000E+00    0.0000000000E+00
    0.0000000000E+00    0.0000000000E+00   -4.0590290638E+00    0.0000000000E+00
    0.0000000000E+00    0.0000000000E+00    0.0000000000E+00    0.0000000000E+00
    0.0000000000E+00    0.0000000000E+00    0.0000000000E+00    8.1231951443E-01
   </PP_DIJ>
 </PP_NONLOCAL>
 <PP_PSWFC>
   <PP_CHI.1
       type="real"
       size="1164"
       columns="4"
       index="1"
       occupation=" 2.000"
       pseudo_energy="   -0.5814326490E+01"
       label="5S"
       l="0" >
    0.0000000000E+00    1.3142152953E-05    1.3307460887E-05    1.3474848139E-05
    1.3644340864E-05    1.3815965544E-05    1.3989748997E-05    1.4165718377E-05
    1.4343901179E-05    1.4524325245E-05    1.4707018766E-05    1.4892010289E-05
    1.5079328719E-05    1.5269003324E-05    1.5461063743E-05    1.5655539984E-05
    1.5852462435E-05    1.6051861865E-05    1.6253769432E-05    1.6458216683E-05
    1.6665235564E-05    1.6874858422E-05    1.7087118011E-05    1.7302047497E-05
    1.7519680463E-05    1.7740050914E-05    1.7963193285E-05    1.8189142441E-05
    1.8417933688E-05    1.8649602774E-05    1.8884185899E-05    1.9121719716E-05
    1.9362241341E-05    1.9605788356E-05    1.9852398814E-05    2.0102111251E-05
    2.0354964683E-05    2.0610998620E-05    2.0870253067E-05    2.1132768534E-05
    2.1398586039E-05    2.1667747116E-05    2.1940293823E-05    2.2216268746E-05
    2.2495715006E-05    2.2778676267E-05    2.3065196742E-05    2.3355321202E-05
    2.3649094978E-05    2.3946563973E-05    2.4247774667E-05    2.4552774126E-05
    2.4861610005E-05    2.5174330562E-05    2.5490984659E-05    2.5811621774E-05
    2.6136292008E-05    2.6465046090E-05    2.6797935390E-05    2.7135011921E-05
    2.7476328354E-05    2.7821938018E-05    2.8171894917E-05    2.8526253732E-05
    2.8885069832E-05    2.9248399283E-05    2.9616298856E-05    2.9988826036E-05
    3.0366039031E-05    3.0747996782E-05    3.1134758969E-05    3.1526386026E-05
    3.1922939144E-05    3.2324480287E-05    3.2731072196E-05    3.3142778401E-05
    3.3559663233E-05    3.3981791831E-05    3.4409230152E-05    3.4842044986E-05
    3.5280303961E-05    3.5724075554E-05    3.6173429107E-05    3.6628434832E-05
    3.7089163824E-05    3.7555688074E-05    3.8028080476E-05    3.8506414843E-05
    3.8990765916E-05    3.9481209376E-05    3.9977821854E-05    4.0480680949E-05
    4.0989865232E-05    4.1505454265E-05    4.2027528610E-05    4.2556169842E-05
    4.3091460562E-05    4.3633484410E-05    4.4182326079E-05    4.4738071326E-05
    4.5300806987E-05    4.5870620993E-05    4.6447602375E-05    4.7031841291E-05
    4.7623429027E-05    4.8222458020E-05    4.8829021871E-05    4.9443215356E-05
    5.0065134444E-05    5.0694876311E-05    5.1332539355E-05    5.1978223213E-05
    5.2632028775E-05    5.3294058197E-05    5.3964414925E-05    5.4643203702E-05
    5.5330530591E-05    5.6026502988E-05    5.6731229640E-05    5.7444820662E-05
    5.8167387554E-05    5.8899043219E-05    5.9639901979E-05    6.0390079595E-05
    6.1149693284E-05    6.1918861736E-05    6.2697705137E-05    6.3486345182E-05
    6.4284905097E-05    6.5093509659E-05    6.5912285215E-05    6.6741359699E-05
    6.7580862656E-05    6.8430925261E-05    6.9291680337E-05    7.0163262378E-05
    7.1045807572E-05    7.1939453819E-05    7.2844340750E-05    7.3760609759E-05
    7.4688404012E-05    7.5627868481E-05    7.6579149958E-05    7.7542397082E-05
    7.8517760364E-05    7.9505392206E-05    8.0505446926E-05    8.1518080787E-05
    8.2543452013E-05    8.3581720822E-05    8.4633049444E-05    8.5697602152E-05
    8.6775545285E-05    8.7867047273E-05    8.8972278666E-05    9.0091412159E-05
    9.1224622617E-05    9.2372087108E-05    9.3533984926E-05    9.4710497619E-05
    9.5901809020E-05    9.7108105273E-05    9.8329574865E-05    9.9566408653E-05
    1.0081879989E-04    1.0208694428E-04    1.0337103996E-04    1.0467128757E-04
    1.0598789028E-04    1.0732105382E-04    1.0867098648E-04    1.1003789922E-04
    1.1142200559E-04    1.1282352188E-04    1.1424266708E-04    1.1567966292E-04
    1.1713473395E-04    1.1860810752E-04    1.2010001384E-04    1.2161068604E-04
    1.2314036015E-04    1.2468927520E-04    1.2625767319E-04    1.2784579921E-04
    1.2945390139E-04    1.3108223100E-04    1.3273104248E-04    1.3440059346E-04
    1.3609114480E-04    1.3780296065E-04    1.3953630850E-04    1.4129145919E-04
    1.4306868694E-04    1.4486826948E-04    1.4669048797E-04    1.4853562715E-04
    1.5040397532E-04    1.5229582442E-04    1.5421147005E-04    1.5615121154E-04
    1.5811535196E-04    1.6010419824E-04    1.6211806112E-04    1.6415725527E-04
    1.6622209933E-04    1.6831291593E-04    1.7043003177E-04    1.7257377764E-04
    1.7474448851E-04    1.7694250357E-04    1.7916816625E-04    1.8142182432E-04
    1.8370382991E-04    1.8601453961E-04    1.8835431445E-04    1.9072352003E-04
    1.9312252655E-04    1.9555170886E-04    1.9801144652E-04    2.0050212387E-04
    2.0302413008E-04    2.0557785922E-04    2.0816371032E-04    2.1078208742E-04
    2.1343339964E-04    2.1611806127E-04    2.1883649179E-04    2.2158911594E-04
    2.2437636385E-04    2.2719867101E-04    2.3005647843E-04    2.3295023264E-04
    2.3588038579E-04    2.3884739573E-04    2.4185172606E-04    2.4489384620E-04
    2.4797423151E-04    2.5109336329E-04    2.5425172892E-04    2.5744982189E-04
    2.6068814192E-04    2.6396719499E-04    2.6728749348E-04    2.7064955617E-04
    2.7405390840E-04    2.7750108211E-04    2.8099161592E-04    2.8452605524E-04
    2.8810495233E-04    2.9172886639E-04    2.9539836368E-04    2.9911401756E-04
    3.0287640861E-04    3.0668612470E-04    3.1054376112E-04    3.1444992063E-04
    3.1840521357E-04    3.2241025797E-04    3.2646567961E-04    3.3057211218E-04
    3.3473019730E-04    3.3894058468E-04    3.4320393221E-04    3.4752090605E-04
    3.5189218073E-04    3.5631843926E-04    3.6080037326E-04    3.6533868305E-04
    3.6993407774E-04    3.7458727537E-04    3.7929900300E-04    3.8406999687E-04
    3.8890100244E-04    3.9379277458E-04    3.9874607761E-04    4.0376168553E-04
    4.0884038201E-04    4.1398296061E-04    4.1919022488E-04    4.2446298846E-04
    4.2980207522E-04    4.3520831942E-04    4.4068256578E-04    4.4622566966E-04
    4.5183849720E-04    4.5752192540E-04    4.6327684231E-04    4.6910414714E-04
    4.7500475043E-04    4.8097957415E-04    4.8702955188E-04    4.9315562895E-04
    4.9935876255E-04    5.0563992195E-04    5.1200008859E-04    5.1844025625E-04
    5.2496143122E-04    5.3156463245E-04    5.3825089170E-04    5.4502125371E-04
    5.5187677636E-04    5.5881853084E-04    5.6584760182E-04    5.7296508759E-04
    5.8017210028E-04    5.8746976599E-04    5.9485922500E-04    6.0234163193E-04
    6.0991815591E-04    6.1758998079E-04    6.2535830530E-04    6.3322434327E-04
    6.4118932377E-04    6.4925449134E-04    6.5742110619E-04    6.6569044435E-04
    6.7406379793E-04    6.8254247528E-04    6.9112780121E-04    6.9982111718E-04
    7.0862378155E-04    7.1753716974E-04    7.2656267448E-04    7.3570170604E-04
    7.4495569239E-04    7.5432607948E-04    7.6381433146E-04    7.7342193088E-04
    7.8315037894E-04    7.9300119573E-04    8.0297592045E-04    8.1307611167E-04
    8.2330334756E-04    8.3365922615E-04    8.4414536555E-04    8.5476340424E-04
    8.6551500130E-04    8.7640183669E-04    8.8742561150E-04    8.9858804820E-04
    9.0989089094E-04    9.2133590581E-04    9.3292488110E-04    9.4465962762E-04
    9.5654197892E-04    9.6857379166E-04    9.8075694580E-04    9.9309334500E-04
    1.0055849168E-03    1.0182336131E-03    1.0310414102E-03    1.0440103093E-03
    1.0571423370E-03    1.0704395450E-03    1.0839040110E-03    1.0975378390E-03
    1.1113431592E-03    1.1253221287E-03    1.1394769317E-03    1.1538097800E-03
    1.1683229130E-03    1.1830185985E-03    1.1978991327E-03    1.2129668406E-03
    1.2282240767E-03    1.2436732249E-03    1.2593166990E-03    1.2751569435E-03
    1.2911964334E-03    1.3074376749E-03    1.3238832056E-03    1.3405355952E-03
    1.3573974457E-03    1.3744713917E-03    1.3917601010E-03    1.4092662751E-03
    1.4269926492E-03    1.4449419932E-03    1.4631171115E-03    1.4815208442E-03
    1.5001560668E-03    1.5190256910E-03    1.5381326652E-03    1.5574799749E-03
    1.5770706432E-03    1.5969077311E-03    1.6169943381E-03    1.6373336027E-03
    1.6579287030E-03    1.6787828570E-03    1.6998993232E-03    1.7212814009E-03
    1.7429324311E-03    1.7648557969E-03    1.7870549236E-03    1.8095332800E-03
    1.8322943783E-03    1.8553417748E-03    1.8786790708E-03    1.9023099127E-03
    1.9262379927E-03    1.9504670497E-03    1.9750008694E-03    1.9998432852E-03
    2.0249981787E-03    2.0504694803E-03    2.0762611700E-03    2.1023772776E-03
    2.1288218837E-03    2.1555991204E-03    2.1827131714E-03    2.2101682734E-03
    2.2379687162E-03    2.2661188435E-03    2.2946230537E-03    2.3234858007E-03
    2.3527115941E-03    2.3823050004E-03    2.4122706436E-03    2.4426132057E-03
    2.4733374277E-03    2.5044481101E-03    2.5359501140E-03    2.5678483614E-03
    2.6001478364E-03    2.6328535857E-03    2.6659707194E-03    2.6995044120E-03
    2.7334599032E-03    2.7678424982E-03    2.8026575692E-03    2.8379105561E-03
    2.8736069669E-03    2.9097523791E-03    2.9463524403E-03    2.9834128690E-03
    3.0209394559E-03    3.0589380643E-03    3.0974146313E-03    3.1363751686E-03
    3.1758257638E-03    3.2157725806E-03    3.2562218608E-03    3.2971799241E-03
    3.3386531701E-03    3.3806480788E-03    3.4231712116E-03    3.4662292125E-03
    3.5098288090E-03    3.5539768132E-03    3.5986801231E-03    3.6439457232E-03
    3.6897806859E-03    3.7361921726E-03    3.7831874347E-03    3.8307738149E-03
    3.8789587482E-03    3.9277497630E-03    3.9771544825E-03    4.0271806258E-03
    4.0778360090E-03    4.1291285465E-03    4.1810662522E-03    4.2336572410E-03
    4.2869097296E-03    4.3408320382E-03    4.3954325914E-03    4.4507199201E-03
    4.5067026622E-03    4.5633895644E-03    4.6207894832E-03    4.6789113867E-03
    4.7377643557E-03    4.7973575852E-03    4.8577003857E-03    4.9188021850E-03
    4.9806725293E-03    5.0433210849E-03    5.1067576397E-03    5.1709921047E-03
    5.2360345153E-03    5.3018950334E-03    5.3685839486E-03    5.4361116797E-03
    5.5044887768E-03    5.5737259224E-03    5.6438339336E-03    5.7148237632E-03
    5.7867065021E-03    5.8594933803E-03    5.9331957692E-03    6.0078251832E-03
    6.0833932814E-03    6.1599118695E-03    6.2373929017E-03    6.3158484826E-03
    6.3952908686E-03    6.4757324707E-03    6.5571858557E-03    6.6396637484E-03
    6.7231790336E-03    6.8077447582E-03    6.8933741329E-03    6.9800805347E-03
    7.0678775089E-03    7.1567787707E-03    7.2467982080E-03    7.3379498833E-03
    7.4302480358E-03    7.5237070837E-03    7.6183416266E-03    7.7141664474E-03
    7.8111965151E-03    7.9094469867E-03    8.0089332098E-03    8.1096707249E-03
    8.2116752678E-03    8.3149627721E-03    8.4195493719E-03    8.5254514038E-03
    8.6326854100E-03    8.7412681403E-03    8.8512165554E-03    8.9625478290E-03
    9.0752793505E-03    9.1894287281E-03    9.3050137911E-03    9.4220525931E-03
    9.5405634144E-03    9.6605647650E-03    9.7820753877E-03    9.9051142607E-03
    1.0029700601E-02    1.0155853866E-02    1.0283593759E-02    1.0412940230E-02
    1.0543913480E-02    1.0676533964E-02    1.0810822394E-02    1.0946799741E-02
    1.1084487241E-02    1.1223906396E-02    1.1365078979E-02    1.1508027036E-02
    1.1652772888E-02    1.1799339140E-02    1.1947748678E-02    1.2098024678E-02
    1.2250190605E-02    1.2404270219E-02    1.2560287579E-02    1.2718267046E-02
    1.2878233287E-02    1.3040211279E-02    1.3204226312E-02    1.3370303993E-02
    1.3538470253E-02    1.3708751346E-02    1.3881173857E-02    1.4055764704E-02
    1.4232551144E-02    1.4411560774E-02    1.4592821540E-02    1.4776361738E-02
    1.4962210017E-02    1.5150395389E-02    1.5340947228E-02    1.5533895276E-02
    1.5729269651E-02    1.5927100846E-02    1.6127419738E-02    1.6330257592E-02
    1.6535646063E-02    1.6743617204E-02    1.6954203473E-02    1.7167437730E-02
    1.7383353251E-02    1.7601983728E-02    1.7823363276E-02    1.8047526436E-02
    1.8274508184E-02    1.8504343934E-02    1.8737069543E-02    1.8972721319E-02
    1.9211336025E-02    1.9452950882E-02    1.9697603581E-02    1.9945332283E-02
    2.0196175629E-02    2.0450172741E-02    2.0707363234E-02    2.0967787218E-02
    2.1231485306E-02    2.1498498618E-02    2.1768868791E-02    2.2042637980E-02
    2.2319848872E-02    2.2600544686E-02    2.2884769180E-02    2.3172566663E-02
    2.3463981997E-02    2.3759060604E-02    2.4057848476E-02    2.4360392179E-02
    2.4666738862E-02    2.4976936263E-02    2.5291032717E-02    2.5609077162E-02
    2.5931119149E-02    2.6257208849E-02    2.6587397056E-02    2.6921735203E-02
    2.7260275362E-02    2.7603070256E-02    2.7950173266E-02    2.8301638441E-02
    2.8657520503E-02    2.9017874855E-02    2.9382757594E-02    2.9752225515E-02
    3.0126336122E-02    3.0505147635E-02    3.0888718998E-02    3.1277109894E-02
    3.1670380745E-02    3.2068592726E-02    3.2471807777E-02    3.2880088604E-02
    3.3293498697E-02    3.3712102334E-02    3.4135964593E-02    3.4565151362E-02
    3.4999729345E-02    3.5439766078E-02    3.5885329933E-02    3.6336490134E-02
    3.6793316763E-02    3.7255880770E-02    3.7724253986E-02    3.8198509135E-02
    3.8678719840E-02    3.9164960636E-02    3.9657306982E-02    4.0155835271E-02
    4.0660622843E-02    4.1171747993E-02    4.1689289984E-02    4.2213329059E-02
    4.2743946453E-02    4.3281224404E-02    4.3825246164E-02    4.4376096015E-02
    4.4933859273E-02    4.5498622311E-02    4.6070472563E-02    4.6649498539E-02
    4.7235789840E-02    4.7829437168E-02    4.8430532339E-02    4.9039168297E-02
    4.9655439129E-02    5.0279440073E-02    5.0911267536E-02    5.1551019107E-02
    5.2198793570E-02    5.2854690914E-02    5.3518812355E-02    5.4191260343E-02
    5.4872138579E-02    5.5561552029E-02    5.6259606939E-02    5.6966410848E-02
    5.7682072603E-02    5.8406702377E-02    5.9140411679E-02    5.9883313370E-02
    6.0635521682E-02    6.1397152229E-02    6.2168322025E-02    6.2949149498E-02
    6.3739754505E-02    6.4540258351E-02    6.5350783801E-02    6.6171455098E-02
    6.7002397977E-02    6.7843739687E-02    6.8695608998E-02    6.9558136226E-02
    7.0431453244E-02    7.1315693501E-02    7.2210992037E-02    7.3117485502E-02
    7.4035312170E-02    7.4964611960E-02    7.5905526448E-02    7.6858198888E-02
    7.7822774225E-02    7.8799399117E-02    7.9788221950E-02    8.0789392855E-02
    8.1803063723E-02    8.2829388229E-02    8.3868521843E-02    8.4920621849E-02
    8.5985847366E-02    8.7064359361E-02    8.8156320668E-02    8.9261896006E-02
    9.0381251997E-02    9.1514557182E-02    9.2661982039E-02    9.3823699002E-02
    9.4999882474E-02    9.6190708851E-02    9.7396356532E-02    9.8617005942E-02
    9.9852839546E-02    1.0110404187E-01    1.0237079950E-01    1.0365330114E-01
    1.0495173757E-01    1.0626630172E-01    1.0759718866E-01    1.0894459559E-01
    1.1030872192E-01    1.1168976921E-01    1.1308794125E-01    1.1450344404E-01
    1.1593648582E-01    1.1738727707E-01    1.1885603053E-01    1.2034296122E-01
    1.2184828646E-01    1.2337222585E-01    1.2491500132E-01    1.2647683714E-01
    1.2805795988E-01    1.2965859851E-01    1.3127898432E-01    1.3291935098E-01
    1.3457993457E-01    1.3626097352E-01    1.3796270867E-01    1.3968538328E-01
    1.4142924300E-01    1.4319453591E-01    1.4498151251E-01    1.4679042573E-01
    1.4862153092E-01    1.5047508586E-01    1.5235135078E-01    1.5425058832E-01
    1.5617306358E-01    1.5811904405E-01    1.6008879969E-01    1.6208260285E-01
    1.6410072830E-01    1.6614345324E-01    1.6821105723E-01    1.7030382224E-01
    1.7242203262E-01    1.7456597507E-01    1.7673593863E-01    1.7893221468E-01
    1.8115509690E-01    1.8340488125E-01    1.8568186596E-01    1.8798635149E-01
    1.9031864050E-01    1.9267903784E-01    1.9506785048E-01    1.9748538751E-01
    1.9993196009E-01    2.0240788138E-01    2.0491346654E-01    2.0744903264E-01
    2.1001489866E-01    2.1261138537E-01    2.1523881531E-01    2.1789751274E-01
    2.2058780355E-01    2.2331001518E-01    2.2606447657E-01    2.2885151809E-01
    2.3167147141E-01    2.3452466946E-01    2.3741144632E-01    2.4033213712E-01
    2.4328707792E-01    2.4627660563E-01    2.4930105790E-01    2.5236077296E-01
    2.5545608953E-01    2.5858734667E-01    2.6175488365E-01    2.6495903978E-01
    2.6820015431E-01    2.7147856619E-01    2.7479461399E-01    2.7814863563E-01
    2.8154096830E-01    2.8497194815E-01    2.8844191019E-01    2.9195118801E-01
    2.9550011361E-01    2.9908901712E-01    3.0271822660E-01    3.0638806774E-01
    3.1009886367E-01    3.1385093460E-01    3.1764459761E-01    3.2148016630E-01
    3.2535795050E-01    3.2927825595E-01    3.3324138394E-01    3.3724763101E-01
    3.4129728850E-01    3.4539064226E-01    3.4952797220E-01    3.5370955188E-01
    3.5793564810E-01    3.6220652046E-01    3.6652242086E-01    3.7088359307E-01
    3.7529027219E-01    3.7974268415E-01    3.8424104518E-01    3.8878556122E-01
    3.9337642738E-01    3.9801382732E-01    4.0269793261E-01    4.0742890212E-01
    4.1220688131E-01    4.1703200159E-01    4.2190437953E-01    4.2682411619E-01
    4.3179129629E-01    4.3680598744E-01    4.4186823931E-01    4.4697808278E-01
    4.5213552905E-01    4.5734056874E-01    4.6259317091E-01    4.6789328214E-01
    4.7324082547E-01    4.7863569939E-01    4.8407777677E-01    4.8956690372E-01
    4.9510289849E-01    5.0068555025E-01    5.0631461789E-01    5.1198982879E-01
    5.1771087748E-01    5.2347742437E-01    5.2928909434E-01    5.3514547532E-01
    5.4104611689E-01    5.4699052875E-01    5.5297817922E-01    5.5900849363E-01
    5.6508085273E-01    5.7119459105E-01    5.7734899514E-01    5.8354330189E-01
    5.8977669671E-01    5.9604831169E-01    6.0235722377E-01    6.0870245276E-01
    6.1508295943E-01    6.2149764350E-01    6.2794534157E-01    6.3442482504E-01
    6.4093479800E-01    6.4747389503E-01    6.5404067903E-01    6.6063363892E-01
    6.6725118743E-01    6.7389165868E-01    6.8055330594E-01    6.8723429916E-01
    6.9393272258E-01    7.0064657230E-01    7.0737375382E-01    7.1411207953E-01
    7.2085926621E-01    7.2761293253E-01    7.3437059652E-01    7.4112967299E-01
    7.4788747106E-01    7.5464119160E-01    7.6138792468E-01    7.6812464711E-01
    7.7484821993E-01    7.8155538596E-01    7.8824276739E-01    7.9490686339E-01
    8.0154404780E-01    8.0815056689E-01    8.1472253713E-01    8.2125594315E-01
    8.2774663568E-01    8.3419032968E-01    8.4058260254E-01    8.4691889243E-01
    8.5319449682E-01    8.5940457110E-01    8.6554412745E-01    8.7160803383E-01
    8.7759101323E-01    8.8348764316E-01    8.8929235533E-01    8.9499943563E-01
    9.0060302442E-01    9.0609711709E-01    9.1147556500E-01    9.1673207670E-01
    9.2186021963E-01    9.2685342214E-01    9.3170497598E-01    9.3640803926E-01
    9.4095563988E-01    9.4534067948E-01    9.4955593789E-01    9.5359407827E-01
    9.5744765269E-01    9.6110910853E-01    9.6457079535E-01    9.6782497262E-01
    9.7086381809E-01    9.7367943692E-01    9.7626387165E-01    9.7860911295E-01
    9.8070711118E-01    9.8254978895E-01    9.8412905445E-01    9.8543681579E-01
    9.8646499627E-01    9.8720555065E-01    9.8765048238E-01    9.8779186189E-01
    9.8762184588E-01    9.8713269765E-01    9.8631680852E-01    9.8516672024E-01
    9.8367514848E-01    9.8183500739E-01    9.7963943510E-01    9.7708182030E-01
    9.7415582976E-01    9.7085543682E-01    9.6717495072E-01    9.6310904684E-01
    9.5865279765E-01    9.5380170439E-01    9.4855172940E-01    9.4289932892E-01
    9.3684148632E-01    9.3037574563E-01    9.2350024520E-01    9.1621375141E-01
    9.0851569214E-01    9.0040618998E-01    8.9188609489E-01    8.8295701607E-01
    8.7362135291E-01    8.6388232476E-01    8.5374399918E-01    8.4321131852E-01
    8.3229012447E-01    8.2098718034E-01    8.0931019074E-01    7.9726781831E-01
    7.8486969730E-01    7.7212644353E-01    7.5904966048E-01    7.4565194125E-01
    7.3194686587E-01    7.1794899386E-01    7.0367385159E-01    6.8913791427E-01
    6.7435858212E-01    6.5935415073E-01    6.4414377517E-01    6.2874742784E-01
    6.1318584984E-01    5.9748049584E-01    5.8165347240E-01    5.6572746980E-01
    5.4972568752E-01    5.3367175352E-01    5.1758963765E-01    5.0150355945E-01
    4.8543789102E-01    4.6941705517E-01    4.5346541988E-01    4.3760718948E-01
    4.2186629363E-01    4.0626627488E-01    3.9083017591E-01    3.7558042749E-01
    3.6053873830E-01    3.4572598787E-01    3.3116212374E-01    3.1686606416E-01
    3.0285560739E-01    2.8914734882E-01    2.7575660684E-01    2.6269735831E-01
    2.4998218435E-01    2.3762222674E-01    2.2562715519E-01    2.1400514510E-01
    2.0276286523E-01    1.9190547412E-01    1.8143662360E-01    1.7135846722E-01
    1.6167167081E-01    1.5237542161E-01    1.4346743300E-01    1.3494394151E-01
    1.2679968284E-01    1.1902784496E-01    1.1162012116E-01    1.0456738522E-01
    9.7860181155E-02    9.1488784069E-02    8.5443244823E-02    7.9713432488E-02
    7.4289075069E-02    6.9159798439E-02    6.4315163428E-02    5.9744701030E-02
    5.5437945705E-02    5.1384466760E-02    4.7573897789E-02    4.3995964167E-02
    4.0640508621E-02    3.7497514851E-02    3.4557129259E-02    3.1809680771E-02
    2.9245698799E-02    2.6855929371E-02    2.4631349472E-02    2.2563179630E-02
    2.0642894805E-02    1.8862233634E-02    1.7213206087E-02    1.5688099592E-02
    1.4279483710E-02    1.2980213410E-02    1.1783431031E-02    1.0682566995E-02
    9.6713393538E-03    8.7437522372E-03    7.8940932965E-03    7.1169302056E-03
    6.4071063082E-03    5.7597354864E-03    5.1701963288E-03    4.6341256747E-03
    4.1474116098E-03    3.7061859860E-03    3.3068165369E-03    2.9458986581E-03
    2.6202469175E-03    2.3268863586E-03    2.0630436578E-03    1.8261381893E-03
    1.6137730536E-03    1.4237261146E-03    1.2539410933E-03    1.1025187559E-03
    9.6770823583E-04    8.4789852020E-04    7.4161013045E-04    6.4748702247E-04
    5.6428872716E-04    4.9088274995E-04    4.2623724421E-04    3.6941397041E-04
    3.1956155067E-04    2.7590902537E-04    2.3775971639E-04    2.0448539948E-04
    1.7552078618E-04    1.5035831395E-04    1.2854324161E-04    1.0966904546E-04
    9.3373110330E-05    7.9332708342E-05    6.7261257112E-05    5.6904848228E-05
    4.8039035877E-05    4.0465874864E-05    3.4011196662E-05    2.8522111735E-05
    2.3864726045E-05    1.9922059514E-05    1.6592154114E-05    1.3786359355E-05
    1.1427783072E-05    9.4498956515E-06    7.7952761566E-06    6.4144892172E-06
    5.2650819554E-06    4.3106907287E-06    3.5202479756E-06    2.8672799921E-06
    2.3292870422E-06    1.8871976785E-06    1.5248899264E-06    1.2287722208E-06
    9.8741782068E-07    7.9124678721E-07    6.3225016796E-07    5.0375150335E-07
    4.0020123000E-07    3.1699998406E-07    2.5034720978E-07    1.9711185267E-07
    1.5472226252E-07    1.2107274994E-07    9.4444531754E-08    7.3439066736E-08
    5.6922023943E-08    4.3976344211E-08    3.3863051048E-08    2.5988642615E-08
    1.9878052821E-08    1.5152308267E-08    1.1510130412E-08    8.7128401608E-09
    6.5720166403E-09    4.9394443276E-09    3.6989543332E-09    2.7598275650E-09
    2.0514808280E-09    1.5192026308E-09    1.1207444964E-09    8.2360673101E-10
    6.0288566219E-10    4.3957298408E-10    3.1921765771E-10    2.3087735179E-10
    1.6630014624E-10    1.1928858414E-10    8.5207512587E-11    6.0604817763E-11
    4.2920412356E-11    3.0263908379E-11    2.1245509421E-11    1.4847953622E-11
    1.0329977463E-11    7.1538717466E-12    4.9313666913E-12    3.3833962305E-12
    2.3103222393E-12    1.5700040636E-12    1.0617238312E-12    7.1446118083E-13
    4.7838258168E-13    3.1869463174E-13    2.1122702006E-13    1.3927457452E-13
   </PP_CHI.1>
   <PP_CHI.2
       type="real"
       size="1164"
       columns="4"
       index="2"
       occupation=" 6.000"
       pseudo_energy="   -0.3176730963E+01"
       label="5P"
       l="1" >
    0.0000000000E+00    1.0584133748E-10    1.0852072370E-10    1.1126793890E-10
    1.1408470018E-10    1.1697276812E-10    1.1993394784E-10    1.2297009019E-10
    1.2608309284E-10    1.2927490154E-10    1.3254751125E-10    1.3590296748E-10
    1.3934336748E-10    1.4287086162E-10    1.4648765471E-10    1.5019600734E-10
    1.5399823737E-10    1.5789672131E-10    1.6189389585E-10    1.6599225933E-10
    1.7019437339E-10    1.7450286446E-10    1.7892042551E-10    1.8344981765E-10
    1.8809387190E-10    1.9285549094E-10    1.9773765094E-10    2.0274340340E-10
    2.0787587710E-10    2.1313827998E-10    2.1853390123E-10    2.2406611328E-10
    2.2973837395E-10    2.3555422858E-10    2.4151731227E-10    2.4763135214E-10
    2.5390016967E-10    2.6032768307E-10    2.6691790974E-10    2.7367496880E-10
    2.8060308362E-10    2.8770658451E-10    2.9498991137E-10    3.0245761654E-10
    3.1011436755E-10    3.1796495015E-10    3.2601427119E-10    3.3426736176E-10
    3.4272938031E-10    3.5140561589E-10    3.6030149141E-10    3.6942256709E-10
    3.7877454391E-10    3.8836326714E-10    3.9819473006E-10    4.0827507765E-10
    4.1861061045E-10    4.2920778851E-10    4.4007323541E-10    4.5121374241E-10
    4.6263627268E-10    4.7434796569E-10    4.8635614162E-10    4.9866830596E-10
    5.1129215424E-10    5.2423557675E-10    5.3750666356E-10    5.5111370954E-10
    5.6506521952E-10    5.7936991366E-10    5.9403673286E-10    6.0907484435E-10
    6.2449364745E-10    6.4030277941E-10    6.5651212144E-10    6.7313180493E-10
    6.9017221770E-10    7.0764401058E-10    7.2555810400E-10    7.4392569486E-10
    7.6275826349E-10    7.8206758086E-10    8.0186571594E-10    8.2216504318E-10
    8.4297825035E-10    8.6431834636E-10    8.8619866947E-10    9.0863289561E-10
    9.3163504687E-10    9.5521950037E-10    9.7940099716E-10    1.0041946514E-09
    1.0296159601E-09    1.0556808122E-09    1.0824054992E-09    1.1098067249E-09
    1.1379016159E-09    1.1667077324E-09    1.1962430793E-09    1.2265261170E-09
    1.2575757735E-09    1.2894114558E-09    1.3220530622E-09    1.3555209948E-09
    1.3898361722E-09    1.4250200424E-09    1.4610945965E-09    1.4980823823E-09
    1.5360065184E-09    1.5748907085E-09    1.6147592566E-09    1.6556370818E-09
    1.6975497341E-09    1.7405234102E-09    1.7845849701E-09    1.8297619537E-09
    1.8760825980E-09    1.9235758551E-09    1.9722714097E-09    2.0221996981E-09
    2.0733919272E-09    2.1258800937E-09    2.1796970045E-09    2.2348762969E-09
    2.2914524597E-09    2.3494608548E-09    2.4089377395E-09    2.4699202887E-09
    2.5324466185E-09    2.5965558098E-09    2.6622879331E-09    2.7296840729E-09
    2.7987863542E-09    2.8696379680E-09    2.9422831990E-09    3.0167674528E-09
    3.0931372844E-09    3.1714404275E-09    3.2517258241E-09    3.3340436552E-09
    3.4184453721E-09    3.5049837286E-09    3.5937128140E-09    3.6846880870E-09
    3.7779664099E-09    3.8736060848E-09    3.9716668896E-09    4.0722101155E-09
    4.1752986053E-09    4.2809967926E-09    4.3893707422E-09    4.5004881915E-09
    4.6144185923E-09    4.7312331550E-09    4.8510048924E-09    4.9738086657E-09
    5.0997212314E-09    5.2288212888E-09    5.3611895297E-09    5.4969086886E-09
    5.6360635943E-09    5.7787412233E-09    5.9250307536E-09    6.0750236209E-09
    6.2288135758E-09    6.3864967419E-09    6.5481716763E-09    6.7139394312E-09
    6.8839036167E-09    7.0581704661E-09    7.2368489017E-09    7.4200506035E-09
    7.6078900784E-09    7.8004847321E-09    7.9979549428E-09    8.2004241356E-09
    8.4080188604E-09    8.6208688706E-09    8.8391072045E-09    9.0628702680E-09
    9.2922979205E-09    9.5275335615E-09    9.7687242212E-09    1.0016020651E-08
    1.0269577420E-08    1.0529553010E-08    1.0796109912E-08    1.1069414735E-08
    1.1349638302E-08    1.1636955762E-08    1.1931546699E-08    1.2233595240E-08
    1.2543290177E-08    1.2860825078E-08    1.3186398414E-08    1.3520213677E-08
    1.3862479514E-08    1.4213409852E-08    1.4573224034E-08    1.4942146955E-08
    1.5320409204E-08    1.5708247207E-08    1.6105903376E-08    1.6513626259E-08
    1.6931670696E-08    1.7360297977E-08    1.7799776010E-08    1.8250379482E-08
    1.8712390035E-08    1.9186096441E-08    1.9671794782E-08    2.0169788634E-08
    2.0680389260E-08    2.1203915803E-08    2.1740695483E-08    2.2291063805E-08
    2.2855364767E-08    2.3433951076E-08    2.4027184367E-08    2.4635435429E-08
    2.5259084441E-08    2.5898521202E-08    2.6554145381E-08    2.7226366765E-08
    2.7915605514E-08    2.8622292425E-08    2.9346869199E-08    3.0089788722E-08
    3.0851515341E-08    3.1632525162E-08    3.2433306339E-08    3.3254359388E-08
    3.4096197493E-08    3.4959346831E-08    3.5844346898E-08    3.6751750847E-08
    3.7682125837E-08    3.8636053380E-08    3.9614129714E-08    4.0616966167E-08
    4.1645189545E-08    4.2699442521E-08    4.3780384037E-08    4.4888689717E-08
    4.6025052288E-08    4.7190182013E-08    4.8384807137E-08    4.9609674338E-08
    5.0865549200E-08    5.2153216683E-08    5.3473481623E-08    5.4827169227E-08
    5.6215125595E-08    5.7638218244E-08    5.9097336653E-08    6.0593392819E-08
    6.2127321826E-08    6.3700082428E-08    6.5312657653E-08    6.6966055411E-08
    6.8661309131E-08    7.0399478401E-08    7.2181649633E-08    7.4008936743E-08
    7.5882481843E-08    7.7803455960E-08    7.9773059765E-08    8.1792524326E-08
    8.3863111871E-08    8.5986116587E-08    8.8162865419E-08    9.0394718907E-08
    9.2683072031E-08    9.5029355085E-08    9.7435034574E-08    9.9901614124E-08
    1.0243063543E-07    1.0502367921E-07    1.0768236620E-07    1.1040835816E-07
    1.1320335893E-07    1.1606911548E-07    1.1900741900E-07    1.2202010601E-07
    1.2510905956E-07    1.2827621032E-07    1.3152353789E-07    1.3485307193E-07
    1.3826689352E-07    1.4176713640E-07    1.4535598835E-07    1.4903569251E-07
    1.5280854881E-07    1.5667691540E-07    1.6064321016E-07    1.6470991213E-07
    1.6887956314E-07    1.7315476935E-07    1.7753820291E-07    1.8203260361E-07
    1.8664078058E-07    1.9136561409E-07    1.9621005731E-07    2.0117713818E-07
    2.0626996128E-07    2.1149170979E-07    2.1684564747E-07    2.2233512070E-07
    2.2796356059E-07    2.3373448509E-07    2.3965150121E-07    2.4571830728E-07
    2.5193869524E-07    2.5831655305E-07    2.6485586706E-07    2.7156072456E-07
    2.7843531630E-07    2.8548393912E-07    2.9271099864E-07    3.0012101200E-07
    3.0771861070E-07    3.1550854348E-07    3.2349567929E-07    3.3168501037E-07
    3.4008165529E-07    3.4869086223E-07    3.5751801223E-07    3.6656862253E-07
    3.7584835006E-07    3.8536299493E-07    3.9511850412E-07    4.0512097513E-07
    4.1537665981E-07    4.2589196830E-07    4.3667347301E-07    4.4772791271E-07
    4.5906219679E-07    4.7068340954E-07    4.8259881458E-07    4.9481585942E-07
    5.0734218011E-07    5.2018560599E-07    5.3335416461E-07    5.4685608674E-07
    5.6069981152E-07    5.7489399170E-07    5.8944749910E-07    6.0436943013E-07
    6.1966911146E-07    6.3535610589E-07    6.5144021827E-07    6.6793150169E-07
    6.8484026372E-07    7.0217707288E-07    7.1995276520E-07    7.3817845107E-07
    7.5686552211E-07    7.7602565833E-07    7.9567083541E-07    8.1581333221E-07
    8.3646573842E-07    8.5764096244E-07    8.7935223946E-07    9.0161313969E-07
    9.2443757690E-07    9.4783981707E-07    9.7183448734E-07    9.9643658512E-07
    1.0216614875E-06    1.0475249608E-06    1.0740431705E-06    1.1012326913E-06
    1.1291105176E-06    1.1576940737E-06    1.1870012254E-06    1.2170502905E-06
    1.2478600505E-06    1.2794497626E-06    1.3118391712E-06    1.3450485208E-06
    1.3790985683E-06    1.4140105958E-06    1.4498064245E-06    1.4865084280E-06
    1.5241395460E-06    1.5627232992E-06    1.6022838036E-06    1.6428457856E-06
    1.6844345978E-06    1.7270762344E-06    1.7707973477E-06    1.8156252648E-06
    1.8615880044E-06    1.9087142946E-06    1.9570335907E-06    2.0065760938E-06
    2.0573727694E-06    2.1094553669E-06    2.1628564394E-06    2.2176093643E-06
    2.2737483636E-06    2.3313085260E-06    2.3903258282E-06    2.4508371578E-06
    2.5128803360E-06    2.5764941417E-06    2.6417183353E-06    2.7085936839E-06
    2.7771619864E-06    2.8474661000E-06    2.9195499667E-06    2.9934586411E-06
    3.0692383182E-06    3.1469363623E-06    3.2266013370E-06    3.3082830350E-06
    3.3920325098E-06    3.4779021070E-06    3.5659454975E-06    3.6562177109E-06
    3.7487751698E-06    3.8436757251E-06    3.9409786922E-06    4.0407448881E-06
    4.1430366693E-06    4.2479179710E-06    4.3554543466E-06    4.4657130094E-06
    4.5787628738E-06    4.6946745990E-06    4.8135206328E-06    4.9353752570E-06
    5.0603146338E-06    5.1884168536E-06    5.3197619835E-06    5.4544321173E-06
    5.5925114274E-06    5.7340862167E-06    5.8792449729E-06    6.0280784237E-06
    6.1806795935E-06    6.3371438618E-06    6.4975690224E-06    6.6620553448E-06
    6.8307056367E-06    7.0036253084E-06    7.1809224385E-06    7.3627078419E-06
    7.5490951383E-06    7.7402008239E-06    7.9361443438E-06    8.1370481669E-06
    8.3430378624E-06    8.5542421781E-06    8.7707931208E-06    8.9928260395E-06
    9.2204797089E-06    9.4538964171E-06    9.6932220539E-06    9.9386062025E-06
    1.0190202232E-05    1.0448167396E-05    1.0712662925E-05    1.0983854135E-05
    1.1261910524E-05    1.1547005883E-05    1.1839318400E-05    1.2139030776E-05
    1.2446330335E-05    1.2761409144E-05    1.3084464133E-05    1.3415697214E-05
    1.3755315412E-05    1.4103530995E-05    1.4460561600E-05    1.4826630377E-05
    1.5201966122E-05    1.5586803424E-05    1.5981382811E-05    1.6385950898E-05
    1.6800760545E-05    1.7226071011E-05    1.7662148119E-05    1.8109264419E-05
    1.8567699364E-05    1.9037739476E-05    1.9519678535E-05    2.0013817753E-05
    2.0520465971E-05    2.1039939845E-05    2.1572564048E-05    2.2118671471E-05
    2.2678603431E-05    2.3252709886E-05    2.3841349652E-05    2.4444890629E-05
    2.5063710028E-05    2.5698194610E-05    2.6348740924E-05    2.7015755559E-05
    2.7699655396E-05    2.8400867867E-05    2.9119831223E-05    2.9856994812E-05
    3.0612819353E-05    3.1387777228E-05    3.2182352776E-05    3.2997042596E-05
    3.3832355859E-05    3.4688814621E-05    3.5566954155E-05    3.6467323283E-05
    3.7390484718E-05    3.8337015416E-05    3.9307506938E-05    4.0302565820E-05
    4.1322813948E-05    4.2368888951E-05    4.3441444596E-05    4.4541151200E-05
    4.5668696045E-05    4.6824783810E-05    4.8010137010E-05    4.9225496450E-05
    5.0471621683E-05    5.1749291489E-05    5.3059304359E-05    5.4402478994E-05
    5.5779654819E-05    5.7191692504E-05    5.8639474504E-05    6.0123905609E-05
    6.1645913509E-05    6.3206449377E-05    6.4806488456E-05    6.6447030678E-05
    6.8129101277E-05    6.9853751442E-05    7.1622058961E-05    7.3435128907E-05
    7.5294094316E-05    7.7200116904E-05    7.9154387787E-05    8.1158128228E-05
    8.3212590400E-05    8.5319058165E-05    8.7478847878E-05    8.9693309209E-05
    9.1963825987E-05    9.4291817060E-05    9.6678737188E-05    9.9126077945E-05
    1.0163536865E-04    1.0420817734E-04    1.0684611171E-04    1.0955082016E-04
    1.1232399280E-04    1.1516736251E-04    1.1808270602E-04    1.2107184502E-04
    1.2413664732E-04    1.2727902797E-04    1.3050095049E-04    1.3380442809E-04
    1.3719152493E-04    1.4066435739E-04    1.4422509540E-04    1.4787596382E-04
    1.5161924378E-04    1.5545727416E-04    1.5939245300E-04    1.6342723902E-04
    1.6756415315E-04    1.7180578012E-04    1.7615477004E-04    1.8061384009E-04
    1.8518577619E-04    1.8987343473E-04    1.9467974439E-04    1.9960770795E-04
    2.0466040414E-04    2.0984098958E-04    2.1515270077E-04    2.2059885608E-04
    2.2618285782E-04    2.3190819438E-04    2.3777844238E-04    2.4379726895E-04
    2.4996843395E-04    2.5629579238E-04    2.6278329673E-04    2.6943499948E-04
    2.7625505560E-04    2.8324772519E-04    2.9041737606E-04    2.9776848652E-04
    3.0530564814E-04    3.1303356862E-04    3.2095707472E-04    3.2908111528E-04
    3.3741076427E-04    3.4595122401E-04    3.5470782836E-04    3.6368604607E-04
    3.7289148416E-04    3.8232989145E-04    3.9200716213E-04    4.0192933941E-04
    4.1210261930E-04    4.2253335446E-04    4.3322805818E-04    4.4419340841E-04
    4.5543625192E-04    4.6696360857E-04    4.7878267568E-04    4.9090083250E-04
    5.0332564481E-04    5.1606486963E-04    5.2912646004E-04    5.4251857012E-04
    5.5624956006E-04    5.7032800130E-04    5.8476268190E-04    5.9956261200E-04
    6.1473702943E-04    6.3029540541E-04    6.4624745049E-04    6.6260312056E-04
    6.7937262302E-04    6.9656642316E-04    7.1419525062E-04    7.3227010609E-04
    7.5080226811E-04    7.6980330009E-04    7.8928505750E-04    8.0925969519E-04
    8.2973967496E-04    8.5073777331E-04    8.7226708930E-04    8.9434105276E-04
    9.1697343254E-04    9.4017834510E-04    9.6397026323E-04    9.8836402502E-04
    1.0133748431E-03    1.0390183139E-03    1.0653104276E-03    1.0922675778E-03
    1.1199065716E-03    1.1482446404E-03    1.1772994500E-03    1.2070891119E-03
    1.2376321946E-03    1.2689477346E-03    1.3010552487E-03    1.3339747456E-03
    1.3677267387E-03    1.4023322583E-03    1.4378128651E-03    1.4741906628E-03
    1.5114883127E-03    1.5497290465E-03    1.5889366819E-03    1.6291356361E-03
    1.6703509416E-03    1.7126082614E-03    1.7559339048E-03    1.8003548433E-03
    1.8458987277E-03    1.8925939048E-03    1.9404694348E-03    1.9895551093E-03
    2.0398814695E-03    2.0914798249E-03    2.1443822725E-03    2.1986217167E-03
    2.2542318891E-03    2.3112473696E-03    2.3697036070E-03    2.4296369413E-03
    2.4910846255E-03    2.5540848485E-03    2.6186767585E-03    2.6849004868E-03
    2.7527971722E-03    2.8224089864E-03    2.8937791593E-03    2.9669520055E-03
    3.0419729515E-03    3.1188885628E-03    3.1977465728E-03    3.2785959111E-03
    3.3614867339E-03    3.4464704539E-03    3.5335997717E-03    3.6229287075E-03
    3.7145126340E-03    3.8084083096E-03    3.9046739132E-03    4.0033690783E-03
    4.1045549302E-03    4.2082941216E-03    4.3146508712E-03    4.4236910019E-03
    4.5354819802E-03    4.6500929568E-03    4.7675948083E-03    4.8880601790E-03
    5.0115635248E-03    5.1381811576E-03    5.2679912907E-03    5.4010740851E-03
    5.5375116979E-03    5.6773883304E-03    5.8207902784E-03    5.9678059832E-03
    6.1185260840E-03    6.2730434715E-03    6.4314533425E-03    6.5938532560E-03
    6.7603431910E-03    6.9310256043E-03    7.1060054916E-03    7.2853904481E-03
    7.4692907319E-03    7.6578193278E-03    7.8510920137E-03    8.0492274270E-03
    8.2523471344E-03    8.4605757012E-03    8.6740407641E-03    8.8928731042E-03
    9.1172067223E-03    9.3471789161E-03    9.5829303582E-03    9.8246051771E-03
    1.0072351039E-02    1.0326319230E-02    1.0586664747E-02    1.0853546378E-02
    1.1127126798E-02    1.1407572656E-02    1.1695054673E-02    1.1989747731E-02
    1.2291830978E-02    1.2601487919E-02    1.2918906527E-02    1.3244279340E-02
    1.3577803566E-02    1.3919681199E-02    1.4270119121E-02    1.4629329218E-02
    1.4997528494E-02    1.5374939190E-02    1.5761788902E-02    1.6158310702E-02
    1.6564743263E-02    1.6981330987E-02    1.7408324130E-02    1.7845978940E-02
    1.8294557785E-02    1.8754329292E-02    1.9225568485E-02    1.9708556931E-02
    2.0203582876E-02    2.0710941400E-02    2.1230934561E-02    2.1763871548E-02
    2.2310068838E-02    2.2869850349E-02    2.3443547603E-02    2.4031499888E-02
    2.4634054421E-02    2.5251566518E-02    2.5884399760E-02    2.6532926172E-02
    2.7197526392E-02    2.7878589854E-02    2.8576514963E-02    2.9291709282E-02
    3.0024589714E-02    3.0775582693E-02    3.1545124370E-02    3.2333660807E-02
    3.3141648171E-02    3.3969552928E-02    3.4817852047E-02    3.5687033193E-02
    3.6577594935E-02    3.7490046948E-02    3.8424910214E-02    3.9382717237E-02
    4.0364012245E-02    4.1369351400E-02    4.2399303011E-02    4.3454447743E-02
    4.4535378831E-02    4.5642702288E-02    4.6777037122E-02    4.7939015546E-02
    4.9129283189E-02    5.0348499312E-02    5.1597337013E-02    5.2876483439E-02
    5.4186639995E-02    5.5528522547E-02    5.6902861629E-02    5.8310402641E-02
    5.9751906049E-02    6.1228147579E-02    6.2739918405E-02    6.4288025338E-02
    6.5873291005E-02    6.7496554024E-02    6.9158669171E-02    7.0860507544E-02
    7.2602956717E-02    7.4386920882E-02    7.6213320990E-02    7.8083094873E-02
    7.9997197365E-02    8.1956600400E-02    8.3962293107E-02    8.6015281888E-02
    8.8116590478E-02    9.0267259995E-02    9.2468348971E-02    9.4720933360E-02
    9.7026106535E-02    9.9384979257E-02    1.0179867963E-01    1.0426835301E-01
    1.0679516195E-01    1.0938028601E-01    1.1202492166E-01    1.1473028206E-01
    1.1749759686E-01    1.2032811196E-01    1.2322308918E-01    1.2618380601E-01
    1.2921155516E-01    1.3230764423E-01    1.3547339519E-01    1.3871014395E-01
    1.4201923975E-01    1.4540204460E-01    1.4885993262E-01    1.5239428928E-01
    1.5600651069E-01    1.5969800274E-01    1.6347018014E-01    1.6732446552E-01
    1.7126228835E-01    1.7528508379E-01    1.7939429149E-01    1.8359135432E-01
    1.8787771697E-01    1.9225482446E-01    1.9672412059E-01    2.0128704625E-01
    2.0594503765E-01    2.1069952444E-01    2.1555192770E-01    2.2050365781E-01
    2.2555611223E-01    2.3071067310E-01    2.3596870477E-01    2.4133155114E-01
    2.4680053287E-01    2.5237694447E-01    2.5806205121E-01    2.6385708586E-01
    2.6976324533E-01    2.7578168707E-01    2.8191352533E-01    2.8815982727E-01
    2.9452160883E-01    3.0099983044E-01    3.0759539259E-01    3.1430913110E-01
    3.2114181230E-01    3.2809412791E-01    3.3516668978E-01    3.4236002440E-01
    3.4967456720E-01    3.5711065657E-01    3.6466852780E-01    3.7234830665E-01
    3.8015000281E-01    3.8807350304E-01    3.9611856420E-01    4.0428480594E-01
    4.1257170327E-01    4.2097857884E-01    4.2950459505E-01    4.3814874593E-01
    4.4690984881E-01    4.5578653582E-01    4.6477724518E-01    4.7388021229E-01
    4.8309346071E-01    4.9241479293E-01    5.0184178102E-01    5.1137175715E-01
    5.2100180400E-01    5.3072874511E-01    5.4054913513E-01    5.5045925005E-01
    5.6045507744E-01    5.7053230665E-01    5.8068631910E-01    5.9091217871E-01
    6.0120462235E-01    6.1155805052E-01    6.2196651827E-01    6.3242372629E-01
    6.4292301246E-01    6.5345734357E-01    6.6401930768E-01    6.7460110681E-01
    6.8519455027E-01    6.9579104861E-01    7.0638160820E-01    7.1695682672E-01
    7.2750688936E-01    7.3802156609E-01    7.4849020988E-01    7.5890175608E-01
    7.6924472303E-01    7.7950721391E-01    7.8967692015E-01    7.9974112619E-01
    8.0968671599E-01    8.1950018121E-01    8.2916763122E-01    8.3867480513E-01
    8.4800708572E-01    8.5714951570E-01    8.6608681608E-01    8.7480340699E-01
    8.8328343091E-01    8.9151077847E-01    8.9946911685E-01    9.0714192095E-01
    9.1451250727E-01    9.2156407067E-01    9.2827972400E-01    9.3464254066E-01
    9.4063560008E-01    9.4624203614E-01    9.5144508855E-01    9.5622815704E-01
    9.6057485843E-01    9.6446908641E-01    9.6789507396E-01    9.7083745822E-01
    9.7328134774E-01    9.7521239175E-01    9.7661685140E-01    9.7748167249E-01
    9.7779455966E-01    9.7754405136E-01    9.7671959548E-01    9.7531162516E-01
    9.7331163419E-01    9.7071225168E-01    9.6750731538E-01    9.6369194304E-01
    9.5926260129E-01    9.5421717138E-01    9.4855501105E-01    9.4227701191E-01
    9.3538565170E-01    9.2788504048E-01    9.1978096027E-01    9.1108089727E-01
    9.0179406603E-01    8.9193142482E-01    8.8150568150E-01    8.7053128943E-01
    8.5902443261E-01    8.4700299971E-01    8.3448654651E-01    8.2149624633E-01
    8.0805482832E-01    7.9418650328E-01    7.7991687730E-01    7.6527285294E-01
    7.5028251863E-01    7.3497502640E-01    7.1938045871E-01    7.0352968504E-01
    6.8745420926E-01    6.7118600885E-01    6.5475736720E-01    6.3820070060E-01
    6.2154838130E-01    6.0483255870E-01    5.8808498027E-01    5.7133681445E-01
    5.5461847745E-01    5.3795946623E-01    5.2138819981E-01    5.0493187109E-01
    4.8861631130E-01    4.7246586918E-01    4.5650330676E-01    4.4074971359E-01
    4.2522444082E-01    4.0994505655E-01    3.9492732325E-01    3.8018519806E-01
    3.6573085601E-01    3.5157473603E-01    3.3772560914E-01    3.2419066744E-01
    3.1097563234E-01    2.9808487973E-01    2.8552157896E-01    2.7328784244E-01
    2.6138488129E-01    2.4981316225E-01    2.3857256011E-01    2.2766249919E-01
    2.1708207633E-01    2.0683015607E-01    1.9690542723E-01    1.8730635296E-01
    1.7803094036E-01    1.6907667433E-01    1.6044054512E-01    1.5211907717E-01
    1.4410835771E-01    1.3640406543E-01    1.2900149877E-01    1.2189560408E-01
    1.1508100338E-01    1.0855202191E-01    1.0230271513E-01    9.6326895343E-02
    9.0618157874E-02    8.5169906597E-02    7.9975378951E-02    7.5027670290E-02
    7.0319757554E-02    6.5844522225E-02    6.1594772511E-02    5.7563264743E-02
    5.3742723930E-02    5.0125863456E-02    4.6705403879E-02    4.3474090821E-02
    4.0424711915E-02    3.7550112796E-02    3.4843212125E-02    3.2297015629E-02
    2.9904629155E-02    2.7659270738E-02    2.5554281672E-02    2.3583136603E-02
    2.1739452649E-02    2.0016997556E-02    1.8409696917E-02    1.6911640467E-02
    1.5517087486E-02    1.4220471343E-02    1.3016403209E-02    1.1899674975E-02
    1.0865261421E-02    9.9083216744E-03    9.0241999869E-03    8.2084258969E-03
    7.4567137931E-03    6.7649619341E-03    6.1292509573E-03    5.5458419136E-03
    5.0111738627E-03    4.5218610599E-03    4.0746897665E-03    3.6666147112E-03
    3.2947552306E-03    2.9563911174E-03    2.6489582021E-03    2.3700436961E-03
    2.1173813242E-03    1.8888462743E-03    1.6824499931E-03    1.4963348576E-03
    1.3287687506E-03    1.1781395704E-03    1.0429497027E-03    9.2181048432E-04
    8.1343668430E-04    7.1664102945E-04    6.3032879826E-04    5.5349250592E-04
    4.8520670076E-04    4.2462289094E-04    3.7096461723E-04    3.2352268633E-04
    2.8165057610E-04    2.4476002260E-04    2.1231679610E-04    1.8383667164E-04
    1.5888159753E-04    1.3705606354E-04    1.1800366877E-04    1.0140388792E-04
    8.6969033726E-05    7.4441409388E-05    6.3590651322E-05    5.4211250376E-05
    4.6120249579E-05    3.9155110008E-05    3.3171737731E-05    2.8042664314E-05
    2.3655373174E-05    1.9910763930E-05    1.6721746927E-05    1.4011960094E-05
    1.1714600464E-05    9.7713627725E-06    8.1314777921E-06    6.7508432649E-06
    5.5912405477E-06    4.6196303668E-06    3.8075213697E-06    3.1304054609E-06
    2.5672542270E-06    2.1000710699E-06    1.7134939879E-06    1.3944442646E-06
    1.1318166375E-06    9.1620683173E-07    7.3967264549E-07    5.9552506757E-07
    4.7814619110E-07    3.8283095941E-07    3.0565003883E-07    2.4333135942E-07
    1.9315809638E-07    1.5288108271E-07    1.2064384698E-07    9.4918659051E-08
    7.4452141148E-08    5.8219162534E-08    4.5383883052E-08    3.5266945006E-08
    2.7317934444E-08    2.1092342737E-08    1.6232358016E-08    1.2450904352E-08
    9.5184251337E-09    7.2519768240E-09    5.5062607702E-09    4.1662747807E-09
    3.1413134493E-09    2.3600873671E-09    1.7667670474E-09    1.3177881871E-09
    9.7928135572E-10    7.2501184812E-10    5.3473471988E-10    3.9288638302E-10
   </PP_CHI.2>
   <PP_CHI.3
       type="real"
       size="1164"
       columns="4"
       index="3"
       occupation=" 4.000"
       pseudo_energy="   -0.3316295112E+00"
       label="5D"
       l="2" >
    0.0000000000E+00    3.6618131063E-16    3.8017382982E-16    3.9470103114E-16
    4.0978334583E-16    4.2544198589E-16    4.4169897385E-16    4.5857717380E-16
    4.7610032347E-16    4.9429306769E-16    5.1318099301E-16    5.3279066367E-16
    5.5314965901E-16    5.7428661222E-16    5.9623125063E-16    6.1901443750E-16
    6.4266821545E-16    6.6722585149E-16    6.9272188385E-16    7.1919217052E-16
    7.4667393972E-16    7.7520584220E-16    8.0482800566E-16    8.3558209115E-16
    8.6751135166E-16    9.0066069299E-16    9.3507673686E-16    9.7080788649E-16
    1.0079043947E-15    1.0464184346E-15    1.0864041729E-15    1.1279178461E-15
    1.1710178396E-15    1.2157647700E-15    1.2622215700E-15    1.3104535771E-15
    1.3605286255E-15    1.4125171415E-15    1.4664922425E-15    1.5225298400E-15
    1.5807087459E-15    1.6411107841E-15    1.7038209047E-15    1.7689273044E-15
    1.8365215495E-15    1.9066987058E-15    1.9795574714E-15    2.0552003159E-15
    2.1337336246E-15    2.2152678478E-15    2.2999176566E-15    2.3878021036E-15
    2.4790447909E-15    2.5737740435E-15    2.6721230900E-15    2.7742302499E-15
    2.8802391284E-15    2.9902988179E-15    3.1045641079E-15    3.2231957028E-15
    3.3463604480E-15    3.4742315640E-15    3.6069888907E-15    3.7448191400E-15
    3.8879161585E-15    4.0364811998E-15    4.1907232080E-15    4.3508591114E-15
    4.5171141275E-15    4.6897220798E-15    4.8689257267E-15    5.0549771029E-15
    5.2481378737E-15    5.4486797033E-15    5.6568846368E-15    5.8730454966E-15
    6.0974662945E-15    6.3304626594E-15    6.5723622807E-15    6.8235053696E-15
    7.0842451376E-15    7.3549482928E-15    7.6359955562E-15    7.9277821969E-15
    8.2307185878E-15    8.5452307833E-15    8.8717611179E-15    9.2107688287E-15
    9.5627307012E-15    9.9281417397E-15    1.0307515864E-14    1.0701386631E-14
    1.1110307987E-14    1.1534855044E-14    1.1975624893E-14    1.2433237437E-14
    1.2908336271E-14    1.3401589580E-14    1.3913691083E-14    1.4445361008E-14
    1.4997347102E-14    1.5570425687E-14    1.6165402749E-14    1.6783115073E-14
    1.7424431419E-14    1.8090253743E-14    1.8781518468E-14    1.9499197799E-14
    2.0244301090E-14    2.1017876266E-14    2.1821011295E-14    2.2654835716E-14
    2.3520522235E-14    2.4419288364E-14    2.5352398142E-14    2.6321163908E-14
    2.7326948149E-14    2.8371165414E-14    2.9455284307E-14    3.0580829547E-14
    3.1749384119E-14    3.2962591495E-14    3.4222157948E-14    3.5529854951E-14
    3.6887521667E-14    3.8297067541E-14    3.9760474977E-14    4.1279802134E-14
    4.2857185816E-14    4.4494844479E-14    4.6195081350E-14    4.7960287668E-14
    4.9792946044E-14    5.1695633957E-14    5.3671027375E-14    5.5721904521E-14
    5.7851149778E-14    6.0061757749E-14    6.2356837466E-14    6.4739616762E-14
    6.7213446813E-14    6.9781806852E-14    7.2448309057E-14    7.5216703636E-14
    7.8090884102E-14    8.1074892743E-14    8.4172926313E-14    8.7389341934E-14
    9.0728663219E-14    9.4195586639E-14    9.7794988127E-14    1.0153192993E-13
    1.0541166775E-13    1.0943965810E-13    1.1362156600E-13    1.1796327296E-13
    1.2247088521E-13    1.2715074232E-13    1.3200942612E-13    1.3705376994E-13
    1.4229086820E-13    1.4772808645E-13    1.5337307167E-13    1.5923376304E-13
    1.6531840314E-13    1.7163554949E-13    1.7819408661E-13    1.8500323854E-13
    1.9207258176E-13    1.9941205870E-13    2.0703199171E-13    2.1494309758E-13
    2.2315650261E-13    2.3168375824E-13    2.4053685735E-13    2.4972825105E-13
    2.5927086625E-13    2.6917812385E-13    2.7946395754E-13    2.9014283348E-13
    3.0122977059E-13    3.1274036171E-13    3.2469079551E-13    3.3709787924E-13
    3.4997906243E-13    3.6335246134E-13    3.7723688454E-13    3.9165185927E-13
    4.0661765898E-13    4.2215533178E-13    4.3828673009E-13    4.5503454134E-13
    4.7242231990E-13    4.9047452021E-13    5.0921653114E-13    5.2867471174E-13
    5.4887642827E-13    5.6985009274E-13    5.9162520281E-13    6.1423238332E-13
    6.3770342934E-13    6.6207135090E-13    6.8737041941E-13    7.1363621584E-13
    7.4090568081E-13    7.6921716649E-13    7.9861049058E-13    8.2912699227E-13
    8.6080959043E-13    8.9370284394E-13    9.2785301435E-13    9.6330813096E-13
    1.0001180584E-12    1.0383345666E-12    1.0780114040E-12    1.1192043725E-12
    1.1619714066E-12    1.2063726545E-12    1.2524705627E-12    1.3003299641E-12
    1.3500181687E-12    1.4016050589E-12    1.4551631871E-12    1.5107678784E-12
    1.5684973360E-12    1.6284327514E-12    1.6906584187E-12    1.7552618530E-12
    1.8223339135E-12    1.8919689314E-12    1.9642648423E-12    2.0393233244E-12
    2.1172499409E-12    2.1981542891E-12    2.2821501539E-12    2.3693556685E-12
    2.4598934798E-12    2.5538909218E-12    2.6514801936E-12    2.7527985464E-12
    2.8579884757E-12    2.9671979222E-12    3.0805804798E-12    3.1982956112E-12
    3.3205088728E-12    3.4473921472E-12    3.5791238848E-12    3.7158893551E-12
    3.8578809070E-12    4.0052982397E-12    4.1583486829E-12    4.3172474891E-12
    4.4822181359E-12    4.6534926405E-12    4.8313118858E-12    5.0159259595E-12
    5.2075945055E-12    5.4065870892E-12    5.6131835768E-12    5.8276745286E-12
    6.0503616079E-12    6.2815580050E-12    6.5215888779E-12    6.7707918096E-12
    7.0295172827E-12    7.2981291727E-12    7.5770052591E-12    7.8665377574E-12
    8.1671338703E-12    8.4792163608E-12    8.8032241461E-12    9.1396129155E-12
    9.4888557712E-12    9.8514438935E-12    1.0227887232E-11    1.0618715221E-11
    1.1024477528E-11    1.1445744822E-11    1.1883109580E-11    1.2337186919E-11
    1.2808615459E-11    1.3298058224E-11    1.3806203574E-11    1.4333766171E-11
    1.4881487988E-11    1.5450139349E-11    1.6040520013E-11    1.6653460300E-11
    1.7289822258E-11    1.7950500877E-11    1.8636425343E-11    1.9348560352E-11
    2.0087907460E-11    2.0855506497E-11    2.1652437023E-11    2.2479819855E-11
    2.3338818636E-11    2.4230641473E-11    2.5156542640E-11    2.6117824337E-11
    2.7115838525E-11    2.8151988826E-11    2.9227732496E-11    3.0344582478E-11
    3.1504109524E-11    3.2707944411E-11    3.3957780230E-11    3.5255374767E-11
    3.6602552980E-11    3.8001209558E-11    3.9453311592E-11    4.0960901340E-11
    4.2526099098E-11    4.4151106182E-11    4.5838208027E-11    4.7589777396E-11
    4.9408277722E-11    5.1296266570E-11    5.3256399235E-11    5.5291432475E-11
    5.7404228390E-11    5.9597758448E-11    6.1875107661E-11    6.4239478924E-11
    6.6694197524E-11    6.9242715812E-11    7.1888618060E-11    7.4635625505E-11
    7.7487601575E-11    8.0448557331E-11    8.3522657104E-11    8.6714224351E-11
    9.0027747738E-11    9.3467887451E-11    9.7039481752E-11    1.0074755378E-10
    1.0459731863E-10    1.0859419065E-10    1.1274379110E-10    1.1705195605E-10
    1.2152474456E-10    1.2616844721E-10    1.3098959498E-10    1.3599496840E-10
    1.4119160709E-10    1.4658681969E-10    1.5218819408E-10    1.5800360814E-10
    1.6404124072E-10    1.7030958325E-10    1.7681745162E-10    1.8357399856E-10
    1.9058872660E-10    1.9787150133E-10    2.0543256536E-10    2.1328255266E-10
    2.2143250357E-10    2.2989388030E-10    2.3867858303E-10    2.4779896670E-10
    2.5726785833E-10    2.6709857511E-10    2.7730494309E-10    2.8790131664E-10
    2.9890259865E-10    3.1032426147E-10    3.2218236868E-10    3.3449359769E-10
    3.4727526316E-10    3.6054534141E-10    3.7432249565E-10    3.8862610225E-10
    4.0347627800E-10    4.1889390838E-10    4.3490067694E-10    4.5151909583E-10
    4.6877253740E-10    4.8668526712E-10    5.0528247768E-10    5.2459032445E-10
    5.4463596222E-10    5.6544758345E-10    5.8705445786E-10    6.0948697364E-10
    6.3277668017E-10    6.5695633238E-10    6.8205993684E-10    7.0812279959E-10
    7.3518157574E-10    7.6327432112E-10    7.9244054570E-10    8.2272126922E-10
    8.5415907886E-10    8.8679818914E-10    9.2068450411E-10    9.5586568189E-10
    9.9239120171E-10    1.0303124335E-09    1.0696827101E-09    1.1105574024E-09
    1.1529939970E-09    1.1970521773E-09    1.2427939071E-09    1.2902835181E-09
    1.3395878004E-09    1.3907760959E-09    1.4439203966E-09    1.4990954450E-09
    1.5563788401E-09    1.6158511458E-09    1.6775960047E-09    1.7417002553E-09
    1.8082540545E-09    1.8773510044E-09    1.9490882835E-09    2.0235667840E-09
    2.1008912532E-09    2.1811704409E-09    2.2645172528E-09    2.3510489084E-09
    2.4408871068E-09    2.5341581973E-09    2.6309933572E-09    2.7315287765E-09
    2.8359058490E-09    2.9442713716E-09    3.0567777506E-09    3.1735832159E-09
    3.2948520437E-09    3.4207547876E-09    3.5514685182E-09    3.6871770724E-09
    3.8280713117E-09    3.9743493909E-09    4.1262170367E-09    4.2838878367E-09
    4.4475835405E-09    4.6175343707E-09    4.7939793474E-09    4.9771666240E-09
    5.1673538362E-09    5.3648084646E-09    5.5698082105E-09    5.7826413868E-09
    6.0036073232E-09    6.2330167874E-09    6.4711924221E-09    6.7184691986E-09
    6.9751948881E-09    7.2417305508E-09    7.5184510436E-09    7.8057455471E-09
    8.1040181134E-09    8.4136882340E-09    8.7351914300E-09    9.0689798641E-09
    9.4155229774E-09    9.7753081487E-09    1.0148841381E-08    1.0536648011E-08
    1.0939273451E-08    1.1357283953E-08    1.1791267408E-08    1.2241834170E-08
    1.2709617917E-08    1.3195276537E-08    1.3699493063E-08    1.4222976622E-08
    1.4766463440E-08    1.5330717878E-08    1.5916533500E-08    1.6524734195E-08
    1.7156175335E-08    1.7811744976E-08    1.8492365108E-08    1.9198992951E-08
    1.9932622303E-08    2.0694284936E-08    2.1485052047E-08    2.2306035765E-08
    2.3158390715E-08    2.4043315642E-08    2.4962055097E-08    2.5915901185E-08
    2.6906195386E-08    2.7934330439E-08    2.9001752302E-08    3.0109962183E-08
    3.1260518655E-08    3.2455039844E-08    3.3695205708E-08    3.4982760399E-08
    3.6319514712E-08    3.7707348636E-08    3.9148213998E-08    4.0644137204E-08
    4.2197222091E-08    4.3809652889E-08    4.5483697286E-08    4.7221709621E-08
    4.9026134197E-08    5.0899508714E-08    5.2844467839E-08    5.4863746914E-08
    5.6960185800E-08    5.9136732870E-08    6.1396449158E-08    6.3742512662E-08
    6.6178222813E-08    6.8707005117E-08    7.1332415968E-08    7.4058147655E-08
    7.6888033549E-08    7.9826053497E-08    8.2876339420E-08    8.6043181117E-08
    8.9331032306E-08    9.2744516882E-08    9.6288435419E-08    9.9967771925E-08
    1.0378770085E-07    1.0775359435E-07    1.1187102986E-07    1.1614579793E-07
    1.2058391038E-07    1.2519160871E-07    1.2997537293E-07    1.3494193065E-07
    1.4009826653E-07    1.4545163213E-07    1.5100955607E-07    1.5677985464E-07
    1.6277064281E-07    1.6899034560E-07    1.7544770994E-07    1.8215181699E-07
    1.8911209488E-07    1.9633833200E-07    2.0384069075E-07    2.1162972180E-07
    2.1971637897E-07    2.2811203461E-07    2.3682849561E-07    2.4587801997E-07
    2.5527333405E-07    2.6502765050E-07    2.7515468676E-07    2.8566868444E-07
    2.9658442926E-07    3.0791727191E-07    3.1968314958E-07    3.3189860841E-07
    3.4458082673E-07    3.5774763921E-07    3.7141756196E-07    3.8560981854E-07
    4.0034436700E-07    4.1564192793E-07    4.3152401362E-07    4.4801295828E-07
    4.6513194944E-07    4.8290506057E-07    5.0135728490E-07    5.2051457060E-07
    5.4040385719E-07    5.6105311350E-07    5.8249137694E-07    6.0474879431E-07
    6.2785666424E-07    6.5184748112E-07    6.7675498084E-07    7.0261418819E-07
    7.2946146609E-07    7.5733456674E-07    7.8627268465E-07    8.1631651178E-07
    8.4750829471E-07    8.7989189403E-07    9.1351284602E-07    9.4841842663E-07
    9.8465771795E-07    1.0222816772E-06    1.0613432084E-06    1.1018972366E-06
    1.1440007852E-06    1.1877130561E-06    1.2330955129E-06    1.2802119672E-06
    1.3291286685E-06    1.3799143969E-06    1.4326405603E-06    1.4873812944E-06
    1.5442135670E-06    1.6032172860E-06    1.6644754122E-06    1.7280740753E-06
    1.7941026951E-06    1.8626541074E-06    1.9338246943E-06    2.0077145195E-06
    2.0844274692E-06    2.1640713979E-06    2.2467582797E-06    2.3326043663E-06
    2.4217303496E-06    2.5142615318E-06    2.6103280012E-06    2.7100648151E-06
    2.8136121893E-06    2.9211156954E-06    3.0327264652E-06    3.1486014027E-06
    3.2689034050E-06    3.3938015910E-06    3.5234715386E-06    3.6580955317E-06
    3.7978628161E-06    3.9429698652E-06    4.0936206563E-06    4.2500269567E-06
    4.4124086210E-06    4.5809939005E-06    4.7560197629E-06    4.9377322257E-06
    5.1263867014E-06    5.3222483559E-06    5.5255924815E-06    5.7367048824E-06
    5.9558822768E-06    6.1834327133E-06    6.4196760028E-06    6.6649441682E-06
    6.9195819097E-06    7.1839470894E-06    7.4584112329E-06    7.7433600510E-06
    8.0391939810E-06    8.3463287488E-06    8.6651959518E-06    8.9962436649E-06
    9.3399370691E-06    9.6967591040E-06    1.0067211145E-05    1.0451813709E-05
    1.0851107179E-05    1.1265652568E-05    1.1696032304E-05    1.2142851045E-05
    1.2606736529E-05    1.3088340451E-05    1.3588339383E-05    1.4107435715E-05
    1.4646358647E-05    1.5205865204E-05    1.5786741302E-05    1.6389802851E-05
    1.7015896890E-05    1.7665902784E-05    1.8340733449E-05    1.9041336636E-05
    1.9768696254E-05    2.0523833752E-05    2.1307809547E-05    2.2121724511E-05
    2.2966721513E-05    2.3843987015E-05    2.4754752739E-05    2.5700297386E-05
    2.6681948429E-05    2.7701083970E-05    2.8759134668E-05    2.9857585740E-05
    3.0997979041E-05    3.2181915217E-05    3.3411055947E-05    3.4687126268E-05
    3.6011916981E-05    3.7387287158E-05    3.8815166742E-05    4.0297559242E-05
    4.1836544533E-05    4.3434281760E-05    4.5093012359E-05    4.6815063180E-05
    4.8602849744E-05    5.0458879608E-05    5.2385755870E-05    5.4386180800E-05
    5.6462959610E-05    5.8619004369E-05    6.0857338062E-05    6.3181098808E-05
    6.5593544230E-05    6.8098056003E-05    7.0698144560E-05    7.3397453984E-05
    7.6199767085E-05    7.9109010666E-05    8.2129260991E-05    8.5264749455E-05
    8.8519868476E-05    9.1899177600E-05    9.5407409845E-05    9.9049478279E-05
    1.0283048285E-04    1.0675571747E-04    1.1083067736E-04    1.1506106671E-04
    1.1945280655E-04    1.2401204300E-04    1.2874515579E-04    1.3365876710E-04
    1.3875975074E-04    1.4405524168E-04    1.4955264590E-04    1.5525965072E-04
    1.6118423535E-04    1.6733468197E-04    1.7371958721E-04    1.8034787397E-04
    1.8722880381E-04    1.9437198967E-04    2.0178740922E-04    2.0948541857E-04
    2.1747676655E-04    2.2577260956E-04    2.3438452692E-04    2.4332453678E-04
    2.5260511273E-04    2.6223920088E-04    2.7224023770E-04    2.8262216848E-04
    2.9339946644E-04    3.0458715261E-04    3.1620081643E-04    3.2825663709E-04
    3.4077140573E-04    3.5376254835E-04    3.6724814968E-04    3.8124697792E-04
    3.9577851027E-04    4.1086295963E-04    4.2652130202E-04    4.4277530529E-04
    4.5964755863E-04    4.7716150337E-04    4.9534146477E-04    5.1421268511E-04
    5.3380135785E-04    5.5413466317E-04    5.7524080476E-04    5.9714904793E-04
    6.1988975917E-04    6.4349444716E-04    6.6799580516E-04    6.9342775513E-04
    7.1982549330E-04    7.4722553746E-04    7.7566577600E-04    8.0518551863E-04
    8.3582554907E-04    8.6762817952E-04    9.0063730715E-04    9.3489847265E-04
    9.7045892087E-04    1.0073676636E-03    1.0456755446E-03    1.0854353070E-03
    1.1267016634E-03    1.1695313675E-03    1.2139832897E-03    1.2601184941E-03
    1.3080003190E-03    1.3576944599E-03    1.4092690558E-03    1.4627947779E-03
    1.5183449221E-03    1.5759955045E-03    1.6358253598E-03    1.6979162439E-03
    1.7623529396E-03    1.8292233659E-03    1.8986186915E-03    1.9706334518E-03
    2.0453656701E-03    2.1229169830E-03    2.2033927701E-03    2.2869022879E-03
    2.3735588085E-03    2.4634797629E-03    2.5567868890E-03    2.6536063851E-03
    2.7540690678E-03    2.8583105355E-03    2.9664713376E-03    3.0786971488E-03
    3.1951389497E-03    3.3159532124E-03    3.4413020936E-03    3.5713536323E-03
    3.7062819553E-03    3.8462674882E-03    3.9914971742E-03    4.1421646987E-03
    4.2984707221E-03    4.4606231189E-03    4.6288372253E-03    4.8033360932E-03
    4.9843507533E-03    5.1721204853E-03    5.3668930966E-03    5.5689252098E-03
    5.7784825577E-03    5.9958402881E-03    6.2212832771E-03    6.4551064513E-03
    6.6976151192E-03    6.9491253129E-03    7.2099641379E-03    7.4804701341E-03
    7.7609936456E-03    8.0518972013E-03    8.3535559049E-03    8.6663578361E-03
    8.9907044614E-03    9.3270110555E-03    9.6757071342E-03    1.0037236897E-02
    1.0412059679E-02    1.0800650419E-02    1.1203500131E-02    1.1621116391E-02
    1.2054023836E-02    1.2502764668E-02    1.2967899174E-02    1.3450006255E-02
    1.3949683960E-02    1.4467550045E-02    1.5004242521E-02    1.5560420229E-02
    1.6136763419E-02    1.6733974332E-02    1.7352777801E-02    1.7993921853E-02
    1.8658178320E-02    1.9346343459E-02    2.0059238578E-02    2.0797710666E-02
    2.1562633026E-02    2.2354905921E-02    2.3175457214E-02    2.4025243010E-02
    2.4905248308E-02    2.5816487640E-02    2.6760005719E-02    2.7736878075E-02
    2.8748211694E-02    2.9795145644E-02    3.0878851692E-02    3.2000534919E-02
    3.3161434309E-02    3.4362823331E-02    3.5606010503E-02    3.6892339931E-02
    3.8223191827E-02    3.9599983001E-02    4.1024167317E-02    4.2497236125E-02
    4.4020718646E-02    4.5596182319E-02    4.7225233104E-02    4.8909515727E-02
    5.0650713879E-02    5.2450550349E-02    5.4310787086E-02    5.6233225201E-02
    5.8219704878E-02    6.0272105210E-02    6.2392343937E-02    6.4582377092E-02
    6.6844198533E-02    6.9179839370E-02    7.1591367263E-02    7.4080885594E-02
    7.6650532496E-02    7.9302479739E-02    8.2038931447E-02    8.4862122662E-02
    8.7774317712E-02    9.0777808404E-02    9.3874912005E-02    9.7067969014E-02
    1.0035934072E-01    1.0375140649E-01    1.0724656087E-01    1.1084721035E-01
    1.1455576991E-01    1.1837465923E-01    1.2230629867E-01    1.2635310484E-01
    1.3051748595E-01    1.3480183668E-01    1.3920853286E-01    1.4373992561E-01
    1.4839833523E-01    1.5318604464E-01    1.5810529239E-01    1.6315826528E-01
    1.6834709056E-01    1.7367382766E-01    1.7914045944E-01    1.8474888306E-01
    1.9050090032E-01    1.9639820752E-01    2.0244238487E-01    2.0863488542E-01
    2.1497702345E-01    2.2146996246E-01    2.2811470261E-01    2.3491206776E-01
    2.4186269194E-01    2.4896700549E-01    2.5622522070E-01    2.6363731704E-01
    2.7120302601E-01    2.7892181566E-01    2.8679287471E-01    2.9481509649E-01
    3.0298706251E-01    3.1130702597E-01    3.1977289501E-01    3.2838221599E-01
    3.3713215669E-01    3.4601948961E-01    3.5504057543E-01    3.6419134670E-01
    3.7346729188E-01    3.8286343983E-01    3.9237434484E-01    4.0199407235E-01
    4.1171618551E-01    4.2153373263E-01    4.3143923579E-01    4.4142468062E-01
    4.5148150751E-01    4.6160060441E-01    4.7177230133E-01    4.8198636674E-01
    4.9223200610E-01    5.0249786263E-01    5.1277202053E-01    5.2304201088E-01
    5.3329482034E-01    5.4351690287E-01    5.5369419464E-01    5.6381213234E-01
    5.7385567500E-01    5.8380932950E-01    5.9365718000E-01    6.0338292125E-01
    6.1296989609E-01    6.2240113712E-01    6.3165941263E-01    6.4072727689E-01
    6.4958712481E-01    6.5822125094E-01    6.6661191279E-01    6.7474139844E-01
    6.8259209822E-01    6.9014658048E-01    6.9738767104E-01    7.0429853629E-01
    7.1086276944E-01    7.1706447977E-01    7.2288838427E-01    7.2831990137E-01
    7.3334524611E-01    7.3795152626E-01    7.4212683858E-01    7.4586036465E-01
    7.4914246529E-01    7.5196477283E-01    7.5432028012E-01    7.5620342542E-01
    7.5761017180E-01    7.5853808008E-01    7.5898637389E-01    7.5895599556E-01
    7.5844965140E-01    7.5747184489E-01    7.5602889635E-01    7.5412894743E-01
    7.5178194899E-01    7.4899963085E-01    7.4579545195E-01    7.4218452955E-01
    7.3818354644E-01    7.3381063506E-01    7.2908523802E-01    7.2402794459E-01
    7.1866030345E-01    7.1300461234E-01    7.0708368596E-01    7.0092060425E-01
    6.9453844380E-01    6.8795999641E-01    6.8120747925E-01    6.7430224264E-01
    6.6726448202E-01    6.6011296191E-01    6.5286476037E-01    6.4553504333E-01
    6.3813687859E-01    6.3068109940E-01    6.2317622747E-01    6.1562846450E-01
    6.0804176003E-01    6.0041796164E-01    5.9275705079E-01    5.8505746439E-01
    5.7731649811E-01    5.6953078248E-01    5.6169681777E-01    5.5381154741E-01
    5.4587294360E-01    5.3788057306E-01    5.2983610498E-01    5.2174360743E-01
    5.1360853661E-01    5.0543636356E-01    4.9723244326E-01    4.8900201597E-01
    4.8075020903E-01    4.7248203870E-01    4.6420241178E-01    4.5591612716E-01
    4.4762787730E-01    4.3934224968E-01    4.3106372817E-01    4.2279669446E-01
    4.1454542941E-01    4.0631411457E-01    3.9810683360E-01    3.8992757391E-01
    3.8178022829E-01    3.7366859665E-01    3.6559638794E-01    3.5756722209E-01
    3.4958463212E-01    3.4165206640E-01    3.3377289093E-01    3.2595039182E-01
    3.1818777776E-01    3.1048818256E-01    3.0285466777E-01    2.9529022511E-01
    2.8779777894E-01    2.8038018843E-01    2.7304024956E-01    2.6578069665E-01
    2.5860420352E-01    2.5151338396E-01    2.4451079160E-01    2.3759891892E-01
    2.3078019533E-01    2.2405698433E-01    2.1743157961E-01    2.1090620002E-01
    2.0448298368E-01    1.9816398089E-01    1.9195114641E-01    1.8584633087E-01
    1.7985127175E-01    1.7396758411E-01    1.6819675126E-01    1.6254011576E-01
    1.5699887088E-01    1.5157405293E-01    1.4626653460E-01    1.4107701960E-01
    1.3600603860E-01    1.3105394684E-01    1.2622092323E-01    1.2150697113E-01
    1.1691192071E-01    1.1243543283E-01    1.0807700433E-01    1.0383597463E-01
    9.9711533446E-02    9.5702729446E-02    9.1808479694E-02    8.8027579654E-02
    8.4358713574E-02    8.0800465088E-02    7.7351327824E-02    7.4009715876E-02
    7.0773973987E-02    6.7642387298E-02    6.4613190568E-02    6.1684576748E-02
    5.8854704852E-02    5.6121707064E-02    5.3483695051E-02    5.0938765476E-02
    4.8485004707E-02    4.6120492769E-02    4.3843306570E-02    4.1651522435E-02
    3.9543218288E-02    3.7516474487E-02    3.5569375692E-02    3.3700011016E-02
    3.1906474573E-02    3.0186865733E-02    2.8539289279E-02    2.6961855538E-02
    2.5452680529E-02    2.4009886209E-02    2.2631600826E-02    2.1315959426E-02
    2.0061104528E-02    1.8865186975E-02    1.7726366962E-02    1.6642815237E-02
    1.5612714465E-02    1.4634260731E-02    1.3705665167E-02    1.2825155681E-02
    1.1990978761E-02    1.1201401323E-02    1.0454712596E-02    9.7492259985E-03
    9.0832809953E-03    8.4552449155E-03    7.8635147029E-03    7.3065185898E-03
    6.7827176747E-03    6.2906073936E-03    5.8287188724E-03    5.3956201533E-03
    4.9899172882E-03    4.6102552944E-03    4.2553189712E-03    3.9238335743E-03
    3.6145653502E-03    3.3263219316E-03    3.0579525968E-03    2.8083483962E-03
    2.5764421526E-03    2.3612083383E-03    2.1616628374E-03    1.9768625974E-03
    1.8059051795E-03    1.6479282131E-03    1.5021087618E-03    1.3676626098E-03
    1.2438434744E-03    1.1299421533E-03    1.0252856130E-03    9.2923602663E-04
    8.4118976738E-04    7.6057636431E-04    6.8685742766E-04    6.1952554929E-04
   </PP_CHI.3>
   <PP_CHI.4
       type="real"
       size="1164"
       columns="4"
       index="4"
       occupation=" 2.000"
       pseudo_energy="   -0.4223354726E+00"
       label="6S"
       l="0" >
    0.0000000000E+00   -4.0326414934E-06   -4.0833658790E-06   -4.1347282989E-06
   -4.1867367784E-06   -4.2393994441E-06   -4.2927245245E-06   -4.3467203520E-06
   -4.4013953633E-06   -4.4567581016E-06   -4.5128172174E-06   -4.5695814701E-06
   -4.6270597291E-06   -4.6852609757E-06   -4.7441943039E-06   -4.8038689220E-06
   -4.8642941545E-06   -4.9254794428E-06   -4.9874343472E-06   -5.0501685485E-06
   -5.1136918489E-06   -5.1780141740E-06   -5.2431455743E-06   -5.3090962269E-06
   -5.3758764365E-06   -5.4434966377E-06   -5.5119673964E-06   -5.5812994112E-06
   -5.6515035153E-06   -5.7225906784E-06   -5.7945720080E-06   -5.8674587512E-06
   -5.9412622967E-06   -6.0159941766E-06   -6.0916660678E-06   -6.1682897943E-06
   -6.2458773285E-06   -6.3244407938E-06   -6.4039924659E-06   -6.4845447747E-06
   -6.5661103070E-06   -6.6487018073E-06   -6.7323321807E-06   -6.8170144948E-06
   -6.9027619813E-06   -6.9895880383E-06   -7.0775062328E-06   -7.1665303019E-06
   -7.2566741560E-06   -7.3479518802E-06   -7.4403777369E-06   -7.5339661677E-06
   -7.6287317960E-06   -7.7246894292E-06   -7.8218540608E-06   -7.9202408731E-06
   -8.0198652391E-06   -8.1207427253E-06   -8.2228890941E-06   -8.3263203061E-06
   -8.4310525225E-06   -8.5371021081E-06   -8.6444856332E-06   -8.7532198768E-06
   -8.8633218289E-06   -8.9748086929E-06   -9.0876978891E-06   -9.2020070566E-06
   -9.3177540564E-06   -9.4349569742E-06   -9.5536341233E-06   -9.6738040471E-06
   -9.7954855225E-06   -9.9186975624E-06   -1.0043459419E-05   -1.0169790587E-05
   -1.0297710805E-05   -1.0427240061E-05   -1.0558398595E-05   -1.0691206900E-05
   -1.0825685727E-05   -1.0961856091E-05   -1.1099739266E-05   -1.1239356799E-05
   -1.1380730503E-05   -1.1523882470E-05   -1.1668835068E-05   -1.1815610944E-05
   -1.1964233034E-05   -1.2114724559E-05   -1.2267109035E-05   -1.2421410271E-05
   -1.2577652378E-05   -1.2735859769E-05   -1.2896057164E-05   -1.3058269594E-05
   -1.3222522405E-05   -1.3388841262E-05   -1.3557252153E-05   -1.3727781392E-05
   -1.3900455625E-05   -1.4075301832E-05   -1.4252347334E-05   -1.4431619794E-05
   -1.4613147224E-05   -1.4796957988E-05   -1.4983080807E-05   -1.5171544763E-05
   -1.5362379303E-05   -1.5555614247E-05   -1.5751279786E-05   -1.5949406496E-05
   -1.6150025332E-05   -1.6353167643E-05   -1.6558865169E-05   -1.6767150052E-05
   -1.6978054836E-05   -1.7191612476E-05   -1.7407856340E-05   -1.7626820217E-05
   -1.7848538321E-05   -1.8073045295E-05   -1.8300376219E-05   -1.8530566614E-05
   -1.8763652448E-05   -1.8999670140E-05   -1.9238656570E-05   -1.9480649079E-05
   -1.9725685479E-05   -1.9973804058E-05   -2.0225043584E-05   -2.0479443314E-05
   -2.0737042999E-05   -2.0997882888E-05   -2.1262003740E-05   -2.1529446823E-05
   -2.1800253926E-05   -2.2074467363E-05   -2.2352129981E-05   -2.2633285164E-05
   -2.2917976844E-05   -2.3206249504E-05   -2.3498148188E-05   -2.3793718506E-05
   -2.4093006640E-05   -2.4396059356E-05   -2.4702924005E-05   -2.5013648537E-05
   -2.5328281502E-05   -2.5646872063E-05   -2.5969469999E-05   -2.6296125718E-05
   -2.6626890260E-05   -2.6961815308E-05   -2.7300953194E-05   -2.7644356909E-05
   -2.7992080112E-05   -2.8344177134E-05   -2.8700702991E-05   -2.9061713391E-05
   -2.9427264743E-05   -2.9797414165E-05   -3.0172219494E-05   -3.0551739293E-05
   -3.0936032864E-05   -3.1325160252E-05   -3.1719182260E-05   -3.2118160455E-05
   -3.2522157178E-05   -3.2931235554E-05   -3.3345459503E-05   -3.3764893747E-05
   -3.4189603825E-05   -3.4619656097E-05   -3.5055117761E-05   -3.5496056859E-05
   -3.5942542287E-05   -3.6394643811E-05   -3.6852432071E-05   -3.7315978599E-05
   -3.7785355825E-05   -3.8260637088E-05   -3.8741896655E-05   -3.9229209721E-05
   -3.9722652431E-05   -4.0222301886E-05   -4.0728236157E-05   -4.1240534298E-05
   -4.1759276355E-05   -4.2284543385E-05   -4.2816417460E-05   -4.3354981688E-05
   -4.3900320219E-05   -4.4452518265E-05   -4.5011662106E-05   -4.5577839111E-05
   -4.6151137746E-05   -4.6731647590E-05   -4.7319459348E-05   -4.7914664868E-05
   -4.8517357152E-05   -4.9127630371E-05   -4.9745579882E-05   -5.0371302240E-05
   -5.1004895217E-05   -5.1646457812E-05   -5.2296090270E-05   -5.2953894099E-05
   -5.3619972081E-05   -5.4294428292E-05   -5.4977368117E-05   -5.5668898268E-05
   -5.6369126797E-05   -5.7078163116E-05   -5.7796118013E-05   -5.8523103672E-05
   -5.9259233683E-05   -6.0004623070E-05   -6.0759388300E-05   -6.1523647308E-05
   -6.2297519510E-05   -6.3081125826E-05   -6.3874588695E-05   -6.4678032098E-05
   -6.5491581574E-05   -6.6315364242E-05   -6.7149508820E-05   -6.7994145645E-05
   -6.8849406692E-05   -6.9715425598E-05   -7.0592337680E-05   -7.1480279958E-05
   -7.2379391173E-05   -7.3289811815E-05   -7.4211684137E-05   -7.5145152185E-05
   -7.6090361815E-05   -7.7047460717E-05   -7.8016598441E-05   -7.8997926415E-05
   -7.9991597974E-05   -8.0997768382E-05   -8.2016594855E-05   -8.3048236585E-05
   -8.4092854770E-05   -8.5150612633E-05   -8.6221675450E-05   -8.7306210578E-05
   -8.8404387477E-05   -8.9516377739E-05   -9.0642355115E-05   -9.1782495542E-05
   -9.2936977168E-05   -9.4105980383E-05   -9.5289687847E-05   -9.6488284515E-05
   -9.7701957672E-05   -9.8930896956E-05   -1.0017529439E-04   -1.0143534442E-04
   -1.0271124392E-04   -1.0400319226E-04   -1.0531139130E-04   -1.0663604546E-04
   -1.0797736172E-04   -1.0933554966E-04   -1.1071082149E-04   -1.1210339211E-04
   -1.1351347911E-04   -1.1494130282E-04   -1.1638708634E-04   -1.1785105557E-04
   -1.1933343926E-04   -1.2083446904E-04   -1.2235437945E-04   -1.2389340797E-04
   -1.2545179508E-04   -1.2702978429E-04   -1.2862762215E-04   -1.3024555833E-04
   -1.3188384565E-04   -1.3354274007E-04   -1.3522250081E-04   -1.3692339033E-04
   -1.3864567441E-04   -1.4038962214E-04   -1.4215550604E-04   -1.4394360201E-04
   -1.4575418945E-04   -1.4758755127E-04   -1.4944397394E-04   -1.5132374752E-04
   -1.5322716574E-04   -1.5515452600E-04   -1.5710612946E-04   -1.5908228106E-04
   -1.6108328958E-04   -1.6310946768E-04   -1.6516113196E-04   -1.6723860298E-04
   -1.6934220536E-04   -1.7147226779E-04   -1.7362912310E-04   -1.7581310829E-04
   -1.7802456463E-04   -1.8026383765E-04   -1.8253127724E-04   -1.8482723770E-04
   -1.8715207777E-04   -1.8950616071E-04   -1.9188985436E-04   -1.9430353117E-04
   -1.9674756828E-04   -1.9922234757E-04   -2.0172825574E-04   -2.0426568433E-04
   -2.0683502983E-04   -2.0943669370E-04   -2.1207108245E-04   -2.1473860770E-04
   -2.1743968628E-04   -2.2017474021E-04   -2.2294419687E-04   -2.2574848898E-04
   -2.2858805471E-04   -2.3146333776E-04   -2.3437478739E-04   -2.3732285852E-04
   -2.4030801178E-04   -2.4333071363E-04   -2.4639143635E-04   -2.4949065819E-04
   -2.5262886340E-04   -2.5580654235E-04   -2.5902419153E-04   -2.6228231372E-04
   -2.6558141801E-04   -2.6892201987E-04   -2.7230464130E-04   -2.7572981081E-04
   -2.7919806361E-04   -2.8270994161E-04   -2.8626599355E-04   -2.8986677506E-04
   -2.9351284877E-04   -2.9720478439E-04   -3.0094315878E-04   -3.0472855608E-04
   -3.0856156774E-04   -3.1244279270E-04   -3.1637283738E-04   -3.2035231588E-04
   -3.2438184997E-04   -3.2846206929E-04   -3.3259361138E-04   -3.3677712178E-04
   -3.4101325418E-04   -3.4530267048E-04   -3.4964604090E-04   -3.5404404410E-04
   -3.5849736727E-04   -3.6300670625E-04   -3.6757276563E-04   -3.7219625885E-04
   -3.7687790835E-04   -3.8161844562E-04   -3.8641861139E-04   -3.9127915569E-04
   -3.9620083797E-04   -4.0118442725E-04   -4.0623070223E-04   -4.1134045139E-04
   -4.1651447312E-04   -4.2175357588E-04   -4.2705857826E-04   -4.3243030919E-04
   -4.3786960800E-04   -4.4337732458E-04   -4.4895431951E-04   -4.5460146420E-04
   -4.6031964101E-04   -4.6610974342E-04   -4.7197267613E-04   -4.7790935522E-04
   -4.8392070830E-04   -4.9000767463E-04   -4.9617120532E-04   -5.0241226341E-04
   -5.0873182406E-04   -5.1513087471E-04   -5.2161041520E-04   -5.2817145797E-04
   -5.3481502816E-04   -5.4154216384E-04   -5.4835391612E-04   -5.5525134933E-04
   -5.6223554118E-04   -5.6930758296E-04   -5.7646857967E-04   -5.8371965020E-04
   -5.9106192752E-04   -5.9849655887E-04   -6.0602470589E-04   -6.1364754485E-04
   -6.2136626681E-04   -6.2918207780E-04   -6.3709619904E-04   -6.4510986710E-04
   -6.5322433409E-04   -6.6144086790E-04   -6.6976075233E-04   -6.7818528736E-04
   -6.8671578930E-04   -6.9535359103E-04   -7.0410004218E-04   -7.1295650937E-04
   -7.2192437640E-04   -7.3100504447E-04   -7.4019993241E-04   -7.4951047691E-04
   -7.5893813271E-04   -7.6848437284E-04   -7.7815068889E-04   -7.8793859117E-04
   -7.9784960903E-04   -8.0788529101E-04   -8.1804720516E-04   -8.2833693924E-04
   -8.3875610098E-04   -8.4930631833E-04   -8.5998923971E-04   -8.7080653429E-04
   -8.8175989222E-04   -8.9285102491E-04   -9.0408166529E-04   -9.1545356810E-04
   -9.2696851013E-04   -9.3862829053E-04   -9.5043473107E-04   -9.6238967645E-04
   -9.7449499455E-04   -9.8675257674E-04   -9.9916433821E-04   -1.0117322182E-03
   -1.0244581804E-03   -1.0373442130E-03   -1.0503923296E-03   -1.0636045686E-03
   -1.0769829945E-03   -1.0905296975E-03   -1.1042467942E-03   -1.1181364277E-03
   -1.1322007681E-03   -1.1464420130E-03   -1.1608623874E-03   -1.1754641442E-03
   -1.1902495649E-03   -1.2052209596E-03   -1.2203806674E-03   -1.2357310567E-03
   -1.2512745260E-03   -1.2670135037E-03   -1.2829504489E-03   -1.2990878515E-03
   -1.3154282327E-03   -1.3319741456E-03   -1.3487281752E-03   -1.3656929390E-03
   -1.3828710877E-03   -1.4002653050E-03   -1.4178783086E-03   -1.4357128501E-03
   -1.4537717159E-03   -1.4720577275E-03   -1.4905737417E-03   -1.5093226514E-03
   -1.5283073856E-03   -1.5475309105E-03   -1.5669962294E-03   -1.5867063832E-03
   -1.6066644514E-03   -1.6268735520E-03   -1.6473368421E-03   -1.6680575189E-03
   -1.6890388194E-03   -1.7102840214E-03   -1.7317964441E-03   -1.7535794482E-03
   -1.7756364368E-03   -1.7979708557E-03   -1.8205861941E-03   -1.8434859850E-03
   -1.8666738059E-03   -1.8901532792E-03   -1.9139280730E-03   -1.9380019012E-03
   -1.9623785248E-03   -1.9870617518E-03   -2.0120554381E-03   -2.0373634881E-03
   -2.0629898555E-03   -2.0889385434E-03   -2.1152136053E-03   -2.1418191458E-03
   -2.1687593210E-03   -2.1960383391E-03   -2.2236604616E-03   -2.2516300032E-03
   -2.2799513329E-03   -2.3086288748E-03   -2.3376671083E-03   -2.3670705696E-03
   -2.3968438513E-03   -2.4269916043E-03   -2.4575185375E-03   -2.4884294193E-03
   -2.5197290779E-03   -2.5514224022E-03   -2.5835143425E-03   -2.6160099114E-03
   -2.6489141845E-03   -2.6822323011E-03   -2.7159694651E-03   -2.7501309459E-03
   -2.7847220790E-03   -2.8197482670E-03   -2.8552149804E-03   -2.8911277584E-03
   -2.9274922098E-03   -2.9643140140E-03   -3.0015989216E-03   -3.0393527555E-03
   -3.0775814118E-03   -3.1162908606E-03   -3.1554871471E-03   -3.1951763923E-03
   -3.2353647944E-03   -3.2760586290E-03   -3.3172642510E-03   -3.3589880947E-03
   -3.4012366756E-03   -3.4440165907E-03   -3.4873345202E-03   -3.5311972279E-03
   -3.5756115627E-03   -3.6205844595E-03   -3.6661229403E-03   -3.7122341151E-03
   -3.7589251834E-03   -3.8062034350E-03   -3.8540762513E-03   -3.9025511063E-03
   -3.9516355678E-03   -4.0013372987E-03   -4.0516640581E-03   -4.1026237023E-03
   -4.1542241865E-03   -4.2064735657E-03   -4.2593799956E-03   -4.3129517349E-03
   -4.3671971453E-03   -4.4221246940E-03   -4.4777429540E-03   -4.5340606060E-03
   -4.5910864398E-03   -4.6488293552E-03   -4.7072983639E-03   -4.7665025903E-03
   -4.8264512735E-03   -4.8871537685E-03   -4.9486195475E-03   -5.0108582015E-03
   -5.0738794417E-03   -5.1376931014E-03   -5.2023091366E-03   -5.2677376286E-03
   -5.3339887849E-03   -5.4010729409E-03   -5.4690005615E-03   -5.5377822429E-03
   -5.6074287139E-03   -5.6779508378E-03   -5.7493596140E-03   -5.8216661796E-03
   -5.8948818114E-03   -5.9690179272E-03   -6.0440860879E-03   -6.1200979990E-03
   -6.1970655129E-03   -6.2750006299E-03   -6.3539155009E-03   -6.4338224286E-03
   -6.5147338698E-03   -6.5966624372E-03   -6.6796209010E-03   -6.7636221914E-03
   -6.8486794002E-03   -6.9348057830E-03   -7.0220147611E-03   -7.1103199235E-03
   -7.1997350291E-03   -7.2902740087E-03   -7.3819509672E-03   -7.4747801857E-03
   -7.5687761237E-03   -7.6639534213E-03   -7.7603269013E-03   -7.8579115716E-03
   -7.9567226273E-03   -8.0567754534E-03   -8.1580856265E-03   -8.2606689177E-03
   -8.3645412948E-03   -8.4697189245E-03   -8.5762181752E-03   -8.6840556193E-03
   -8.7932480355E-03   -8.9038124117E-03   -9.0157659473E-03   -9.1291260557E-03
   -9.2439103672E-03   -9.3601367314E-03   -9.4778232201E-03   -9.5969881296E-03
   -9.7176499838E-03   -9.8398275370E-03   -9.9635397763E-03   -1.0088805925E-02
   -1.0215645444E-02   -1.0344078037E-02   -1.0474123653E-02   -1.0605802485E-02
   -1.0739134981E-02   -1.0874141838E-02   -1.1010844014E-02   -1.1149262722E-02
   -1.1289419441E-02   -1.1431335915E-02   -1.1575034156E-02   -1.1720536449E-02
   -1.1867865355E-02   -1.2017043712E-02   -1.2168094642E-02   -1.2321041551E-02
   -1.2475908136E-02   -1.2632718382E-02   -1.2791496574E-02   -1.2952267294E-02
   -1.3115055427E-02   -1.3279886163E-02   -1.3446785005E-02   -1.3615777766E-02
   -1.3786890579E-02   -1.3960149895E-02   -1.4135582491E-02   -1.4313215472E-02
   -1.4493076277E-02   -1.4675192677E-02   -1.4859592786E-02   -1.5046305061E-02
   -1.5235358306E-02   -1.5426781678E-02   -1.5620604687E-02   -1.5816857206E-02
   -1.6015569470E-02   -1.6216772082E-02   -1.6420496017E-02   -1.6626772626E-02
   -1.6835633643E-02   -1.7047111183E-02   -1.7261237752E-02   -1.7478046250E-02
   -1.7697569973E-02   -1.7919842621E-02   -1.8144898299E-02   -1.8372771523E-02
   -1.8603497226E-02   -1.8837110758E-02   -1.9073647898E-02   -1.9313144849E-02
   -1.9555638251E-02   -1.9801165182E-02   -2.0049763162E-02   -2.0301470158E-02
   -2.0556324592E-02   -2.0814365340E-02   -2.1075631741E-02   -2.1340163601E-02
   -2.1608001198E-02   -2.1879185283E-02   -2.2153757092E-02   -2.2431758344E-02
   -2.2713231250E-02   -2.2998218516E-02   -2.3286763348E-02   -2.3578909458E-02
   -2.3874701068E-02   -2.4174182916E-02   -2.4477400258E-02   -2.4784398878E-02
   -2.5095225085E-02   -2.5409925728E-02   -2.5728548192E-02   -2.6051140408E-02
   -2.6377750857E-02   -2.6708428573E-02   -2.7043223150E-02   -2.7382184744E-02
   -2.7725364083E-02   -2.8072812466E-02   -2.8424581771E-02   -2.8780724460E-02
   -2.9141293581E-02   -2.9506342775E-02   -2.9875926281E-02   -3.0250098937E-02
   -3.0628916189E-02   -3.1012434093E-02   -3.1400709319E-02   -3.1793799156E-02
   -3.2191761516E-02   -3.2594654939E-02   -3.3002538595E-02   -3.3415472292E-02
   -3.3833516473E-02   -3.4256732227E-02   -3.4685181287E-02   -3.5118926038E-02
   -3.5558029516E-02   -3.6002555414E-02   -3.6452568086E-02   -3.6908132545E-02
   -3.7369314471E-02   -3.7836180211E-02   -3.8308796782E-02   -3.8787231873E-02
   -3.9271553845E-02   -3.9761831737E-02   -4.0258135263E-02   -4.0760534816E-02
   -4.1269101468E-02   -4.1783906969E-02   -4.2305023752E-02   -4.2832524929E-02
   -4.3366484289E-02   -4.3906976304E-02   -4.4454076123E-02   -4.5007859571E-02
   -4.5568403148E-02   -4.6135784029E-02   -4.6710080057E-02   -4.7291369744E-02
   -4.7879732263E-02   -4.8475247451E-02   -4.9077995797E-02   -4.9688058441E-02
   -5.0305517167E-02   -5.0930454399E-02   -5.1562953189E-02   -5.2203097215E-02
   -5.2850970771E-02   -5.3506658755E-02   -5.4170246663E-02   -5.4841820578E-02
   -5.5521467157E-02   -5.6209273620E-02   -5.6905327736E-02   -5.7609717810E-02
   -5.8322532668E-02   -5.9043861642E-02   -5.9773794547E-02   -6.0512421673E-02
   -6.1259833756E-02   -6.2016121963E-02   -6.2781377869E-02   -6.3555693433E-02
   -6.4339160974E-02   -6.5131873145E-02   -6.5933922908E-02   -6.6745403499E-02
   -6.7566408403E-02   -6.8397031322E-02   -6.9237366136E-02   -7.0087506872E-02
   -7.0947547663E-02   -7.1817582710E-02   -7.2697706240E-02   -7.3588012464E-02
   -7.4488595524E-02   -7.5399549454E-02   -7.6320968121E-02   -7.7252945177E-02
   -7.8195573998E-02   -7.9148947630E-02   -8.0113158724E-02   -8.1088299474E-02
   -8.2074461544E-02   -8.3071736004E-02   -8.4080213251E-02   -8.5099982934E-02
   -8.6131133868E-02   -8.7173753956E-02   -8.8227930092E-02   -8.9293748074E-02
   -9.0371292504E-02   -9.1460646688E-02   -9.2561892525E-02   -9.3675110402E-02
   -9.4800379075E-02   -9.5937775547E-02   -9.7087374943E-02   -9.8249250379E-02
   -9.9423472820E-02   -1.0061011094E-01   -1.0180923098E-01   -1.0302089656E-01
   -1.0424516857E-01   -1.0548210494E-01   -1.0673176051E-01   -1.0799418681E-01
   -1.0926943190E-01   -1.1055754015E-01   -1.1185855203E-01   -1.1317250389E-01
   -1.1449942775E-01   -1.1583935106E-01   -1.1719229642E-01   -1.1855828137E-01
   -1.1993731812E-01   -1.2132941322E-01   -1.2273456733E-01   -1.2415277491E-01
   -1.2558402387E-01   -1.2702829529E-01   -1.2848556305E-01   -1.2995579350E-01
   -1.3143894508E-01   -1.3293496794E-01   -1.3444380357E-01   -1.3596538435E-01
   -1.3749963315E-01   -1.3904646289E-01   -1.4060577606E-01   -1.4217746425E-01
   -1.4376140766E-01   -1.4535747459E-01   -1.4696552087E-01   -1.4858538935E-01
   -1.5021690929E-01   -1.5185989579E-01   -1.5351414915E-01   -1.5517945421E-01
   -1.5685557973E-01   -1.5854227764E-01   -1.6023928240E-01   -1.6194631016E-01
   -1.6366305808E-01   -1.6538920345E-01   -1.6712440295E-01   -1.6886829171E-01
   -1.7062048249E-01   -1.7238056472E-01   -1.7414810358E-01   -1.7592263900E-01
   -1.7770368466E-01   -1.7949072691E-01   -1.8128322375E-01   -1.8308060363E-01
   -1.8488226437E-01   -1.8668757191E-01   -1.8849585911E-01   -1.9030642445E-01
   -1.9211853078E-01   -1.9393140391E-01   -1.9574423123E-01   -1.9755616032E-01
   -1.9936629742E-01   -2.0117370597E-01   -2.0297740501E-01   -2.0477636760E-01
   -2.0656951919E-01   -2.0835573590E-01   -2.1013384283E-01   -2.1190261229E-01
   -2.1366076194E-01   -2.1540695300E-01   -2.1713978832E-01   -2.1885781047E-01
   -2.2055949974E-01   -2.2224327218E-01   -2.2390747750E-01   -2.2555039704E-01
   -2.2717024165E-01   -2.2876514954E-01   -2.3033318416E-01   -2.3187233197E-01
   -2.3338050026E-01   -2.3485551497E-01   -2.3629511840E-01   -2.3769696705E-01
   -2.3905862935E-01   -2.4037758348E-01   -2.4165121512E-01   -2.4287681535E-01
   -2.4405157843E-01   -2.4517259972E-01   -2.4623687366E-01   -2.4724129175E-01
   -2.4818264061E-01   -2.4905760020E-01   -2.4986274207E-01   -2.5059452773E-01
   -2.5124930719E-01   -2.5182331761E-01   -2.5231268214E-01   -2.5271340893E-01
   -2.5302139037E-01   -2.5323240254E-01   -2.5334210489E-01   -2.5334604028E-01
   -2.5323963522E-01   -2.5301820051E-01   -2.5267693224E-01   -2.5221091312E-01
   -2.5161511434E-01   -2.5088439779E-01   -2.5001351879E-01   -2.4899712944E-01
   -2.4782978241E-01   -2.4650593543E-01   -2.4501995636E-01   -2.4336612905E-01
   -2.4153865979E-01   -2.3953168466E-01   -2.3733927764E-01   -2.3495545961E-01
   -2.3237420821E-01   -2.2958946870E-01   -2.2659516584E-01   -2.2338521671E-01
   -2.1995354471E-01   -2.1629409462E-01   -2.1240084889E-01   -2.0826784503E-01
   -2.0388919427E-01   -1.9925910154E-01   -1.9437188661E-01   -1.8922200660E-01
   -1.8380407979E-01   -1.7811291072E-01   -1.7214351663E-01   -1.6589115518E-01
   -1.5935135342E-01   -1.5251993807E-01   -1.4539306691E-01   -1.3796726141E-01
   -1.3023944030E-01   -1.2220695425E-01   -1.1386762131E-01   -1.0521976318E-01
   -9.6262242041E-02   -8.6994497833E-02   -7.7416585834E-02   -6.7529214249E-02
   -5.7333781660E-02   -4.6832414039E-02   -3.6028001076E-02   -2.4924231501E-02
   -1.3525627100E-02   -1.8375750544E-03    1.0133641743E-02    2.2380816807E-02
    3.4895795014E-02    4.7669450830E-02    6.0691670247E-02    7.3951336904E-02
    8.7436322854E-02    1.0113348444E-01    1.1502866379E-01    1.2910669632E-01
    1.4335142479E-01    1.5774572028E-01    1.7227151052E-01    1.8690981589E-01
    2.0164079343E-01    2.1644378913E-01    2.3129739862E-01    2.4617953639E-01
    2.6106751346E-01    2.7593812349E-01    2.9076773694E-01    3.0553240302E-01
    3.2020795872E-01    3.3477014438E-01    3.4919472482E-01    3.6345761496E-01
    3.7753500869E-01    3.9140350962E-01    4.0504026196E-01    4.1842307979E-01
    4.3153057284E-01    4.4434226654E-01    4.5683871423E-01    4.6900159928E-01
    4.8081382474E-01    4.9225958834E-01    5.0332444074E-01    5.1399532490E-01
    5.2426059520E-01    5.3411001476E-01    5.4353473025E-01    5.5252722413E-01
    5.6108124458E-01    5.6919171474E-01    5.7685462341E-01    5.8406690062E-01
    5.9082628242E-01    5.9713117075E-01    6.0298049530E-01    6.0837358580E-01
    6.1331006145E-01    6.1778974926E-01    6.2181267652E-01    6.2537926681E-01
    6.2849046877E-01    6.3114775198E-01    6.3335310138E-01    6.3510901029E-01
    6.3641847313E-01    6.3728497763E-01    6.3771249656E-01    6.3770547903E-01
    6.3726884118E-01    6.3640795636E-01    6.3512864483E-01    6.3343716293E-01
    6.3134019185E-01    6.2884482589E-01    6.2595856042E-01    6.2268927942E-01
    6.1904524277E-01    6.1503507331E-01    6.1066774364E-01    6.0595256281E-01
    6.0089916287E-01    5.9551748539E-01    5.8981776791E-01    5.8381053045E-01
    5.7750656205E-01    5.7091690733E-01    5.6405285324E-01    5.5692591579E-01
    5.4954782691E-01    5.4193052136E-01    5.3408612363E-01    5.2602693474E-01
    5.1776541886E-01    5.0931418970E-01    5.0068599634E-01    4.9189370845E-01
    4.8295030065E-01    4.7386883584E-01    4.6466244709E-01    4.5534431805E-01
    4.4592766158E-01    4.3642569635E-01    4.2685162139E-01    4.1721858835E-01
    4.0753967165E-01    3.9782783652E-01    3.8809590516E-01    3.7835652130E-01
    3.6862211365E-01    3.5890485874E-01    3.4921664358E-01    3.3956902909E-01
    3.2997321453E-01    3.2044000401E-01    3.1097977538E-01    3.0160245221E-01
    2.9231747922E-01    2.8313380175E-01    2.7405984925E-01    2.6510352315E-01
    2.5627218906E-01    2.4757267338E-01    2.3901126385E-01    2.3059371423E-01
    2.2232525238E-01    2.1421059173E-01    2.0625394541E-01    1.9845904293E-01
    1.9082914864E-01    1.8336708180E-01    1.7607523762E-01    1.6895560894E-01
    1.6200980814E-01    1.5523908886E-01    1.4864436728E-01    1.4222624265E-01
    1.3598501675E-01    1.2992071226E-01    1.2403308976E-01    1.1832166333E-01
    1.1278571474E-01    1.0742430628E-01    1.0223629212E-01    9.7220328518E-02
    9.2374883332E-02    8.7698242746E-02    8.3188520556E-02    7.8843663703E-02
    7.4661458874E-02    7.0639538638E-02    6.6775387482E-02    6.3066347927E-02
    5.9509626853E-02    5.6102302118E-02    5.2841329575E-02    4.9723550504E-02
    4.6745699516E-02    4.3904412913E-02    4.1196237484E-02    3.8617639722E-02
    3.6165015385E-02    3.3834699358E-02    3.1622975738E-02    2.9526088061E-02
    2.7540249604E-02    2.5661653672E-02    2.3886483788E-02    2.2210923729E-02
    2.0631167311E-02    1.9143427884E-02    1.7743947453E-02    1.6429005399E-02
    1.5194926727E-02    1.4038089826E-02    1.2954933699E-02    1.1941964644E-02
    1.0995762360E-02    1.0112985482E-02    9.2903765247E-03    8.5247662480E-03
    7.8130774385E-03    7.1523281262E-03    6.5396342437E-03    5.9722117474E-03
    5.4473782201E-03    4.9625539777E-03    4.5152627043E-03    4.1031316410E-03
    3.7238913581E-03    3.3753751360E-03    3.0555179862E-03    2.7623553407E-03
    2.4940214391E-03    2.2487474428E-03    2.0248593045E-03    1.8207754224E-03
    1.6350041054E-03    1.4661408759E-03    1.3128656364E-03    1.1739397242E-03
   </PP_CHI.4>
 </PP_PSWFC>
 <PP_NLCC type="real"  size="1164" columns="4">
    0.0000000000E+00    3.7210502470E+00    3.7210502469E+00    3.7210502469E+00
    3.7210502469E+00    3.7210502469E+00    3.7210502469E+00    3.7210502469E+00
    3.7210502469E+00    3.7210502469E+00    3.7210502469E+00    3.7210502469E+00
    3.7210502469E+00    3.7210502468E+00    3.7210502468E+00    3.7210502468E+00
    3.7210502468E+00    3.7210502468E+00    3.7210502468E+00    3.7210502468E+00
    3.7210502468E+00    3.7210502467E+00    3.7210502467E+00    3.7210502467E+00
    3.7210502467E+00    3.7210502467E+00    3.7210502467E+00    3.7210502467E+00
    3.7210502466E+00    3.7210502466E+00    3.7210502466E+00    3.7210502466E+00
    3.7210502466E+00    3.7210502466E+00    3.7210502465E+00    3.7210502465E+00
    3.7210502465E+00    3.7210502465E+00    3.7210502465E+00    3.7210502464E+00
    3.7210502464E+00    3.7210502464E+00    3.7210502464E+00    3.7210502464E+00
    3.7210502463E+00    3.7210502463E+00    3.7210502463E+00    3.7210502463E+00
    3.7210502462E+00    3.7210502462E+00    3.7210502462E+00    3.7210502461E+00
    3.7210502461E+00    3.7210502461E+00    3.7210502461E+00    3.7210502460E+00
    3.7210502460E+00    3.7210502460E+00    3.7210502459E+00    3.7210502459E+00
    3.7210502459E+00    3.7210502458E+00    3.7210502458E+00    3.7210502458E+00
    3.7210502457E+00    3.7210502457E+00    3.7210502456E+00    3.7210502456E+00
    3.7210502456E+00    3.7210502455E+00    3.7210502455E+00    3.7210502454E+00
    3.7210502454E+00    3.7210502453E+00    3.7210502453E+00    3.7210502452E+00
    3.7210502452E+00    3.7210502451E+00    3.7210502451E+00    3.7210502450E+00
    3.7210502449E+00    3.7210502449E+00    3.7210502448E+00    3.7210502448E+00
    3.7210502447E+00    3.7210502446E+00    3.7210502446E+00    3.7210502445E+00
    3.7210502444E+00    3.7210502444E+00    3.7210502443E+00    3.7210502442E+00
    3.7210502441E+00    3.7210502440E+00    3.7210502440E+00    3.7210502439E+00
    3.7210502438E+00    3.7210502437E+00    3.7210502436E+00    3.7210502435E+00
    3.7210502434E+00    3.7210502433E+00    3.7210502432E+00    3.7210502431E+00
    3.7210502430E+00    3.7210502429E+00    3.7210502428E+00    3.7210502427E+00
    3.7210502426E+00    3.7210502425E+00    3.7210502423E+00    3.7210502422E+00
    3.7210502421E+00    3.7210502420E+00    3.7210502418E+00    3.7210502417E+00
    3.7210502415E+00    3.7210502414E+00    3.7210502412E+00    3.7210502411E+00
    3.7210502409E+00    3.7210502408E+00    3.7210502406E+00    3.7210502404E+00
    3.7210502403E+00    3.7210502401E+00    3.7210502399E+00    3.7210502397E+00
    3.7210502395E+00    3.7210502393E+00    3.7210502391E+00    3.7210502389E+00
    3.7210502387E+00    3.7210502385E+00    3.7210502383E+00    3.7210502380E+00
    3.7210502378E+00    3.7210502376E+00    3.7210502373E+00    3.7210502371E+00
    3.7210502368E+00    3.7210502366E+00    3.7210502363E+00    3.7210502360E+00
    3.7210502357E+00    3.7210502354E+00    3.7210502351E+00    3.7210502348E+00
    3.7210502345E+00    3.7210502342E+00    3.7210502338E+00    3.7210502335E+00
    3.7210502332E+00    3.7210502328E+00    3.7210502324E+00    3.7210502321E+00
    3.7210502317E+00    3.7210502313E+00    3.7210502309E+00    3.7210502305E+00
    3.7210502300E+00    3.7210502296E+00    3.7210502291E+00    3.7210502287E+00
    3.7210502282E+00    3.7210502277E+00    3.7210502272E+00    3.7210502267E+00
    3.7210502262E+00    3.7210502257E+00    3.7210502251E+00    3.7210502246E+00
    3.7210502240E+00    3.7210502234E+00    3.7210502228E+00    3.7210502222E+00
    3.7210502215E+00    3.7210502209E+00    3.7210502202E+00    3.7210502195E+00
    3.7210502188E+00    3.7210502181E+00    3.7210502174E+00    3.7210502166E+00
    3.7210502158E+00    3.7210502151E+00    3.7210502142E+00    3.7210502134E+00
    3.7210502125E+00    3.7210502117E+00    3.7210502108E+00    3.7210502098E+00
    3.7210502089E+00    3.7210502079E+00    3.7210502069E+00    3.7210502059E+00
    3.7210502049E+00    3.7210502038E+00    3.7210502027E+00    3.7210502015E+00
    3.7210502004E+00    3.7210501992E+00    3.7210501980E+00    3.7210501967E+00
    3.7210501955E+00    3.7210501941E+00    3.7210501928E+00    3.7210501914E+00
    3.7210501900E+00    3.7210501886E+00    3.7210501871E+00    3.7210501855E+00
    3.7210501840E+00    3.7210501824E+00    3.7210501807E+00    3.7210501791E+00
    3.7210501773E+00    3.7210501756E+00    3.7210501737E+00    3.7210501719E+00
    3.7210501700E+00    3.7210501680E+00    3.7210501660E+00    3.7210501639E+00
    3.7210501618E+00    3.7210501597E+00    3.7210501575E+00    3.7210501552E+00
    3.7210501529E+00    3.7210501505E+00    3.7210501480E+00    3.7210501455E+00
    3.7210501429E+00    3.7210501403E+00    3.7210501376E+00    3.7210501348E+00
    3.7210501319E+00    3.7210501290E+00    3.7210501260E+00    3.7210501230E+00
    3.7210501198E+00    3.7210501166E+00    3.7210501133E+00    3.7210501099E+00
    3.7210501064E+00    3.7210501028E+00    3.7210500992E+00    3.7210500954E+00
    3.7210500916E+00    3.7210500877E+00    3.7210500836E+00    3.7210500795E+00
    3.7210500752E+00    3.7210500709E+00    3.7210500664E+00    3.7210500618E+00
    3.7210500571E+00    3.7210500523E+00    3.7210500474E+00    3.7210500423E+00
    3.7210500371E+00    3.7210500318E+00    3.7210500264E+00    3.7210500208E+00
    3.7210500150E+00    3.7210500092E+00    3.7210500031E+00    3.7210499969E+00
    3.7210499906E+00    3.7210499841E+00    3.7210499774E+00    3.7210499706E+00
    3.7210499636E+00    3.7210499564E+00    3.7210499491E+00    3.7210499415E+00
    3.7210499338E+00    3.7210499258E+00    3.7210499177E+00    3.7210499094E+00
    3.7210499008E+00    3.7210498920E+00    3.7210498830E+00    3.7210498738E+00
    3.7210498644E+00    3.7210498547E+00    3.7210498447E+00    3.7210498345E+00
    3.7210498241E+00    3.7210498134E+00    3.7210498024E+00    3.7210497911E+00
    3.7210497796E+00    3.7210497677E+00    3.7210497556E+00    3.7210497432E+00
    3.7210497304E+00    3.7210497173E+00    3.7210497039E+00    3.7210496901E+00
    3.7210496760E+00    3.7210496616E+00    3.7210496468E+00    3.7210496315E+00
    3.7210496160E+00    3.7210496000E+00    3.7210495836E+00    3.7210495668E+00
    3.7210495496E+00    3.7210495319E+00    3.7210495138E+00    3.7210494952E+00
    3.7210494762E+00    3.7210494567E+00    3.7210494367E+00    3.7210494161E+00
    3.7210493951E+00    3.7210493735E+00    3.7210493514E+00    3.7210493287E+00
    3.7210493055E+00    3.7210492816E+00    3.7210492572E+00    3.7210492321E+00
    3.7210492064E+00    3.7210491801E+00    3.7210491530E+00    3.7210491253E+00
    3.7210490969E+00    3.7210490678E+00    3.7210490380E+00    3.7210490073E+00
    3.7210489760E+00    3.7210489438E+00    3.7210489108E+00    3.7210488769E+00
    3.7210488423E+00    3.7210488067E+00    3.7210487702E+00    3.7210487328E+00
    3.7210486945E+00    3.7210486552E+00    3.7210486149E+00    3.7210485735E+00
    3.7210485312E+00    3.7210484877E+00    3.7210484432E+00    3.7210483975E+00
    3.7210483507E+00    3.7210483027E+00    3.7210482535E+00    3.7210482030E+00
    3.7210481512E+00    3.7210480982E+00    3.7210480438E+00    3.7210479880E+00
    3.7210479308E+00    3.7210478721E+00    3.7210478120E+00    3.7210477504E+00
    3.7210476872E+00    3.7210476223E+00    3.7210475559E+00    3.7210474878E+00
    3.7210474179E+00    3.7210473463E+00    3.7210472728E+00    3.7210471975E+00
    3.7210471203E+00    3.7210470412E+00    3.7210469600E+00    3.7210468768E+00
    3.7210467915E+00    3.7210467040E+00    3.7210466143E+00    3.7210465223E+00
    3.7210464280E+00    3.7210463313E+00    3.7210462322E+00    3.7210461306E+00
    3.7210460264E+00    3.7210459195E+00    3.7210458099E+00    3.7210456976E+00
    3.7210455824E+00    3.7210454643E+00    3.7210453433E+00    3.7210452191E+00
    3.7210450918E+00    3.7210449613E+00    3.7210448275E+00    3.7210446903E+00
    3.7210445496E+00    3.7210444054E+00    3.7210442575E+00    3.7210441059E+00
    3.7210439504E+00    3.7210437910E+00    3.7210436275E+00    3.7210434600E+00
    3.7210432881E+00    3.7210431120E+00    3.7210429313E+00    3.7210427461E+00
    3.7210425562E+00    3.7210423615E+00    3.7210421619E+00    3.7210419572E+00
    3.7210417474E+00    3.7210415322E+00    3.7210413116E+00    3.7210410854E+00
    3.7210408534E+00    3.7210406156E+00    3.7210403718E+00    3.7210401218E+00
    3.7210398655E+00    3.7210396027E+00    3.7210393332E+00    3.7210390569E+00
    3.7210387736E+00    3.7210384832E+00    3.7210381853E+00    3.7210378800E+00
    3.7210375669E+00    3.7210372459E+00    3.7210369168E+00    3.7210365793E+00
    3.7210362333E+00    3.7210358786E+00    3.7210355148E+00    3.7210351419E+00
    3.7210347595E+00    3.7210343674E+00    3.7210339654E+00    3.7210335532E+00
    3.7210331306E+00    3.7210326973E+00    3.7210322530E+00    3.7210317975E+00
    3.7210313304E+00    3.7210308515E+00    3.7210303605E+00    3.7210298571E+00
    3.7210293409E+00    3.7210288117E+00    3.7210282690E+00    3.7210277127E+00
    3.7210271422E+00    3.7210265573E+00    3.7210259576E+00    3.7210253427E+00
    3.7210247122E+00    3.7210240658E+00    3.7210234030E+00    3.7210227234E+00
    3.7210220267E+00    3.7210213123E+00    3.7210205798E+00    3.7210198287E+00
    3.7210190587E+00    3.7210182692E+00    3.7210174596E+00    3.7210166296E+00
    3.7210157786E+00    3.7210149060E+00    3.7210140113E+00    3.7210130940E+00
    3.7210121535E+00    3.7210111892E+00    3.7210102004E+00    3.7210091866E+00
    3.7210081472E+00    3.7210070814E+00    3.7210059887E+00    3.7210048682E+00
    3.7210037195E+00    3.7210025416E+00    3.7210013340E+00    3.7210000957E+00
    3.7209988261E+00    3.7209975244E+00    3.7209961897E+00    3.7209948213E+00
    3.7209934182E+00    3.7209919795E+00    3.7209905045E+00    3.7209889921E+00
    3.7209874414E+00    3.7209858515E+00    3.7209842213E+00    3.7209825499E+00
    3.7209808362E+00    3.7209790790E+00    3.7209772774E+00    3.7209754302E+00
    3.7209735362E+00    3.7209715943E+00    3.7209696032E+00    3.7209675617E+00
    3.7209654685E+00    3.7209633223E+00    3.7209611218E+00    3.7209588657E+00
    3.7209565523E+00    3.7209541805E+00    3.7209517486E+00    3.7209492551E+00
    3.7209466985E+00    3.7209440772E+00    3.7209413895E+00    3.7209386338E+00
    3.7209358083E+00    3.7209329113E+00    3.7209299410E+00    3.7209268955E+00
    3.7209237729E+00    3.7209205712E+00    3.7209172885E+00    3.7209139227E+00
    3.7209104717E+00    3.7209069333E+00    3.7209033054E+00    3.7208995856E+00
    3.7208957716E+00    3.7208918611E+00    3.7208878517E+00    3.7208837407E+00
    3.7208795256E+00    3.7208752039E+00    3.7208707727E+00    3.7208662294E+00
    3.7208615711E+00    3.7208567949E+00    3.7208518977E+00    3.7208468766E+00
    3.7208417284E+00    3.7208364498E+00    3.7208310377E+00    3.7208254885E+00
    3.7208197989E+00    3.7208139652E+00    3.7208079839E+00    3.7208018512E+00
    3.7207955632E+00    3.7207891161E+00    3.7207825057E+00    3.7207757280E+00
    3.7207687788E+00    3.7207616536E+00    3.7207543481E+00    3.7207468577E+00
    3.7207391776E+00    3.7207313032E+00    3.7207232294E+00    3.7207149513E+00
    3.7207064636E+00    3.7206977610E+00    3.7206888382E+00    3.7206796895E+00
    3.7206703093E+00    3.7206606916E+00    3.7206508304E+00    3.7206407196E+00
    3.7206303529E+00    3.7206197238E+00    3.7206088257E+00    3.7205976517E+00
    3.7205861949E+00    3.7205744480E+00    3.7205624038E+00    3.7205500548E+00
    3.7205373932E+00    3.7205244111E+00    3.7205111004E+00    3.7204974528E+00
    3.7204834597E+00    3.7204691124E+00    3.7204544021E+00    3.7204393193E+00
    3.7204238548E+00    3.7204079989E+00    3.7203917417E+00    3.7203750729E+00
    3.7203579823E+00    3.7203404591E+00    3.7203224924E+00    3.7203040709E+00
    3.7202851832E+00    3.7202658174E+00    3.7202459614E+00    3.7202256030E+00
    3.7202047292E+00    3.7201833272E+00    3.7201613834E+00    3.7201388843E+00
    3.7201158158E+00    3.7200921634E+00    3.7200679124E+00    3.7200430476E+00
    3.7200175535E+00    3.7199914142E+00    3.7199646134E+00    3.7199371343E+00
    3.7199089598E+00    3.7198800722E+00    3.7198504535E+00    3.7198200853E+00
    3.7197889486E+00    3.7197570238E+00    3.7197242912E+00    3.7196907302E+00
    3.7196563199E+00    3.7196210388E+00    3.7195848649E+00    3.7195477756E+00
    3.7195097477E+00    3.7194707575E+00    3.7194307807E+00    3.7193897923E+00
    3.7193477666E+00    3.7193046776E+00    3.7192604983E+00    3.7192152010E+00
    3.7191687576E+00    3.7191211390E+00    3.7190723156E+00    3.7190222568E+00
    3.7189709314E+00    3.7189183074E+00    3.7188643519E+00    3.7188090313E+00
    3.7187523111E+00    3.7186941558E+00    3.7186345292E+00    3.7185733940E+00
    3.7185107122E+00    3.7184464447E+00    3.7183805512E+00    3.7183129908E+00
    3.7182437214E+00    3.7181726995E+00    3.7180998811E+00    3.7180252207E+00
    3.7179486717E+00    3.7178701863E+00    3.7177897158E+00    3.7177072097E+00
    3.7176226168E+00    3.7175358844E+00    3.7174469582E+00    3.7173557829E+00
    3.7172623017E+00    3.7171664563E+00    3.7170681869E+00    3.7169674324E+00
    3.7168641299E+00    3.7167582151E+00    3.7166496220E+00    3.7165382829E+00
    3.7164241285E+00    3.7163070877E+00    3.7161870875E+00    3.7160640533E+00
    3.7159379084E+00    3.7158085744E+00    3.7156759706E+00    3.7155400145E+00
    3.7154006215E+00    3.7152577048E+00    3.7151111756E+00    3.7149609425E+00
    3.7148069122E+00    3.7146489888E+00    3.7144870741E+00    3.7143210674E+00
    3.7141508653E+00    3.7139763622E+00    3.7137974495E+00    3.7136140160E+00
    3.7134259476E+00    3.7132331276E+00    3.7130354360E+00    3.7128327500E+00
    3.7126249438E+00    3.7124118882E+00    3.7121934511E+00    3.7119694966E+00
    3.7117398858E+00    3.7115044763E+00    3.7112631218E+00    3.7110156727E+00
    3.7107619754E+00    3.7105018726E+00    3.7102352030E+00    3.7099618012E+00
    3.7096814979E+00    3.7093941192E+00    3.7090994871E+00    3.7087974192E+00
    3.7084877283E+00    3.7081702226E+00    3.7078447057E+00    3.7075109761E+00
    3.7071688273E+00    3.7068180476E+00    3.7064584202E+00    3.7060897227E+00
    3.7057117272E+00    3.7053242002E+00    3.7049269024E+00    3.7045195883E+00
    3.7041020065E+00    3.7036738994E+00    3.7032350028E+00    3.7027850460E+00
    3.7023237517E+00    3.7018508356E+00    3.7013660062E+00    3.7008689651E+00
    3.7003594062E+00    3.6998370160E+00    3.6993014731E+00    3.6987524483E+00
    3.6981896040E+00    3.6976125946E+00    3.6970210656E+00    3.6964146540E+00
    3.6957929877E+00    3.6951556855E+00    3.6945023568E+00    3.6938326013E+00
    3.6931460090E+00    3.6924421595E+00    3.6917206224E+00    3.6909809566E+00
    3.6902227102E+00    3.6894454201E+00    3.6886486121E+00    3.6878318000E+00
    3.6869944861E+00    3.6861361603E+00    3.6852563002E+00    3.6843543705E+00
    3.6834298230E+00    3.6824820960E+00    3.6815106143E+00    3.6805147886E+00
    3.6794940153E+00    3.6784476763E+00    3.6773751384E+00    3.6762757531E+00
    3.6751488562E+00    3.6739937677E+00    3.6728097910E+00    3.6715962127E+00
    3.6703523023E+00    3.6690773120E+00    3.6677704758E+00    3.6664310093E+00
    3.6650581098E+00    3.6636509549E+00    3.6622087029E+00    3.6607304922E+00
    3.6592154405E+00    3.6576626448E+00    3.6560711804E+00    3.6544401011E+00
    3.6527684384E+00    3.6510552007E+00    3.6492993734E+00    3.6474999181E+00
    3.6456557721E+00    3.6437658477E+00    3.6418290322E+00    3.6398441868E+00
    3.6378101466E+00    3.6357257194E+00    3.6335896859E+00    3.6314007985E+00
    3.6291577811E+00    3.6268593284E+00    3.6245041052E+00    3.6220907462E+00
    3.6196178550E+00    3.6170840035E+00    3.6144877318E+00    3.6118275467E+00
    3.6091019222E+00    3.6063092977E+00    3.6034480783E+00    3.6005166337E+00
    3.5975132976E+00    3.5944363670E+00    3.5912841020E+00    3.5880547245E+00
    3.5847464180E+00    3.5813573267E+00    3.5778855549E+00    3.5743291665E+00
    3.5706861842E+00    3.5669545888E+00    3.5631323185E+00    3.5592172687E+00
    3.5552072906E+00    3.5511001912E+00    3.5468937323E+00    3.5425856301E+00
    3.5381735543E+00    3.5336551278E+00    3.5290279259E+00    3.5242894756E+00
    3.5194372555E+00    3.5144686946E+00    3.5093811722E+00    3.5041720173E+00
    3.4988385079E+00    3.4933778707E+00    3.4877872808E+00    3.4820638608E+00
    3.4762046807E+00    3.4702067577E+00    3.4640670556E+00    3.4577824844E+00
    3.4513499004E+00    3.4447661058E+00    3.4380278486E+00    3.4311318223E+00
    3.4240746659E+00    3.4168529644E+00    3.4094632479E+00    3.4019019926E+00
    3.3941656205E+00    3.3862505000E+00    3.3781529456E+00    3.3698692194E+00
    3.3613955305E+00    3.3527280363E+00    3.3438628429E+00    3.3347960062E+00
    3.3255235324E+00    3.3160413794E+00    3.3063454578E+00    3.2964316321E+00
    3.2862957222E+00    3.2759335050E+00    3.2653407162E+00    3.2545130519E+00
    3.2434461705E+00    3.2321356956E+00    3.2205772175E+00    3.2087662964E+00
    3.1966984649E+00    3.1843692308E+00    3.1717740806E+00    3.1589084827E+00
    3.1457678910E+00    3.1323477489E+00    3.1186434931E+00    3.1046505586E+00
    3.0903643824E+00    3.0757804093E+00    3.0608940967E+00    3.0457009201E+00
    3.0301963788E+00    3.0143760025E+00    2.9982353571E+00    2.9817700521E+00
    2.9649757473E+00    2.9478481607E+00    2.9303830760E+00    2.9125763509E+00
    2.8944239260E+00    2.8759218337E+00    2.8570662075E+00    2.8378532917E+00
    2.8182794524E+00    2.7983411871E+00    2.7780351368E+00    2.7573580969E+00
    2.7363070294E+00    2.7148790753E+00    2.6930715674E+00    2.6708820439E+00
    2.6483082616E+00    2.6253482107E+00    2.6020001288E+00    2.5782625164E+00
    2.5541341522E+00    2.5296141089E+00    2.5047017698E+00    2.4793968448E+00
    2.4536993881E+00    2.4276098151E+00    2.4011289205E+00    2.3742578956E+00
    2.3469983472E+00    2.3193523159E+00    2.2913222943E+00    2.2629112465E+00
    2.2341226263E+00    2.2049603968E+00    2.1754290489E+00    2.1455336202E+00
    2.1152797142E+00    2.0846735183E+00    2.0537218223E+00    2.0224320367E+00
    1.9908122095E+00    1.9588710437E+00    1.9266179134E+00    1.8940628795E+00
    1.8612167043E+00    1.8280908654E+00    1.7946975685E+00    1.7610497586E+00
    1.7271611304E+00    1.6930461370E+00    1.6587199968E+00    1.6241986987E+00
    1.5894990057E+00    1.5546384562E+00    1.5196353626E+00    1.4845088084E+00
    1.4492786421E+00    1.4139654684E+00    1.3785906370E+00    1.3431762275E+00
    1.3077450319E+00    1.2723205333E+00    1.2369268812E+00    1.2015888630E+00
    1.1663318717E+00    1.1311818698E+00    1.0961653493E+00    1.0613092866E+00
    1.0266410948E+00    9.9218856976E-01    9.5797983365E-01    9.2404327266E-01
    8.9040747116E-01    8.5710114129E-01    8.2415304816E-01    7.9159193108E-01
    7.5944642054E-01    7.2774495145E-01    6.9651567264E-01    6.6578635301E-01
    6.3558428452E-01    6.0593618244E-01    5.7686808330E-01    5.4840524086E-01
    5.2057202070E-01    4.9339179396E-01    4.6688683081E-01    4.4107819433E-01
    4.1598563549E-01    3.9162748993E-01    3.6802057742E-01    3.4518010473E-01
    3.2311957284E-01    3.0185068938E-01    2.8138328715E-01    2.6172524968E-01
    2.4288244479E-01    2.2485866705E-01    2.0765559000E-01    1.9127272911E-01
    1.7570741623E-01    1.6095478634E-01    1.4700777738E-01    1.3385714365E-01
    1.2149148350E-01    1.0989728157E-01    9.9058965916E-02    8.8958980304E-02
    7.9577871421E-02    7.0894391050E-02    6.2885612725E-02    5.5527062374E-02
    4.8792862182E-02    4.2655886750E-02    3.7087930383E-02    3.2059884189E-02
    2.7541921414E-02    2.3503689318E-02    1.9914505689E-02    1.6743557936E-02
    1.3960102615E-02    1.1533663093E-02    9.4342230301E-03    7.6324132927E-03
    6.0996899632E-03    4.8085011223E-03    3.7324402103E-03    2.8463839061E-03
    2.1266126608E-03    1.5509122638E-03    1.0986551036E-03    7.5086011431E-04
    4.9023075786E-04    3.0117078843E-04    1.6977795453E-04    8.3816222339E-05
    3.2667529863E-05    7.2644983213E-06    5.9224817873E-09    4.6572217772E-06
    1.6238347795E-05    3.0901898803E-05    4.5804378069E-05    5.8973640768E-05
    6.9175597550E-05    7.5783177083E-05    7.8650394162E-05    7.7994126409E-05
    7.4285877179E-05    6.8155404597E-05    6.0307639690E-05    5.1453816742E-05
    4.2257215331E-05    3.3293386959E-05    2.5024231993E-05    1.7784826904E-05
    1.1781498582E-05    7.0993205233E-06    3.7169801468E-06    1.5268477545E-06
    3.5807092650E-07    6.2199084198E-10    2.2843312323E-07    8.2004960024E-07
    1.5755970016E-06    2.3292683980E-06    2.9569651500E-06    3.3791409330E-06
    3.5592747467E-06    3.4987096237E-06    3.2288191485E-06    2.8015901883E-06
    2.2797320047E-06    1.7273426282E-06    1.2019952281E-06    7.4887034754E-07
    3.9728051213E-07    1.5964180681E-07    3.2673215628E-08    3.7701420463E-10
    3.8194923671E-08    1.1765952362E-07    2.1087308192E-07    2.9424038718E-07
    3.5104228403E-07    3.7263832359E-07    3.5830119647E-07    3.1388232860E-07
    2.4966023977E-07    1.7781108112E-07    1.0995432364E-07    5.5167624202E-08
    1.8746627868E-08    1.8362224609E-09    1.4281019553E-11   -8.4606453572E-15
    0.0000000000E+00    0.0000000000E+00    0.0000000000E+00    0.0000000000E+00
    0.0000000000E+00    0.0000000000E+00    0.0000000000E+00    0.0000000000E+00
    0.0000000000E+00    0.0000000000E+00    0.0000000000E+00    0.0000000000E+00
    0.0000000000E+00    0.0000000000E+00    0.0000000000E+00    0.0000000000E+00
    0.0000000000E+00    0.0000000000E+00    0.0000000000E+00    0.0000000000E+00
    0.0000000000E+00    0.0000000000E+00    0.0000000000E+00    0.0000000000E+00
    0.0000000000E+00    0.0000000000E+00    0.0000000000E+00    0.0000000000E+00
    0.0000000000E+00    0.0000000000E+00    0.0000000000E+00    0.0000000000E+00
    0.0000000000E+00    0.0000000000E+00    0.0000000000E+00    0.0000000000E+00
    0.0000000000E+00    0.0000000000E+00    0.0000000000E+00    0.0000000000E+00
    0.0000000000E+00    0.0000000000E+00    0.0000000000E+00    0.0000000000E+00
    0.0000000000E+00    0.0000000000E+00    0.0000000000E+00    0.0000000000E+00
    0.0000000000E+00    0.0000000000E+00    0.0000000000E+00    0.0000000000E+00
    0.0000000000E+00    0.0000000000E+00    0.0000000000E+00    0.0000000000E+00
    0.0000000000E+00    0.0000000000E+00    0.0000000000E+00    0.0000000000E+00
    0.0000000000E+00    0.0000000000E+00    0.0000000000E+00    0.0000000000E+00
    0.0000000000E+00    0.0000000000E+00    0.0000000000E+00    0.0000000000E+00
    0.0000000000E+00    0.0000000000E+00    0.0000000000E+00    0.0000000000E+00
    0.0000000000E+00    0.0000000000E+00    0.0000000000E+00    0.0000000000E+00
    0.0000000000E+00    0.0000000000E+00    0.0000000000E+00    0.0000000000E+00
    0.0000000000E+00    0.0000000000E+00    0.0000000000E+00    0.0000000000E+00
    0.0000000000E+00    0.0000000000E+00    0.0000000000E+00    0.0000000000E+00
    0.0000000000E+00    0.0000000000E+00    0.0000000000E+00    0.0000000000E+00
    0.0000000000E+00    0.0000000000E+00    0.0000000000E+00    0.0000000000E+00
    0.0000000000E+00    0.0000000000E+00    0.0000000000E+00    0.0000000000E+00
 </PP_NLCC>
 <PP_RHOATOM type="real"  size="1164" columns="4">
    0.0000000000E+00    3.7795676339E-10    3.8752478441E-10    3.9733502104E-10
    4.0739360498E-10    4.1770682320E-10    4.2828112177E-10    4.3912310999E-10
    4.5023956445E-10    4.6163743329E-10    4.7332384055E-10    4.8530609062E-10
    4.9759167280E-10    5.1018826597E-10    5.2310374342E-10    5.3634617773E-10
    5.4992384587E-10    5.6384523431E-10    5.7811904438E-10    5.9275419767E-10
    6.0775984163E-10    6.2314535527E-10    6.3892035505E-10    6.5509470085E-10
    6.7167850216E-10    6.8868212440E-10    7.0611619538E-10    7.2399161198E-10
    7.4231954690E-10    7.6111145570E-10    7.8037908394E-10    8.0013447451E-10
    8.2038997518E-10    8.4115824628E-10    8.6245226867E-10    8.8428535181E-10
    9.0667114207E-10    9.2962363132E-10    9.5315716560E-10    9.7728645413E-10
    1.0020265785E-09    1.0273930021E-09    1.0534015798E-09    1.0800685678E-09
    1.1074106338E-09    1.1354448674E-09    1.1641887911E-09    1.1936603707E-09
    1.2238780268E-09    1.2548606466E-09    1.2866275951E-09    1.3191987278E-09
    1.3525944026E-09    1.3868354929E-09    1.4219434006E-09    1.4579400692E-09
    1.4948479978E-09    1.5326902550E-09    1.5714904936E-09    1.6112729648E-09
    1.6520625342E-09    1.6938846964E-09    1.7367655916E-09    1.7807320219E-09
    1.8258114677E-09    1.8720321051E-09    1.9194228235E-09    1.9680132436E-09
    2.0178337361E-09    2.0689154404E-09    2.1212902841E-09    2.1749910034E-09
    2.2300511628E-09    2.2865051768E-09    2.3443883310E-09    2.4037368042E-09
    2.4645876912E-09    2.5269790256E-09    2.5909498043E-09    2.6565400109E-09
    2.7237906415E-09    2.7927437300E-09    2.8634423741E-09    2.9359307630E-09
    3.0102542042E-09    3.0864591523E-09    3.1645932378E-09    3.2447052971E-09
    3.3268454028E-09    3.4110648953E-09    3.4974164143E-09    3.5859539325E-09
    3.6767327886E-09    3.7698097223E-09    3.8652429099E-09    3.9630920002E-09
    4.0634181519E-09    4.1662840723E-09    4.2717540559E-09    4.3798940248E-09
    4.4907715701E-09    4.6044559938E-09    4.7210183524E-09    4.8405315012E-09
    4.9630701397E-09    5.0887108586E-09    5.2175321875E-09    5.3496146439E-09
    5.4850407836E-09    5.6238952524E-09    5.7662648388E-09    5.9122385284E-09
    6.0619075596E-09    6.2153654804E-09    6.3727082069E-09    6.5340340835E-09
    6.6994439442E-09    6.8690411755E-09    7.0429317811E-09    7.2212244484E-09
    7.4040306160E-09    7.5914645438E-09    7.7836433842E-09    7.9806872550E-09
    8.1827193153E-09    8.3898658415E-09    8.6022563070E-09    8.8200234628E-09
    9.0433034204E-09    9.2722357370E-09    9.5069635029E-09    9.7476334305E-09
    9.9943959464E-09    1.0247405285E-08    1.0506819586E-08    1.0772800991E-08
    1.1045515747E-08    1.1325134311E-08    1.1611831452E-08    1.1905786365E-08
    1.2207182783E-08    1.2516209088E-08    1.2833058431E-08    1.3157928853E-08
    1.3491023409E-08    1.3832550294E-08    1.4182722973E-08    1.4541760316E-08
    1.4909886733E-08    1.5287332314E-08    1.5674332976E-08    1.6071130606E-08
    1.6477973217E-08    1.6895115097E-08    1.7322816974E-08    1.7761346176E-08
    1.8210976797E-08    1.8671989872E-08    1.9144673549E-08    1.9629323270E-08
    2.0126241958E-08    2.0635740202E-08    2.1158136455E-08    2.1693757233E-08
    2.2242937316E-08    2.2806019959E-08    2.3383357107E-08    2.3975309614E-08
    2.4582247471E-08    2.5204550033E-08    2.5842606260E-08    2.6496814957E-08
    2.7167585027E-08    2.7855335722E-08    2.8560496909E-08    2.9283509337E-08
    3.0024824912E-08    3.0784906980E-08    3.1564230618E-08    3.2363282928E-08
    3.3182563344E-08    3.4022583943E-08    3.4883869765E-08    3.5766959142E-08
    3.6672404033E-08    3.7600770372E-08    3.8552638416E-08    3.9528603116E-08
    4.0529274480E-08    4.1555277961E-08    4.2607254844E-08    4.3685862650E-08
    4.4791775543E-08    4.5925684755E-08    4.7088299016E-08    4.8280344998E-08
    4.9502567768E-08    5.0755731257E-08    5.2040618731E-08    5.3358033287E-08
    5.4708798352E-08    5.6093758199E-08    5.7513778473E-08    5.8969746733E-08
    6.0462573005E-08    6.1993190356E-08    6.3562555472E-08    6.5171649255E-08
    6.6821477444E-08    6.8513071233E-08    7.0247487925E-08    7.2025811587E-08
    7.3849153728E-08    7.5718653998E-08    7.7635480894E-08    7.9600832496E-08
    8.1615937213E-08    8.3682054552E-08    8.5800475903E-08    8.7972525348E-08
    9.0199560490E-08    9.2482973298E-08    9.4824190979E-08    9.7224676872E-08
    9.9685931358E-08    1.0220949280E-07    1.0479693851E-07    1.0744988572E-07
    1.1016999262E-07    1.1295895936E-07    1.1581852912E-07    1.1875048925E-07
    1.2175667231E-07    1.2483895726E-07    1.2799927063E-07    1.3123958772E-07
    1.3456193383E-07    1.3796838554E-07    1.4146107200E-07    1.4504217624E-07
    1.4871393657E-07    1.5247864797E-07    1.5633866350E-07    1.6029639580E-07
    1.6435431858E-07    1.6851496817E-07    1.7278094512E-07    1.7715491580E-07
    1.8163961408E-07    1.8623784306E-07    1.9095247677E-07    1.9578646202E-07
    2.0074282019E-07    2.0582464919E-07    2.1103512532E-07    2.1637750530E-07
    2.2185512828E-07    2.2747141797E-07    2.3322988473E-07    2.3913412780E-07
    2.4518783750E-07    2.5139479762E-07    2.5775888771E-07    2.6428408553E-07
    2.7097446955E-07    2.7783422147E-07    2.8486762887E-07    2.9207908785E-07
    2.9947310582E-07    3.0705430428E-07    3.1482742173E-07    3.2279731662E-07
    3.3096897040E-07    3.3934749062E-07    3.4793811413E-07    3.5674621035E-07
    3.6577728465E-07    3.7503698172E-07    3.8453108920E-07    3.9426554121E-07
    4.0424642210E-07    4.1447997026E-07    4.2497258198E-07    4.3573081551E-07
    4.4676139508E-07    4.5807121518E-07    4.6966734482E-07    4.8155703196E-07
    4.9374770805E-07    5.0624699267E-07    5.1906269828E-07    5.3220283512E-07
    5.4567561622E-07    5.5948946251E-07    5.7365300809E-07    5.8817510567E-07
    6.0306483202E-07    6.1833149373E-07    6.3398463297E-07    6.5003403346E-07
    6.6648972662E-07    6.8336199780E-07    7.0066139273E-07    7.1839872412E-07
    7.3658507838E-07    7.5523182260E-07    7.7435061161E-07    7.9395339529E-07
    8.1405242604E-07    8.3466026642E-07    8.5578979703E-07    8.7745422453E-07
    8.9966708991E-07    9.2244227696E-07    9.4579402094E-07    9.6973691746E-07
    9.9428593165E-07    1.0194564075E-06    1.0452640773E-06    1.0717250718E-06
    1.0988559300E-06    1.1266736096E-06    1.1551954976E-06    1.1844394212E-06
    1.2144236587E-06    1.2451669513E-06    1.2766885147E-06    1.3090080509E-06
    1.3421457607E-06    1.3761223563E-06    1.4109590742E-06    1.4466776885E-06
    1.4833005247E-06    1.5208504732E-06    1.5593510040E-06    1.5988261814E-06
    1.6393006786E-06    1.6807997935E-06    1.7233494646E-06    1.7669762869E-06
    1.8117075287E-06    1.8575711484E-06    1.9045958125E-06    1.9528109130E-06
    2.0022465860E-06    2.0529337305E-06    2.1049040278E-06    2.1581899611E-06
    2.2128248360E-06    2.2688428011E-06    2.3262788697E-06    2.3851689414E-06
    2.4455498245E-06    2.5074592591E-06    2.5709359409E-06    2.6360195450E-06
    2.7027507511E-06    2.7711712683E-06    2.8413238622E-06    2.9132523804E-06
    2.9870017809E-06    3.0626181597E-06    3.1401487799E-06    3.2196421007E-06
    3.3011478083E-06    3.3847168469E-06    3.4704014501E-06    3.5582551739E-06
    3.6483329301E-06    3.7406910204E-06    3.8353871723E-06    3.9324805741E-06
    4.0320319130E-06    4.1341034121E-06    4.2387588699E-06    4.3460637000E-06
    4.4560849719E-06    4.5688914530E-06    4.6845536517E-06    4.8031438610E-06
    4.9247362045E-06    5.0494066820E-06    5.1772332171E-06    5.3082957065E-06
    5.4426760692E-06    5.5804582981E-06    5.7217285125E-06    5.8665750116E-06
    6.0150883303E-06    6.1673612951E-06    6.3234890827E-06    6.4835692790E-06
    6.6477019406E-06    6.8159896569E-06    6.9885376145E-06    7.1654536628E-06
    7.3468483815E-06    7.5328351496E-06    7.7235302165E-06    7.9190527745E-06
    8.1195250331E-06    8.3250722958E-06    8.5358230384E-06    8.7519089887E-06
    8.9734652097E-06    9.2006301834E-06    9.4335458977E-06    9.6723579347E-06
    9.9172155624E-06    1.0168271827E-05    1.0425683651E-05    1.0689611926E-05
    1.0960221621E-05    1.1237681878E-05    1.1522166122E-05    1.1813852169E-05
    1.2112922336E-05    1.2419563555E-05    1.2733967492E-05    1.3056330663E-05
    1.3386854561E-05    1.3725745778E-05    1.4073216138E-05    1.4429482827E-05
    1.4794768528E-05    1.5169301563E-05    1.5553316033E-05    1.5947051967E-05
    1.6350755469E-05    1.6764678874E-05    1.7189080905E-05    1.7624226837E-05
    1.8070388656E-05    1.8527845239E-05    1.8996882519E-05    1.9477793670E-05
    1.9970879287E-05    2.0476447576E-05    2.0994814545E-05    2.1526304202E-05
    2.2071248757E-05    2.2629988833E-05    2.3202873673E-05    2.3790261365E-05
    2.4392519059E-05    2.5010023203E-05    2.5643159774E-05    2.6292324520E-05
    2.6957923210E-05    2.7640371885E-05    2.8340097116E-05    2.9057536279E-05
    2.9793137817E-05    3.0547361530E-05    3.1320678858E-05    3.2113573176E-05
    3.2926540097E-05    3.3760087781E-05    3.4614737253E-05    3.5491022730E-05
    3.6389491953E-05    3.7310706529E-05    3.8255242287E-05    3.9223689631E-05
    4.0216653915E-05    4.1234755817E-05    4.2278631730E-05    4.3348934159E-05
    4.4446332129E-05    4.5571511604E-05    4.6725175912E-05    4.7908046192E-05
    4.9120861839E-05    5.0364380966E-05    5.1639380882E-05    5.2946658578E-05
    5.4287031218E-05    5.5661336662E-05    5.7070433977E-05    5.8515203984E-05
    5.9996549805E-05    6.1515397426E-05    6.3072696280E-05    6.4669419836E-05
    6.6306566213E-05    6.7985158800E-05    6.9706246897E-05    7.1470906373E-05
    7.3280240335E-05    7.5135379822E-05    7.7037484509E-05    7.8987743436E-05
    8.0987375747E-05    8.3037631455E-05    8.5139792224E-05    8.7295172170E-05
    8.9505118682E-05    9.1771013267E-05    9.4094272410E-05    9.6476348465E-05
    9.8918730559E-05    1.0142294553E-04    1.0399055886E-04    1.0662317570E-04
    1.0932244183E-04    1.1209004469E-04    1.1492771447E-04    1.1783722517E-04
    1.2082039569E-04    1.2387909103E-04    1.2701522337E-04    1.3023075334E-04
    1.3352769121E-04    1.3690809815E-04    1.4037408755E-04    1.4392782629E-04
    1.4757153614E-04    1.5130749512E-04    1.5513803896E-04    1.5906556252E-04
    1.6309252131E-04    1.6722143305E-04    1.7145487918E-04    1.7579550656E-04
    1.8024602906E-04    1.8480922927E-04    1.8948796028E-04    1.9428514742E-04
    1.9920379010E-04    2.0424696373E-04    2.0941782157E-04    2.1471959678E-04
    2.2015560439E-04    2.2572924339E-04    2.3144399887E-04    2.3730344421E-04
    2.4331124325E-04    2.4947115270E-04    2.5578702437E-04    2.6226280767E-04
    2.6890255204E-04    2.7571040950E-04    2.8269063725E-04    2.8984760032E-04
    2.9718577433E-04    3.0470974827E-04    3.1242422739E-04    3.2033403614E-04
    3.2844412120E-04    3.3675955456E-04    3.4528553670E-04    3.5402739989E-04
    3.6299061148E-04    3.7218077733E-04    3.8160364536E-04    3.9126510912E-04
    4.0117121149E-04    4.1132814848E-04    4.2174227310E-04    4.3242009933E-04
    4.4336830624E-04    4.5459374215E-04    4.6610342892E-04    4.7790456639E-04
    4.9000453684E-04    5.0241090966E-04    5.1513144609E-04    5.2817410407E-04
    5.4154704326E-04    5.5525863013E-04    5.6931744324E-04    5.8373227860E-04
    5.9851215519E-04    6.1366632063E-04    6.2920425698E-04    6.4513568670E-04
    6.6147057874E-04    6.7821915479E-04    6.9539189576E-04    7.1299954826E-04
    7.3105313144E-04    7.4956394388E-04    7.6854357067E-04    7.8800389072E-04
    8.0795708418E-04    8.2841564017E-04    8.4939236455E-04    8.7090038802E-04
    8.9295317436E-04    9.1556452889E-04    9.3874860718E-04    9.6251992391E-04
    9.8689336206E-04    1.0118841822E-03    1.0375080322E-03    1.0637809569E-03
    1.0907194085E-03    1.1183402566E-03    1.1466607991E-03    1.1756987728E-03
    1.2054723648E-03    1.2360002241E-03    1.2673014728E-03    1.2993957189E-03
    1.3323030680E-03    1.3660441364E-03    1.4006400639E-03    1.4361125272E-03
    1.4724837537E-03    1.5097765352E-03    1.5480142427E-03    1.5872208410E-03
    1.6274209035E-03    1.6686396285E-03    1.7109028544E-03    1.7542370762E-03
    1.7986694627E-03    1.8442278730E-03    1.8909408748E-03    1.9388377619E-03
    1.9879485733E-03    2.0383041118E-03    2.0899359636E-03    2.1428765184E-03
    2.1971589903E-03    2.2528174379E-03    2.3098867870E-03    2.3684028522E-03
    2.4284023595E-03    2.4899229701E-03    2.5530033040E-03    2.6176829647E-03
    2.6840025645E-03    2.7520037499E-03    2.8217292286E-03    2.8932227964E-03
    2.9665293655E-03    3.0416949926E-03    3.1187669087E-03    3.1977935489E-03
    3.2788245836E-03    3.3619109503E-03    3.4471048859E-03    3.5344599601E-03
    3.6240311100E-03    3.7158746750E-03    3.8100484329E-03    3.9066116371E-03
    4.0056250545E-03    4.1071510046E-03    4.2112533992E-03    4.3179977842E-03
    4.4274513808E-03    4.5396831296E-03    4.6547637345E-03    4.7727657084E-03
    4.8937634203E-03    5.0178331427E-03    5.1450531013E-03    5.2755035255E-03
    5.4092667003E-03    5.5464270195E-03    5.6870710406E-03    5.8312875408E-03
    5.9791675746E-03    6.1308045332E-03    6.2862942050E-03    6.4457348384E-03
    6.6092272050E-03    6.7768746666E-03    6.9487832414E-03    7.1250616743E-03
    7.3058215076E-03    7.4911771542E-03    7.6812459728E-03    7.8761483447E-03
    8.0760077532E-03    8.2809508648E-03    8.4911076127E-03    8.7066112825E-03
    8.9275986005E-03    9.1542098239E-03    9.3865888338E-03    9.6248832310E-03
    9.8692444335E-03    1.0119827778E-02    1.0376792622E-02    1.0640302452E-02
    1.0910524993E-02    1.1187632316E-02    1.1471800962E-02    1.1763212051E-02
    1.2062051412E-02    1.2368509703E-02    1.2682782542E-02    1.3005070638E-02
    1.3335579929E-02    1.3674521718E-02    1.4022112822E-02    1.4378575715E-02
    1.4744138683E-02    1.5119035978E-02    1.5503507979E-02    1.5897801359E-02
    1.6302169252E-02    1.6716871430E-02    1.7142174479E-02    1.7578351990E-02
    1.8025684742E-02    1.8484460902E-02    1.8954976223E-02    1.9437534256E-02
    1.9932446555E-02    2.0440032904E-02    2.0960621534E-02    2.1494549365E-02
    2.2042162235E-02    2.2603815150E-02    2.3179872538E-02    2.3770708508E-02
    2.4376707116E-02    2.4998262643E-02    2.5635779879E-02    2.6289674415E-02
    2.6960372944E-02    2.7648313571E-02    2.8353946134E-02    2.9077732528E-02
    2.9820147053E-02    3.0581676753E-02    3.1362821784E-02    3.2164095780E-02
    3.2986026236E-02    3.3829154903E-02    3.4694038190E-02    3.5581247588E-02
    3.6491370095E-02    3.7425008665E-02    3.8382782663E-02    3.9365328340E-02
    4.0373299316E-02    4.1407367087E-02    4.2468221540E-02    4.3556571490E-02
    4.4673145226E-02    4.5818691086E-02    4.6993978038E-02    4.8199796290E-02
    4.9436957910E-02    5.0706297475E-02    5.2008672732E-02    5.3344965288E-02
    5.4716081315E-02    5.6122952286E-02    5.7566535725E-02    5.9047815992E-02
    6.0567805086E-02    6.2127543474E-02    6.3728100954E-02    6.5370577539E-02
    6.7056104375E-02    6.8785844684E-02    7.0560994748E-02    7.2382784910E-02
    7.4252480626E-02    7.6171383537E-02    7.8140832587E-02    8.0162205173E-02
    8.2236918334E-02    8.4366429983E-02    8.6552240178E-02    8.8795892431E-02
    9.1098975075E-02    9.3463122661E-02    9.5890017413E-02    9.8381390727E-02
    1.0093902472E-01    1.0356475385E-01    1.0626046656E-01    1.0902810697E-01
    1.1186967671E-01    1.1478723672E-01    1.1778290911E-01    1.2085887921E-01
    1.2401739751E-01    1.2726078181E-01    1.3059141936E-01    1.3401176914E-01
    1.3752436412E-01    1.4113181373E-01    1.4483680628E-01    1.4864211154E-01
    1.5255058343E-01    1.5656516271E-01    1.6068887981E-01    1.6492485782E-01
    1.6927631547E-01    1.7374657026E-01    1.7833904172E-01    1.8305725474E-01
    1.8790484300E-01    1.9288555261E-01    1.9800324572E-01    2.0326190437E-01
    2.0866563443E-01    2.1421866965E-01    2.1992537583E-01    2.2579025521E-01
    2.3181795091E-01    2.3801325151E-01    2.4438109586E-01    2.5092657797E-01
    2.5765495205E-01    2.6457163776E-01    2.7168222556E-01    2.7899248227E-01
    2.8650835675E-01    2.9423598581E-01    3.0218170021E-01    3.1035203091E-01
    3.1875371547E-01    3.2739370458E-01    3.3627916888E-01    3.4541750583E-01
    3.5481634688E-01    3.6448356474E-01    3.7442728088E-01    3.8465587319E-01
    3.9517798384E-01    4.0600252731E-01    4.1713869860E-01    4.2859598162E-01
    4.4038415777E-01    4.5251331461E-01    4.6499385484E-01    4.7783650525E-01
    4.9105232600E-01    5.0465271990E-01    5.1864944188E-01    5.3305460856E-01
    5.4788070796E-01    5.6314060923E-01    5.7884757249E-01    5.9501525872E-01
    6.1165773968E-01    6.2878950777E-01    6.4642548601E-01    6.6458103780E-01
    6.8327197671E-01    7.0251457609E-01    7.2232557859E-01    7.4272220536E-01
    7.6372216515E-01    7.8534366298E-01    8.0760540855E-01    8.3052662417E-01
    8.5412705226E-01    8.7842696231E-01    9.0344715716E-01    9.2920897864E-01
    9.5573431244E-01    9.8304559199E-01    1.0111658015E+00    1.0401184778E+00
    1.0699277112E+00    1.1006181446E+00    1.1322149715E+00    1.1647439326E+00
    1.1982313102E+00    1.2327039207E+00    1.2681891060E+00    1.3047147211E+00
    1.3423091208E+00    1.3810011428E+00    1.4208200887E+00    1.4617957015E+00
    1.5039581399E+00    1.5473379495E+00    1.5919660299E+00    1.6378735984E+00
    1.6850921486E+00    1.7336534052E+00    1.7835892741E+00    1.8349317867E+00
    1.8877130399E+00    1.9419651294E+00    1.9977200775E+00    2.0550097550E+00
    2.1138657958E+00    2.1743195047E+00    2.2364017585E+00    2.3001428985E+00
    2.3655726164E+00    2.4327198304E+00    2.5016125545E+00    2.5722777571E+00
    2.6447412124E+00    2.7190273405E+00    2.7951590395E+00    2.8731575066E+00
    2.9530420495E+00    3.0348298880E+00    3.1185359445E+00    3.2041726245E+00
    3.2917495869E+00    3.3812735034E+00    3.4727478079E+00    3.5661724359E+00
    3.6615435538E+00    3.7588532789E+00    3.8580893902E+00    3.9592350311E+00
    4.0622684036E+00    4.1671624564E+00    4.2738845662E+00    4.3823962142E+00
    4.4926526592E+00    4.6046026079E+00    4.7181878847E+00    4.8333431024E+00
    4.9499953355E+00    5.0680637994E+00    5.1874595359E+00    5.3080851096E+00
    5.4298343165E+00    5.5525919082E+00    5.6762333353E+00    5.8006245130E+00
    5.9256216123E+00    6.0510708811E+00    6.1768084991E+00    6.3026604701E+00
    6.4284425568E+00    6.5539602622E+00    6.6790088619E+00    6.8033734924E+00
    6.9268293001E+00    7.0491416546E+00    7.1700664330E+00    7.2893503771E+00
    7.4067315302E+00    7.5219397560E+00    7.6346973445E+00    7.7447197069E+00
    7.8517161648E+00    7.9553908326E+00    8.0554435993E+00    8.1515712064E+00
    8.2434684249E+00    8.3308293299E+00    8.4133486706E+00    8.4907233335E+00
    8.5626538941E+00    8.6288462523E+00    8.6890133444E+00    8.7428769234E+00
    8.7901693987E+00    8.8306357225E+00    8.8640353122E+00    8.8901439926E+00
    8.9087559437E+00    8.9196856353E+00    8.9227697315E+00    8.9178689445E+00
    8.9048698159E+00    8.8836864062E+00    8.8542618670E+00    8.8165698755E+00
    8.7706159074E+00    8.7164383251E+00    8.6541092598E+00    8.5837352661E+00
    8.5054577289E+00    8.4194530054E+00    8.3259322855E+00    8.2251411586E+00
    8.1173588752E+00    8.0028972988E+00    7.8820995431E+00    7.7553382973E+00
    7.6230138446E+00    7.4855517841E+00    7.3434004707E+00    7.1970281935E+00
    7.0469201151E+00    6.8935750012E+00    6.7375017731E+00    6.5792159179E+00
    6.4192357976E+00    6.2580788968E+00    6.0962580544E+00    5.9342777226E+00
    5.7726303000E+00    5.6117925814E+00    5.4522223698E+00    5.2943552894E+00
    5.1386018397E+00    4.9853447238E+00    4.8349364818E+00    4.6876974539E+00
    4.5439140944E+00    4.4038376497E+00    4.2676832112E+00    4.1356291460E+00
    4.0078169037E+00    3.8843511952E+00    3.7653005313E+00    3.6506981100E+00
    3.5405430347E+00    3.4348018473E+00    3.3334103575E+00    3.2362757487E+00
    3.1432789426E+00    3.0542772049E+00    2.9691069742E+00    2.8875868957E+00
    2.8095210415E+00    2.7347022961E+00    2.6629158814E+00    2.5939429900E+00
    2.5275644750E+00    2.4635645493E+00    2.4017345713E+00    2.3418773322E+00
    2.2838106182E+00    2.2273696891E+00    2.1724090744E+00    2.1188029593E+00
    2.0664396891E+00    2.0152156421E+00    1.9650347587E+00    1.9158085829E+00
    1.8674562500E+00    1.8199044227E+00    1.7730871790E+00    1.7269458583E+00
    1.6814288678E+00    1.6364914555E+00    1.5920954532E+00    1.5482089930E+00
    1.5048062024E+00    1.4618668814E+00    1.4193761643E+00    1.3773241703E+00
    1.3357056468E+00    1.2945196057E+00    1.2537689591E+00    1.2134601538E+00
    1.1736028080E+00    1.1342093531E+00    1.0952946804E+00    1.0568757970E+00
    1.0189714894E+00    9.8160199824E-01    9.4478870407E-01    9.0855382501E-01
    8.7292012727E-01    8.3791064858E-01    8.0354843511E-01    7.6985629191E-01
    7.3685654697E-01    7.0457082918E-01    6.7301986002E-01    6.4222325918E-01
    6.1219936435E-01    5.8296506542E-01    5.5453565342E-01    5.2692468490E-01
    5.0014386235E-01    4.7420293134E-01    4.4910959549E-01    4.2486944984E-01
    4.0148593355E-01    3.7896030265E-01    3.5729162313E-01    3.3647678461E-01
    3.1651053447E-01    2.9738553172E-01    2.7909241991E-01    2.6161991750E-01
    2.4495492417E-01    2.2908264106E-01    2.1398670272E-01    1.9964931837E-01
    1.8605142003E-01    1.7317281509E-01    1.6099234083E-01    1.4948801876E-01
    1.3863720650E-01    1.2841674558E-01    1.1880310329E-01    1.0977250744E-01
    1.0130107286E-01    9.3364918730E-02    8.5940276469E-02    7.9003587513E-02
    7.2531591135E-02    6.6501402277E-02    6.0890579670E-02    5.5677184612E-02
    5.0839830918E-02    4.6357726589E-02    4.2210707849E-02    3.8379266196E-02
    3.4844569142E-02    3.1588475315E-02    2.8593544552E-02    2.5843043552E-02
    2.3320947984E-02    2.1011940249E-02    1.8901406120E-02    1.6975427218E-02
    1.5220772125E-02    1.3624885489E-02    1.2175875480E-02    1.0862499817E-02
    9.6741505186E-03    8.6008375279E-03    7.6331713241E-03    6.7623446325E-03
    5.9801133296E-03    5.2787766377E-03    4.6511567050E-03    4.0905776648E-03
    3.5908442749E-03    3.1462202379E-03    2.7514063066E-03    2.4015182841E-03
    2.0920650226E-03    1.8189265312E-03    1.5783322950E-03    1.3668399077E-03
    1.1813141115E-03    1.0189063336E-03    8.7703479967E-04    7.5336529456E-04
    6.4579263406E-04    5.5242289830E-04    4.7155646962E-04    4.0167190681E-04
    3.4141067814E-04    2.8956276636E-04    2.4505315021E-04    2.0692915889E-04
    1.7434868883E-04    1.4656926564E-04    1.2293792843E-04    1.0288190918E-04
    8.5900075611E-05    7.1555103234E-05    5.9466339469E-05    4.9303321443E-05
    4.0779907764E-05    3.3648984198E-05    2.7697703256E-05    2.2743218113E-05
    1.8628872233E-05    1.5220807202E-05    1.2404952758E-05    1.0084364650E-05
    8.1768777484E-06    6.6130437598E-06    5.3343248624E-06    4.2915165768E-06
 </PP_RHOATOM>
 <PP_GIPAW gipaw_data_format="2">
   <PP_GIPAW_CORE_ORBITALS number_of_core_orbitals="10">
     <PP_GIPAW_CORE_ORBITAL.1 size="1164" index="1" label="1S" n="1" l="0">
   0.0000000000000000E+00   2.9444917574913975E-02   2.9756335564311315E-02
   3.0071041118010709E-02   3.0389068651418966E-02   3.0710453146630911E-02
   3.1035230018435622E-02   3.1363435054983721E-02   3.1695104420141812E-02
   3.2030274657407799E-02   3.2368982693866809E-02   3.2711265844187265E-02
   3.3057161814658002E-02   3.3406708707266274E-02   3.3759945023817552E-02
   3.4116909670097076E-02   3.4477641960074031E-02   3.4842181620148391E-02
   3.5210568793440977E-02   3.5582844044127128E-02   3.5959048361814558E-02
   3.6339223165965377E-02   3.6723410310363490E-02   3.7111652087626804E-02
   3.7503991233765695E-02   3.7900470932787193E-02   3.8301134821346325E-02
   3.8706026993444193E-02   3.9115192005173695E-02   3.9528674879513337E-02
   3.9946521111169378E-02   4.0368776671467009E-02   4.0795488013290832E-02
   4.1226702076075220E-02   4.1662466290844968E-02   4.2102828585306902E-02
   4.2547837388992468E-02   4.2997541638452368E-02   4.3451990782503357E-02
   4.3911234787527689E-02   4.4375324142825787E-02   4.4844309866022974E-02
   4.5318243508529830E-02   4.5797177161057960E-02   4.6281163459190464E-02
   4.6770255589008443E-02   4.7264507292773761E-02   4.7763972874668444E-02
   4.8268707206591682E-02   4.8778765734014386E-02   4.9294204481892187E-02
   4.9815080060637597E-02   5.0341449672151151E-02   5.0873371115913127E-02
   5.1410902795135237E-02   5.1954103722973731E-02   5.2503033528804220E-02
   5.3057752464558315E-02   5.3618321411123458E-02   5.4184801884805754E-02
   5.4757256043856867E-02   5.5335746695065434E-02   5.5920337300413278E-02
   5.6511091983797460E-02   5.7108075537818451E-02   5.7711353430635118E-02
   5.8320991812887024E-02   5.8937057524684727E-02   5.9559618102668813E-02
   6.0188741787137748E-02   6.0824497529245757E-02   6.1466954998271067E-02
   6.2116184588955049E-02   6.2772257428913097E-02   6.3435245386117417E-02
   6.4105221076453014E-02   6.4782257871347101E-02   6.5466429905472148E-02
   6.6157812084524231E-02   6.6856480093076404E-02   6.7562510402508325E-02
   6.8275980279011952E-02   6.8996967791675079E-02   6.9725551820642481E-02
   7.0461812065355872E-02   7.1205829052872635E-02   7.1957684146264758E-02
   7.2717459553098357E-02   7.3485238333993910E-02   7.4261104411268805E-02
   7.5045142577662122E-02   7.5837438505142685E-02   7.6638078753800756E-02
   7.7447150780824481E-02   7.8264742949561358E-02   7.9090944538665414E-02
   7.9925845751331256E-02   8.0769537724614926E-02   8.1622112538842800E-02
   8.2483663227109025E-02   8.3354283784862260E-02   8.4234069179582177E-02
   8.5123115360546453E-02   8.6021519268689617E-02   8.6929378846553121E-02
   8.7846793048328473E-02   8.8773861849993668E-02   8.9710686259543843E-02
   9.0657368327315926E-02   9.1614011156409686E-02   9.2580718913204241E-02
   9.3557596837971380E-02   9.4544751255586590E-02   9.5542289586338508E-02
   9.6550320356836014E-02   9.7568953211016662E-02   9.8598298921254032E-02
   9.9638469399566179E-02   1.0068957770892646E-01   1.0175173807467561E-01
   1.0282506589603752E-01   1.0390967775773835E-01   1.0500569144173023E-01
   1.0611322593901984E-01   1.0723240146160237E-01   1.0836333945450272E-01
   1.0950616260792245E-01   1.1066099486949613E-01   1.1182796145665418E-01
   1.1300718886909621E-01   1.1419880490137362E-01   1.1540293865558210E-01
   1.1661972055416581E-01   1.1784928235283296E-01   1.1909175715358331E-01
   1.2034727941784944E-01   1.2161598497975065E-01   1.2289801105946206E-01
   1.2419349627669733E-01   1.2550258066430803E-01   1.2682540568199838E-01
   1.2816211423015694E-01   1.2951285066380475E-01   1.3087776080666322E-01
   1.3225699196533791E-01   1.3365069294362372E-01   1.3505901405692791E-01
   1.3648210714681450E-01   1.3792012559566816E-01   1.3937322434148061E-01
   1.4084155989275809E-01   1.4232529034355099E-01   1.4382457538860674E-01
   1.4533957633864578E-01   1.4687045613576166E-01   1.4841737936894478E-01
   1.4998051228973178E-01   1.5156002282797928E-01   1.5315608060776398E-01
   1.5476885696340870E-01   1.5639852495563469E-01   1.5804525938784131E-01
   1.5970923682251231E-01   1.6139063559775096E-01   1.6308963584394226E-01
   1.6480641950054398E-01   1.6654117033300642E-01   1.6829407394982107E-01
   1.7006531781969897E-01   1.7185509128887799E-01   1.7366358559856104E-01
   1.7549099390248329E-01   1.7733751128461092E-01   1.7920333477696868E-01
   1.8108866337759985E-01   1.8299369806865606E-01   1.8491864183461829E-01
   1.8686369968064898E-01   1.8882907865107515E-01   1.9081498784800266E-01
   1.9282163845006159E-01   1.9484924373128304E-01   1.9689801908010660E-01
   1.9896818201851918E-01   2.0105995222132444E-01   2.0317355153554334E-01
   2.0530920399994493E-01   2.0746713586470797E-01   2.0964757561121170E-01
   2.1185075397195727E-01   2.1407690395061826E-01   2.1632626084222112E-01
   2.1859906225345194E-01   2.2089554812309417E-01   2.2321596074259256E-01
   2.2556054477674367E-01   2.2792954728451403E-01   2.3032321773998354E-01
   2.3274180805341305E-01   2.3518557259243819E-01   2.3765476820338374E-01
   2.4014965423270340E-01   2.4267049254853879E-01   2.4521754756239933E-01
   2.4779108625096255E-01   2.5039137817799068E-01   2.5301869551636536E-01
   2.5567331307023766E-01   2.5835550829729070E-01   2.6106556133111652E-01
   2.6380375500370362E-01   2.6657037486803176E-01   2.6936570922077657E-01
   2.7219004912511791E-01   2.7504368843365357E-01   2.7792692381141204E-01
   2.8084005475896656E-01   2.8378338363564481E-01   2.8675721568283385E-01
   2.8976185904737745E-01   2.9279762480506100E-01   2.9586482698418543E-01
   2.9896378258922313E-01   3.0209481162455470E-01   3.0525823711828459E-01
   3.0845438514612961E-01   3.1168358485537900E-01   3.1494616848892099E-01
   3.1824247140933437E-01   3.2157283212303844E-01   3.2493759230449970E-01
   3.2833709682048934E-01   3.3177169375438820E-01   3.3524173443053479E-01
   3.3874757343861112E-01   3.4228956865806248E-01   3.4586808128254437E-01
   3.4948347584439315E-01   3.5313612023911517E-01   3.5682638574988751E-01
   3.6055464707206519E-01   3.6432128233768918E-01   3.6812667313998909E-01
   3.7197120455787486E-01   3.7585526518040874E-01   3.7977924713125366E-01
   3.8374354609308914E-01   3.8774856133198843E-01   3.9179469572175041E-01
   3.9588235576817676E-01   4.0001195163328662E-01   4.0418389715946457E-01
   4.0839860989352855E-01   4.1265651111071294E-01   4.1695802583855551E-01
   4.2130358288068348E-01   4.2569361484048240E-01   4.3012855814464684E-01
   4.3460885306659747E-01   4.3913494374975515E-01   4.4370727823066486E-01
   4.4832630846195731E-01   4.5299249033513445E-01   4.5770628370317518E-01
   4.6246815240294170E-01   4.6727856427738068E-01   4.7213799119750605E-01
   4.7704690908414854E-01   4.8200579792946463E-01   4.8701514181818684E-01
   4.9207542894860556E-01   4.9718715165326854E-01   5.0235080641938190E-01
   5.0756689390890408E-01   5.1283591897831027E-01   5.1815839069802072E-01
   5.2353482237147053E-01   5.2896573155381299E-01   5.3445164007023127E-01
   5.3999307403385355E-01   5.4559056386323990E-01   5.5124464429944398E-01
   5.5695585442260787E-01   5.6272473766809517E-01   5.6855184184212781E-01
   5.7443771913691477E-01   5.8038292614525255E-01   5.8638802387457611E-01
   5.9245357776044238E-01   5.9858015767942241E-01   6.0476833796138374E-01
   6.1101869740114256E-01   6.1733181926945380E-01   6.2370829132333216E-01
   6.3014870581566684E-01   6.3665365950411013E-01   6.4322375365922246E-01
   6.4985959407183547E-01   6.5656179105961965E-01   6.6333095947282283E-01
   6.7016771869915481E-01   6.7707269266779380E-01   6.8404650985247661E-01
   6.9108980327365843E-01   6.9820321049969769E-01   7.0538737364704573E-01
   7.1264293937940815E-01   7.1997055890583939E-01   7.2737088797775062E-01
   7.3484458688478682E-01   7.4239232044954218E-01   7.5001475802108331E-01
   7.5771257346723553E-01   7.6548644516561015E-01   7.7333705599331803E-01
   7.8126509331534466E-01   7.8927124897154544E-01   7.9735621926221301E-01
   8.0552070493219008E-01   8.1376541115347190E-01   8.2209104750626849E-01
   8.3049832795847378E-01   8.3898797084349863E-01   8.4756069883643115E-01
   8.5621723892846480E-01   8.6495832239956438E-01   8.7378468478929228E-01
   8.8269706586578578E-01   8.9169620959280005E-01   9.0078286409478148E-01
   9.0995778161992402E-01   9.1922171850113543E-01   9.2857543511488150E-01
   9.3801969583783651E-01   9.4755526900128673E-01   9.5718292684324158E-01
   9.6690344545816420E-01   9.7671760474429581E-01   9.8662618834848748E-01
   9.9662998360848276E-01   1.0067297814925971E+00   1.0169263765367094E+00
   1.0272205667785208E+00   1.0376131536889948E+00   1.0481049421009201E+00
   1.0586967401345257E+00   1.0693893591200661E+00   1.0801836135173137E+00
   1.0910803208318867E+00   1.1020803015283205E+00   1.1131843789398297E+00
   1.1243933791746488E+00   1.1357081310189103E+00   1.1471294658359463E+00
   1.1586582174619460E+00   1.1702952220978919E+00   1.1820413181976599E+00
   1.1938973463522298E+00   1.2058641491699054E+00   1.2179425711524308E+00
   1.2301334585669572E+00   1.2424376593137170E+00   1.2548560227893495E+00
   1.2673893997457595E+00   1.2800386421444141E+00   1.2928046030059936E+00
   1.3056881362552595E+00   1.3186900965610813E+00   1.3318113391714876E+00
   1.3450527197436364E+00   1.3584150941686224E+00   1.3718993183909653E+00
   1.3855062482227269E+00   1.3992367391520895E+00   1.4130916461463188E+00
   1.4270718234489796E+00   1.4411781243712840E+00   1.4554114010774675E+00
   1.4697725043640499E+00   1.4842622834328847E+00   1.4988815856578550E+00
   1.5136312563450902E+00   1.5285121384865890E+00   1.5435250725071088E+00
   1.5586708960041924E+00   1.5739504434812051E+00   1.5893645460732484E+00
   1.6049140312658041E+00   1.6205997226059905E+00   1.6364224394062734E+00
   1.6523829964405157E+00   1.6684822036321993E+00   1.6847208657346853E+00
   1.7010997820033920E+00   1.7176197458597058E+00   1.7342815445465072E+00
   1.7510859587751650E+00   1.7680337623638169E+00   1.7851257218668386E+00
   1.8023625961953016E+00   1.8197451362282997E+00   1.8372740844149769E+00
   1.8549501743670989E+00   1.8727741304420344E+00   1.8907466673159536E+00
   1.9088684895471313E+00   1.9271402911291631E+00   1.9455627550339434E+00
   1.9641365527442705E+00   1.9828623437758823E+00   2.0017407751887921E+00
   2.0207724810877594E+00   2.0399580821117147E+00   2.0592981849120164E+00
   2.0787933816193513E+00   2.0984442492991189E+00   2.1182513493951731E+00
   2.1382152271617083E+00   2.1583364110831855E+00   2.1786154122821109E+00
   2.1990527239145070E+00   2.2196488205529650E+00   2.2404041575570366E+00
   2.2613191704309235E+00   2.2823942741682113E+00   2.3036298625835685E+00
   2.3250263076312416E+00   2.3465839587101636E+00   2.3683031419556060E+00
   2.3901841595171707E+00   2.4122272888230056E+00   2.4344327818301283E+00
   2.4568008642606807E+00   2.4793317348240405E+00   2.5020255644246192E+00
   2.5248824953552504E+00   2.5479026404760678E+00   2.5710860823786912E+00
   2.5944328725357186E+00   2.6179430304353382E+00   2.6416165427009926E+00
   2.6654533621960370E+00   2.6894534071132248E+00   2.7136165600490534E+00
   2.7379426670628102E+00   2.7624315367202934E+00   2.7870829391221599E+00
   2.8118966049168317E+00   2.8368722242979314E+00   2.8620094459862364E+00
   2.8873078761960840E+00   2.9127670775862868E+00   2.9383865681954893E+00
   2.9641658203620112E+00   2.9901042596282226E+00   3.0162012636294291E+00
   3.0424561609673746E+00   3.0688682300683552E+00   3.0954366980260959E+00
   3.1221607394294129E+00   3.1490394751747903E+00   3.1760719712640100E+00
   3.2032572375869024E+00   3.2305942266894587E+00   3.2580818325273952E+00
   3.2857188892054037E+00   3.3135041697022647E+00   3.3414363845820625E+00
   3.3695141806917310E+00   3.3977361398452293E+00   3.4261007774945753E+00
   3.4546065413881069E+00   3.4832518102162524E+00   3.5120348922452092E+00
   3.5409540239388675E+00   3.5700073685694211E+00   3.5991930148170845E+00
   3.6285089753593560E+00   3.6579531854503498E+00   3.6875235014906882E+00
   3.7172176995885113E+00   3.7470334741121851E+00   3.7769684362352867E+00
   3.8070201124745608E+00   3.8371859432214781E+00   3.8674632812681256E+00
   3.8978493903281843E+00   3.9283414435537329E+00   3.9589365220487664E+00
   3.9896316133802259E+00   4.0204236100874695E+00   4.0513093081911222E+00
   4.0822854057022804E+00   4.1133485011330801E+00   4.1444950920097350E+00
   4.1757215733891107E+00   4.2070242363800388E+00   4.2383992666705161E+00
   4.2698427430621209E+00   4.3013506360128702E+00   4.3329188061899275E+00
   4.3645430030335293E+00   4.3962188633336003E+00   4.4279419098205501E+00
   4.4597075497718546E+00   4.4915110736359605E+00   4.5233476536752910E+00
   4.5552123426299698E+00   4.5871000724041382E+00   4.6190056527766599E+00
   4.6509237701381396E+00   4.6828489862562268E+00   4.7147757370711885E+00
   4.7466983315239037E+00   4.7786109504183685E+00   4.8105076453209552E+00
   4.8423823374987061E+00   4.8742288168989676E+00   4.9060407411728280E+00
   4.9378116347447474E+00   4.9695348879310135E+00   5.0012037561095237E+00
   5.0328113589436159E+00   5.0643506796626889E+00   5.0958145644023656E+00
   5.1271957216070909E+00   5.1584867214980923E+00   5.1896799956096924E+00
   5.2207678363969947E+00   5.2517423969181580E+00   5.2825956905943308E+00
   5.3133195910505879E+00   5.3439058320411208E+00   5.3743460074620577E+00
   5.4046315714554121E+00   5.4347538386075334E+00   5.4647039842457010E+00
   5.4944730448364298E+00   5.5240519184891195E+00   5.5534313655687795E+00
   5.5826020094215876E+00   5.6115543372170462E+00   5.6402787009106197E+00
   5.6687653183307001E+00   5.6970042743938514E+00   5.7249855224522790E+00
   5.7526988857775008E+00   5.7801340591842401E+00   5.8072806107985651E+00
   5.8341279839743567E+00   5.8606654993621410E+00   5.8868823571343691E+00
   5.9127676393712392E+00   5.9383103126111090E+00   5.9634992305695986E+00
   5.9883231370314167E+00   6.0127706689189564E+00   6.0368303595416508E+00
   6.0604906420300813E+00   6.0837398529587556E+00   6.1065662361614432E+00
   6.1289579467428723E+00   6.1509030552905717E+00   6.1723895522905110E+00
   6.1934053527501618E+00   6.2139383010324538E+00   6.2339761759040249E+00
   6.2535066958010850E+00   6.2725175243159779E+00   6.2909962759075517E+00
   6.3089305218381035E+00   6.3263077963397238E+00   6.3431156030124720E+00
   6.3593414214567936E+00   6.3749727141423449E+00   6.3899969335151265E+00
   6.4044015293446659E+00   6.4181739563127218E+00   6.4313016818447437E+00
   6.4437721941850246E+00   6.4555730107162477E+00   6.4666916865237525E+00
   6.4771158232046195E+00   6.4868330779212924E+00   6.4958311726990932E+00
   6.5040979039666684E+00   6.5116211523380150E+00   6.5183888926342695E+00
   6.5243892041431613E+00   6.5296102811134524E+00   6.5340404434813850E+00
   6.5376681478255207E+00   6.5404819985460936E+00   6.5424707592642486E+00
   6.5436233644362627E+00   6.5439289311771152E+00   6.5433767712873419E+00
   6.5419564034765481E+00   6.5396575657762241E+00   6.5364702281341440E+00
   6.5323846051817869E+00   6.5273911691657487E+00   6.5214806630333895E+00
   6.5146441136623272E+00   6.5068728452227358E+00   6.4981584926606821E+00
   6.4884930152900573E+00   6.4778687104800321E+00   6.4662782274240778E+00
   6.4537145809760394E+00   6.4401711655379650E+00   6.4256417689835894E+00
   6.4101205866007227E+00   6.3936022350350088E+00   6.3760817662167915E+00
   6.3575546812519903E+00   6.3380169442573013E+00   6.3174649961191571E+00
   6.2958957681551686E+00   6.2733066956561192E+00   6.2496957312857369E+00
   6.2250613583148136E+00   6.1994026036656109E+00   6.1727190507416241E+00
   6.1450108520173101E+00   6.1162787413615494E+00   6.0865240460681758E+00
   6.0557486985660924E+00   6.0239552477810934E+00   5.9911468701208861E+00
   5.9573273800542852E+00   5.9225012402551096E+00   5.8866735712809213E+00
   5.8498501607562119E+00   5.8120374720295400E+00   5.7732426522735931E+00
   5.7334735399971191E+00   5.6927386719375068E+00   5.6510472893024835E+00
   5.6084093433298534E+00   5.5648355001337464E+00   5.5203371448065006E+00
   5.4749263847453307E+00   5.4286160521732532E+00   5.3814197058246007E+00
   5.3333516317656553E+00   5.2844268433218371E+00   5.2346610800840265E+00
   5.1840708059669520E+00   5.1326732062944478E+00   5.0804861838871354E+00
   5.0275283541294282E+00   4.9738190389948098E+00   4.9193782600090596E+00
   4.8642267301336046E+00   4.8083858445524843E+00   4.7518776703481764E+00
   4.6947249350539364E+00   4.6369510140694894E+00   4.5785799169394652E+00
   4.5196362724804295E+00   4.4601453127446176E+00   4.4001328558360964E+00
   4.3396252875661885E+00   4.2786495419528174E+00   4.2172330805677136E+00
   4.1554038707373175E+00   4.0931903626060349E+00   4.0306214650724677E+00
   3.9677265206121661E+00   3.9045352790026540E+00   3.8410778699695567E+00
   3.7773847747752618E+00   3.7134867967745300E+00   3.6494150309644220E+00
   3.5852008325591012E+00   3.5208757846229410E+00   3.4564716647988951E+00
   3.3920204111719050E+00   3.3275540873108063E+00   3.2631048465351387E+00
   3.1987048954567667E+00   3.1343864568497839E+00   3.0701817319050009E+00
   3.0061228619296734E+00   2.9422418895556972E+00   2.8785707195234282E+00
   2.8151410791118288E+00   2.7519844782882266E+00   2.6891321696552297E+00
   2.6266151082744456E+00   2.5644639114498791E+00   2.5027088185567892E+00
   2.4413796510033863E+00   2.3805057724157046E+00   2.3201160491372517E+00
   2.2602388111364951E+00   2.2009018134171265E+00   2.1421321980260331E+00
   2.0839564567553444E+00   2.0264003946348335E+00   1.9694890943107302E+00
   1.9132468814073651E+00   1.8576972909665170E+00   1.8028630350589643E+00
   1.7487659716611454E+00   1.6954270748878495E+00   1.6428664066703196E+00
   1.5911030899660616E+00   1.5401552835842225E+00   1.4900401587070957E+00
   1.4407738771845069E+00   1.3923715716742642E+00   1.3448473276971846E+00
   1.2982141676706949E+00   1.2524840369801169E+00   1.2076677921410701E+00
   1.1637751911011307E+00   1.1208148857226825E+00   1.0787944164827425E+00
   1.0377202094190652E+00   9.9759757534496563E-01   9.5843071134852897E-01
   9.2022270458444255E-01   8.8297553835972908E-01   8.4669010050682303E-01
   8.1136619403015364E-01   7.7700255000467944E-01   7.4359684269700932E-01
   7.1114570687239587E-01   6.7964475724287843E-01   6.4908861000451501E-01
   6.1947090640414482E-01   5.9078433826864840E-01   5.6302067542278378E-01
   5.3617079491449304E-01   5.1022471196001762E-01   4.8517161251487906E-01
   4.6099988737047048E-01   4.3769716767061490E-01   4.1525036173695595E-01
   3.9364569308717601E-01   3.7286873952586502E-01   3.5290447318360313E-01
   3.3373730137674107E-01   3.1535110815734430E-01   2.9772929642041046E-01
   2.8085483043399256E-01   2.6471027865645247E-01   2.4927785670476560E-01
   2.3453947033784012E-01   2.2047675831948643E-01   2.0707113502716099E-01
   1.9430383267447590E-01   1.8215594301811655E-01   1.7060845842307235E-01
   1.5964231216377545E-01   1.4923841784325456E-01   1.3937770781724523E-01
   1.3004117051568215E-01   1.2120988655995099E-01   1.1286506358060434E-01
   1.0498806964709027E-01   9.7560465228151677E-02   9.0564033609047703E-02
   8.3980809699485334E-02   7.7793107174118678E-02   7.1983543895641711E-02
   6.6535065578793767E-02   6.1430967661991784E-02   5.6654915361714124E-02
   5.2190961893234182E-02   4.8023564849619504E-02   4.4137600739215618E-02
   4.0518377689948440E-02   3.7151646336680250E-02   3.4023608915617079E-02
   3.1120926597202184E-02   2.8430725096173674E-02   2.5940598604419572E-02
   2.3638612098867917E-02   2.1513302082937797E-02   1.9553675825884118E-02
   1.7749209169643305E-02   1.6089842977488868E-02   1.4565978302761819E-02
   1.3168470359242001E-02   1.1888621377254938E-02   1.0718172431451652E-02
   9.6492943273970653E-03   8.6745776346668999E-03   7.7870219541962375E-03
   6.9800245071405167E-03   6.2473681315651673E-03   5.5832087719013494E-03
   4.9820625443002886E-03   4.4387924588228569E-03   3.9485948768315732E-03
   3.5069857790246653E-03   3.1097869163064112E-03   2.7531119121453397E-03
   2.4333523812719929E-03   2.1471641255476079E-03   1.8914534636336412E-03
   1.6633637467518148E-03   1.4602621083836731E-03   1.2797264912623710E-03
   1.1195329904889354E-03   9.7764354710949664E-04   8.5219402204061924E-04
   7.4148267586937144E-04   6.4395907580980184E-04   5.5821344699317035E-04
   4.8296648133411247E-04   4.1705961346678194E-04   3.5944576970340113E-04
   3.0918059264923859E-04   2.6541414102286315E-04   2.2738306138815240E-04
   1.9440322591554625E-04   1.6586282795012813E-04   1.4121592508214721E-04
   1.1997641758422844E-04   1.0171244849755532E-04   8.6041210309253789E-05
   7.2624142056479591E-05   6.1162499810126102E-05   5.1393282819554933E-05
   4.3085497127587026E-05   3.6036738175837776E-05   3.0070073802368810E-05
   2.5031209066843022E-05   2.0785914509125343E-05   1.7217699737363716E-05
   1.4225714633880103E-05   1.1722860943816441E-05   9.6340975543809328E-06
   7.8949233628543075E-06   6.4500222495021209E-06   5.2520551958409990E-06
   4.2648744850726662E-06   3.6601081188760412E-06  -3.2595683839070597E-07
  -8.3971238064677769E-09   0.0000000000000000E+00   0.0000000000000000E+00
   0.0000000000000000E+00   0.0000000000000000E+00   0.0000000000000000E+00
   0.0000000000000000E+00   0.0000000000000000E+00   0.0000000000000000E+00
   0.0000000000000000E+00   0.0000000000000000E+00   0.0000000000000000E+00
   0.0000000000000000E+00   0.0000000000000000E+00   0.0000000000000000E+00
   0.0000000000000000E+00   0.0000000000000000E+00   0.0000000000000000E+00
   0.0000000000000000E+00   0.0000000000000000E+00   0.0000000000000000E+00
   0.0000000000000000E+00   0.0000000000000000E+00   0.0000000000000000E+00
   0.0000000000000000E+00   0.0000000000000000E+00   0.0000000000000000E+00
   0.0000000000000000E+00   0.0000000000000000E+00   0.0000000000000000E+00
   0.0000000000000000E+00   0.0000000000000000E+00   0.0000000000000000E+00
   0.0000000000000000E+00   0.0000000000000000E+00   0.0000000000000000E+00
   0.0000000000000000E+00   0.0000000000000000E+00   0.0000000000000000E+00
   0.0000000000000000E+00   0.0000000000000000E+00   0.0000000000000000E+00
   0.0000000000000000E+00   0.0000000000000000E+00   0.0000000000000000E+00
   0.0000000000000000E+00   0.0000000000000000E+00   0.0000000000000000E+00
   0.0000000000000000E+00   0.0000000000000000E+00   0.0000000000000000E+00
   0.0000000000000000E+00   0.0000000000000000E+00   0.0000000000000000E+00
   0.0000000000000000E+00   0.0000000000000000E+00   0.0000000000000000E+00
   0.0000000000000000E+00   0.0000000000000000E+00   0.0000000000000000E+00
   0.0000000000000000E+00   0.0000000000000000E+00   0.0000000000000000E+00
   0.0000000000000000E+00   0.0000000000000000E+00   0.0000000000000000E+00
   0.0000000000000000E+00   0.0000000000000000E+00   0.0000000000000000E+00
   0.0000000000000000E+00   0.0000000000000000E+00   0.0000000000000000E+00
   0.0000000000000000E+00   0.0000000000000000E+00   0.0000000000000000E+00
   0.0000000000000000E+00   0.0000000000000000E+00   0.0000000000000000E+00
   0.0000000000000000E+00   0.0000000000000000E+00   0.0000000000000000E+00
   0.0000000000000000E+00   0.0000000000000000E+00   0.0000000000000000E+00
   0.0000000000000000E+00   0.0000000000000000E+00   0.0000000000000000E+00
   0.0000000000000000E+00   0.0000000000000000E+00   0.0000000000000000E+00
   0.0000000000000000E+00   0.0000000000000000E+00   0.0000000000000000E+00
   0.0000000000000000E+00   0.0000000000000000E+00   0.0000000000000000E+00
   0.0000000000000000E+00   0.0000000000000000E+00   0.0000000000000000E+00
   0.0000000000000000E+00   0.0000000000000000E+00   0.0000000000000000E+00
   0.0000000000000000E+00   0.0000000000000000E+00   0.0000000000000000E+00
   0.0000000000000000E+00   0.0000000000000000E+00   0.0000000000000000E+00
   0.0000000000000000E+00   0.0000000000000000E+00   0.0000000000000000E+00
   0.0000000000000000E+00   0.0000000000000000E+00   0.0000000000000000E+00
   0.0000000000000000E+00   0.0000000000000000E+00   0.0000000000000000E+00
   0.0000000000000000E+00   0.0000000000000000E+00   0.0000000000000000E+00
   0.0000000000000000E+00   0.0000000000000000E+00   0.0000000000000000E+00
   0.0000000000000000E+00   0.0000000000000000E+00   0.0000000000000000E+00
   0.0000000000000000E+00   0.0000000000000000E+00   0.0000000000000000E+00
   0.0000000000000000E+00   0.0000000000000000E+00   0.0000000000000000E+00
   0.0000000000000000E+00   0.0000000000000000E+00   0.0000000000000000E+00
   0.0000000000000000E+00   0.0000000000000000E+00   0.0000000000000000E+00
   0.0000000000000000E+00   0.0000000000000000E+00   0.0000000000000000E+00
   0.0000000000000000E+00   0.0000000000000000E+00   0.0000000000000000E+00
   0.0000000000000000E+00   0.0000000000000000E+00   0.0000000000000000E+00
   0.0000000000000000E+00   0.0000000000000000E+00   0.0000000000000000E+00
   0.0000000000000000E+00   0.0000000000000000E+00   0.0000000000000000E+00
   0.0000000000000000E+00   0.0000000000000000E+00   0.0000000000000000E+00
   0.0000000000000000E+00   0.0000000000000000E+00   0.0000000000000000E+00
   0.0000000000000000E+00   0.0000000000000000E+00   0.0000000000000000E+00
   0.0000000000000000E+00   0.0000000000000000E+00   0.0000000000000000E+00
   0.0000000000000000E+00   0.0000000000000000E+00   0.0000000000000000E+00
   0.0000000000000000E+00   0.0000000000000000E+00   0.0000000000000000E+00
   0.0000000000000000E+00   0.0000000000000000E+00   0.0000000000000000E+00
   0.0000000000000000E+00   0.0000000000000000E+00   0.0000000000000000E+00
   0.0000000000000000E+00   0.0000000000000000E+00   0.0000000000000000E+00
   0.0000000000000000E+00   0.0000000000000000E+00   0.0000000000000000E+00
   0.0000000000000000E+00   0.0000000000000000E+00   0.0000000000000000E+00
   0.0000000000000000E+00   0.0000000000000000E+00   0.0000000000000000E+00
   0.0000000000000000E+00   0.0000000000000000E+00   0.0000000000000000E+00
   0.0000000000000000E+00   0.0000000000000000E+00   0.0000000000000000E+00
   0.0000000000000000E+00   0.0000000000000000E+00   0.0000000000000000E+00
   0.0000000000000000E+00   0.0000000000000000E+00   0.0000000000000000E+00
   0.0000000000000000E+00   0.0000000000000000E+00   0.0000000000000000E+00
   0.0000000000000000E+00   0.0000000000000000E+00   0.0000000000000000E+00
   0.0000000000000000E+00   0.0000000000000000E+00   0.0000000000000000E+00
   0.0000000000000000E+00   0.0000000000000000E+00   0.0000000000000000E+00
   0.0000000000000000E+00   0.0000000000000000E+00   0.0000000000000000E+00
   0.0000000000000000E+00   0.0000000000000000E+00   0.0000000000000000E+00
   0.0000000000000000E+00   0.0000000000000000E+00   0.0000000000000000E+00
   0.0000000000000000E+00   0.0000000000000000E+00   0.0000000000000000E+00
   0.0000000000000000E+00   0.0000000000000000E+00   0.0000000000000000E+00
   0.0000000000000000E+00   0.0000000000000000E+00   0.0000000000000000E+00
   0.0000000000000000E+00   0.0000000000000000E+00   0.0000000000000000E+00
   0.0000000000000000E+00   0.0000000000000000E+00   0.0000000000000000E+00
   0.0000000000000000E+00   0.0000000000000000E+00   0.0000000000000000E+00
   0.0000000000000000E+00   0.0000000000000000E+00   0.0000000000000000E+00
   0.0000000000000000E+00   0.0000000000000000E+00   0.0000000000000000E+00
   0.0000000000000000E+00   0.0000000000000000E+00   0.0000000000000000E+00
   0.0000000000000000E+00   0.0000000000000000E+00   0.0000000000000000E+00
   0.0000000000000000E+00   0.0000000000000000E+00   0.0000000000000000E+00
   0.0000000000000000E+00   0.0000000000000000E+00   0.0000000000000000E+00
   0.0000000000000000E+00   0.0000000000000000E+00   0.0000000000000000E+00
   0.0000000000000000E+00   0.0000000000000000E+00   0.0000000000000000E+00
   0.0000000000000000E+00   0.0000000000000000E+00   0.0000000000000000E+00
   0.0000000000000000E+00   0.0000000000000000E+00   0.0000000000000000E+00
   0.0000000000000000E+00   0.0000000000000000E+00   0.0000000000000000E+00
   0.0000000000000000E+00   0.0000000000000000E+00   0.0000000000000000E+00
   0.0000000000000000E+00   0.0000000000000000E+00   0.0000000000000000E+00
   0.0000000000000000E+00   0.0000000000000000E+00   0.0000000000000000E+00
   0.0000000000000000E+00   0.0000000000000000E+00   0.0000000000000000E+00
   0.0000000000000000E+00   0.0000000000000000E+00   0.0000000000000000E+00
   0.0000000000000000E+00   0.0000000000000000E+00   0.0000000000000000E+00
   0.0000000000000000E+00   0.0000000000000000E+00   0.0000000000000000E+00
   0.0000000000000000E+00   0.0000000000000000E+00   0.0000000000000000E+00
   0.0000000000000000E+00   0.0000000000000000E+00   0.0000000000000000E+00
   0.0000000000000000E+00   0.0000000000000000E+00   0.0000000000000000E+00
   0.0000000000000000E+00   0.0000000000000000E+00   0.0000000000000000E+00
   0.0000000000000000E+00   0.0000000000000000E+00   0.0000000000000000E+00
   0.0000000000000000E+00   0.0000000000000000E+00   0.0000000000000000E+00
   0.0000000000000000E+00   0.0000000000000000E+00   0.0000000000000000E+00
   0.0000000000000000E+00   0.0000000000000000E+00   0.0000000000000000E+00
   0.0000000000000000E+00   0.0000000000000000E+00   0.0000000000000000E+00
     </PP_GIPAW_CORE_ORBITAL.1>
     <PP_GIPAW_CORE_ORBITAL.2 size="1164" index="2" label="2S" n="2" l="0">
   0.0000000000000000E+00  -1.0808030441227223E-02  -1.0922339274372200E-02
  -1.1037854601343332E-02  -1.1154589038320133E-02  -1.1272555417192139E-02
  -1.1391766731021174E-02  -1.1512236109801633E-02  -1.1633976821261587E-02
  -1.1757002272295836E-02  -1.1881326010413678E-02  -1.2006961725201430E-02
  -1.2133923249799857E-02  -1.2262224562396463E-02  -1.2391879787733064E-02
  -1.2522903198628628E-02  -1.2655309217517471E-02  -1.2789112418003210E-02
  -1.2924327526428305E-02  -1.3060969423459549E-02  -1.3199053145689654E-02
  -1.3338593887254904E-02  -1.3479607001469348E-02  -1.3622108002475274E-02
  -1.3766112566910559E-02  -1.3911636535592681E-02  -1.4058695915219801E-02
  -1.4207306880088977E-02  -1.4357485773831606E-02  -1.4509249111166474E-02
  -1.4662613579670273E-02  -1.4817596041566013E-02  -1.4974213535529402E-02
  -1.5132483278513287E-02  -1.5292422667590466E-02  -1.5454049281814904E-02
  -1.5617380884101669E-02  -1.5782435423125581E-02  -1.5949231035238941E-02
  -1.6117786046408403E-02  -1.6288118974171106E-02  -1.6460248529610477E-02
  -1.6634193619351558E-02  -1.6809973347576359E-02  -1.6987607018059205E-02
  -1.7167114136222270E-02  -1.7348514411211702E-02  -1.7531827757994174E-02
  -1.7717074299474330E-02  -1.7904274368633285E-02  -1.8093448510688108E-02
  -1.8284617485272894E-02  -1.8477802268641236E-02  -1.8673024055890497E-02
  -1.8870304263208126E-02  -1.9069664530139873E-02  -1.9271126721880649E-02
  -1.9474712931587659E-02  -1.9680445482716476E-02  -1.9888346931379836E-02
  -2.0098440068729812E-02  -2.0310747923363116E-02  -2.0525293763750081E-02
  -2.0742101100687298E-02  -2.0961193689774272E-02  -2.1182595533914259E-02
  -2.1406330885839302E-02  -2.1632424250660122E-02  -2.1860900388440539E-02
  -2.2091784316797015E-02  -2.2325101313523447E-02  -2.2560876919241253E-02
  -2.2799136940075206E-02  -2.3039907450355120E-02  -2.3283214795343520E-02
  -2.3529085593989689E-02  -2.3777546741710200E-02  -2.4028625413196114E-02
  -2.4282349065247261E-02  -2.4538745439633459E-02  -2.4797842565983434E-02
  -2.5059668764701032E-02  -2.5324252649909493E-02  -2.5591623132423660E-02
  -2.5861809422750581E-02  -2.6134841034118419E-02  -2.6410747785534407E-02
  -2.6689559804871445E-02  -2.6971307531984082E-02  -2.7256021721853856E-02
  -2.7543733447764316E-02  -2.7834474104505843E-02  -2.8128275411610643E-02
  -2.8425169416618091E-02  -2.8725188498370503E-02  -2.9028365370339926E-02
  -2.9334733083985761E-02  -2.9644325032143728E-02  -2.9957174952446302E-02
  -3.0273316930774893E-02  -3.0592785404743961E-02  -3.0915615167217327E-02
  -3.1241841369856888E-02  -3.1571499526703919E-02  -3.1904625517793453E-02
  -3.2241255592801547E-02  -3.2581426374725969E-02  -3.2925174863600609E-02
  -3.3272538440243429E-02  -3.3623554870038611E-02  -3.3978262306753035E-02
  -3.4336699296387045E-02  -3.4698904781060157E-02  -3.5064918102931567E-02
  -3.5434779008155920E-02  -3.5808527650874458E-02  -3.6186204597241853E-02
  -3.6567850829488720E-02  -3.6953507750020508E-02  -3.7343217185552523E-02
  -3.7737021391281315E-02  -3.8134963055093209E-02  -3.8537085301809521E-02
  -3.8943431697468923E-02  -3.9354046253647433E-02  -3.9768973431815957E-02
  -4.0188258147735363E-02  -4.0611945775890140E-02  -4.1040082153959788E-02
  -4.1472713587328951E-02  -4.1909886853636245E-02  -4.2351649207361695E-02
  -4.2798048384453488E-02  -4.3249132606993923E-02  -4.3704950587904703E-02
  -4.4165551535692106E-02  -4.4630985159231785E-02  -4.5101301672593672E-02
  -4.5576551799907251E-02  -4.6056786780266805E-02  -4.6542058372677941E-02
  -4.7032418861044034E-02  -4.7527921059194268E-02  -4.8028618315952454E-02
  -4.8534564520246987E-02  -4.9045814106262686E-02  -4.9562422058633641E-02
  -5.0084443917678058E-02  -5.0611935784675051E-02  -5.1144954327183287E-02
  -5.1683556784401792E-02  -5.2227800972573152E-02  -5.2777745290428855E-02
  -5.3333448724677518E-02  -5.3894970855535532E-02  -5.4462371862300567E-02
  -5.5035712528967683E-02  -5.5615054249888822E-02  -5.6200459035474971E-02
  -5.6791989517941878E-02  -5.7389708957098350E-02  -5.7993681246178673E-02
  -5.8603970917717553E-02  -5.9220643149469128E-02  -5.9843763770369138E-02
  -6.0473399266540592E-02  -6.1109616787343092E-02  -6.1752484151465753E-02
  -6.2402069853063576E-02  -6.3058443067937439E-02  -6.3721673659757880E-02
  -6.4391832186332196E-02  -6.5068989905915336E-02  -6.5753218783564188E-02
  -6.6444591497535344E-02  -6.7143181445726424E-02  -6.7849062752160808E-02
  -6.8562310273515406E-02  -6.9282999605691883E-02  -7.0011207090430988E-02
  -7.0747009821969728E-02  -7.1490485653741512E-02  -7.2241713205119074E-02
  -7.3000771868199962E-02  -7.3767741814634011E-02  -7.4542704002493868E-02
  -7.5325740183186621E-02  -7.6116932908408028E-02  -7.6916365537137460E-02
  -7.7724122242674748E-02  -7.8540288019717922E-02  -7.9364948691481807E-02
  -8.0198190916856024E-02  -8.1040102197604810E-02  -8.1890770885605063E-02
  -8.2750286190124228E-02  -8.3618738185137390E-02  -8.4496217816682331E-02
  -8.5382816910252901E-02  -8.6278628178230177E-02  -8.7183745227350146E-02
  -8.8098262566208480E-02  -8.9022275612800850E-02  -8.9955880702098534E-02
  -9.0899175093659551E-02  -9.1852256979272795E-02  -9.2815225490636435E-02
  -9.3788180707068569E-02  -9.4771223663249818E-02  -9.5764456356997166E-02
  -9.6767981757068411E-02  -9.7781903810995094E-02  -9.8806327452945195E-02
  -9.9841358611612099E-02  -1.0088710421813149E-01  -1.0194367221402276E-01
  -1.0301117155915519E-01  -1.0408971223973756E-01  -1.0517940527633002E-01
  -1.0628036273187638E-01  -1.0739269771975678E-01  -1.0851652441185794E-01
  -1.0965195804666114E-01  -1.1079911493734480E-01  -1.1195811247990189E-01
  -1.1312906916126959E-01  -1.1431210456746949E-01  -1.1550733939175704E-01
  -1.1671489544277905E-01  -1.1793489565273622E-01  -1.1916746408554972E-01
  -1.2041272594502961E-01  -1.2167080758304306E-01  -1.2294183650768072E-01
  -1.2422594139141852E-01  -1.2552325207927278E-01  -1.2683389959694710E-01
  -1.2815801615896752E-01  -1.2949573517680438E-01  -1.3084719126697814E-01
  -1.3221252025914662E-01  -1.3359185920417005E-01  -1.3498534638215329E-01
  -1.3639312131046064E-01  -1.3781532475169980E-01  -1.3925209872167479E-01
  -1.4070358649730136E-01  -1.4216993262448355E-01  -1.4365128292594867E-01
  -1.4514778450903526E-01  -1.4665958577343249E-01  -1.4818683641886646E-01
  -1.4972968745272958E-01  -1.5128829119765053E-01  -1.5286280129899918E-01
  -1.5445337273232362E-01  -1.5606016181071494E-01  -1.5768332619209530E-01
  -1.5932302488642583E-01  -1.6097941826282886E-01  -1.6265266805661971E-01
  -1.6434293737624628E-01  -1.6605039071012689E-01  -1.6777519393338564E-01
  -1.6951751431447842E-01  -1.7127752052170456E-01  -1.7305538262959833E-01
  -1.7485127212519747E-01  -1.7666536191417873E-01  -1.7849782632685912E-01
  -1.8034884112405442E-01  -1.8221858350279033E-01  -1.8410723210185820E-01
  -1.8601496700721201E-01  -1.8794196975719829E-01  -1.8988842334761138E-01
  -1.9185451223657057E-01  -1.9384042234920831E-01  -1.9584634108216634E-01
  -1.9787245730788852E-01  -1.9991896137870604E-01  -2.0198604513070667E-01
  -2.0407390188737781E-01  -2.0618272646302049E-01  -2.0831271516591965E-01
  -2.1046406580126820E-01  -2.1263697767383269E-01  -2.1483165159035245E-01
  -2.1704828986166488E-01  -2.1928709630454465E-01  -2.2154827624325091E-01
  -2.2383203651076949E-01  -2.2613858544974166E-01  -2.2846813291307086E-01
  -2.3082089026419314E-01  -2.3319707037700446E-01  -2.3559688763543229E-01
  -2.3802055793263890E-01  -2.4046829866984837E-01  -2.4294032875478278E-01
  -2.4543686859969482E-01  -2.4795814011898956E-01  -2.5050436672641541E-01
  -2.5307577333181819E-01  -2.5567258633744072E-01  -2.5829503363375594E-01
  -2.6094334459482083E-01  -2.6361775007313393E-01  -2.6631848239398559E-01
  -2.6904577534928292E-01  -2.7179986419083740E-01  -2.7458098562309619E-01
  -2.7738937779530320E-01  -2.8022528029307564E-01  -2.8308893412937436E-01
  -2.8598058173485474E-01  -2.8890046694758154E-01  -2.9184883500208442E-01
  -2.9482593251774419E-01  -2.9783200748648320E-01  -3.0086730925974553E-01
  -3.0393208853474724E-01  -3.0702659733997240E-01  -3.1015108901990351E-01
  -3.1330581821895354E-01  -3.1649104086459112E-01  -3.1970701414962527E-01
  -3.2295399651363604E-01  -3.2623224762352504E-01  -3.2954202835316226E-01
  -3.3288360076210688E-01  -3.3625722807337644E-01  -3.3966317465024132E-01
  -3.4310170597201767E-01  -3.4657308860883379E-01  -3.5007759019534629E-01
  -3.5361547940337035E-01  -3.5718702591340978E-01  -3.6079250038504890E-01
  -3.6443217442617803E-01  -3.6810632056103204E-01  -3.7181521219700053E-01
  -3.7555912359018834E-01  -3.7933832980969162E-01  -3.8315310670055686E-01
  -3.8700373084539419E-01  -3.9089047952460682E-01  -3.9481363067520908E-01
  -3.9877346284819526E-01  -4.0277025516442250E-01  -4.0680428726897955E-01
  -4.1087583928399385E-01  -4.1498519175985210E-01  -4.1913262562478698E-01
  -4.2331842213279613E-01  -4.2754286280985704E-01  -4.3180622939838686E-01
  -4.3610880379992240E-01  -4.4045086801596472E-01  -4.4483270408695419E-01
  -4.4925459402933071E-01  -4.5371681977063422E-01  -4.5821966308260348E-01
  -4.6276340551222589E-01  -4.6734832831069095E-01  -4.7197471236020605E-01
  -4.7664283809861657E-01  -4.8135298544179267E-01  -4.8610543370372689E-01
  -4.9090046151429034E-01  -4.9573834673460604E-01  -5.0061936636997029E-01
  -5.0554379648028880E-01  -5.1051191208795788E-01  -5.1552398708314306E-01
  -5.2058029412639961E-01  -5.2568110454857553E-01  -5.3082668824793722E-01
  -5.3601731358446914E-01  -5.4125324727127566E-01  -5.4653475426303255E-01
  -5.5186209764142247E-01  -5.5723553849749841E-01  -5.6265533581090132E-01
  -5.6812174632587720E-01  -5.7363502442402514E-01  -5.7919542199370810E-01
  -5.8480318829606037E-01  -5.9045856982752642E-01  -5.9616181017885717E-01
  -6.0191314989049793E-01  -6.0771282630429235E-01  -6.1356107341143606E-01
  -6.1945812169660031E-01  -6.2540419797815960E-01  -6.3139952524443721E-01
  -6.3744432248590843E-01  -6.4353880452326340E-01  -6.4968318183127705E-01
  -6.5587766035838235E-01  -6.6212244134188691E-01  -6.6841772111874076E-01
  -6.7476369093177657E-01  -6.8116053673134358E-01  -6.8760843897224588E-01
  -6.9410757240590393E-01  -7.0065810586765953E-01  -7.0726020205912221E-01
  -7.1391401732549364E-01  -7.2061970142776055E-01  -7.2737739730968110E-01
  -7.3418724085947440E-01  -7.4104936066611338E-01  -7.4796387777014606E-01
  -7.5493090540894381E-01  -7.6195054875628199E-01  -7.6902290465617806E-01
  -7.7614806135086700E-01  -7.8332609820284560E-01  -7.9055708541088077E-01
  -7.9784108371988416E-01  -8.0517814412457189E-01  -8.1256830756678888E-01
  -8.2001160462643963E-01  -8.2750805520588988E-01  -8.3505766820777561E-01
  -8.4266044120610584E-01  -8.5031636011056266E-01  -8.5802539882391793E-01
  -8.6578751889245154E-01  -8.7360266914928919E-01  -8.8147078535056111E-01
  -8.8939178980427702E-01  -8.9736559099184043E-01  -9.0539208318209341E-01
  -9.1347114603780022E-01  -9.2160264421449212E-01  -9.2978642695154745E-01
  -9.3802232765545768E-01  -9.4631016347516006E-01  -9.5464973486935001E-01
  -9.6304082516570888E-01  -9.7148320011191980E-01  -9.7997660741843384E-01
  -9.8852077629285973E-01  -9.9711541696592809E-01  -1.0057602202089342E+00
  -1.0144548568425809E+00  -1.0231989772371557E+00  -1.0319922108039652E+00
  -1.0408341654779496E+00  -1.0497244271914252E+00  -1.0586625593388683E+00
  -1.0676481022327076E+00  -1.0766805725500366E+00  -1.0857594627702194E+00
  -1.0948842406033212E+00  -1.1040543484093173E+00  -1.1132692026080528E+00
  -1.1225281930799016E+00  -1.1318306825570958E+00  -1.1411760060057006E+00
  -1.1505634699982028E+00  -1.1599923520767121E+00  -1.1694619001067457E+00
  -1.1789713316216028E+00  -1.1885198331573299E+00  -1.1981065595782743E+00
  -1.2077306333932603E+00  -1.2173911440623868E+00  -1.2270871472944984E+00
  -1.2368176643353614E+00  -1.2465816812465775E+00  -1.2563781481753140E+00
  -1.2662059786149091E+00  -1.2760640486564079E+00  -1.2859511962311498E+00
  -1.2958662203444640E+00  -1.3058078803006137E+00  -1.3157748949190842E+00
  -1.3257659417423500E+00  -1.3357796562352857E+00  -1.3458146309763208E+00
  -1.3558694148405772E+00  -1.3659425121751136E+00  -1.3760323819665077E+00
  -1.3861374370009771E+00  -1.3962560430172566E+00  -1.4063865178524937E+00
  -1.4165271305814100E+00  -1.4266761006490083E+00  -1.4368315969971224E+00
  -1.4469917371851164E+00  -1.4571545865050795E+00  -1.4673181570918556E+00
  -1.4774804070282812E+00  -1.4876392394460440E+00  -1.4977925016225455E+00
  -1.5079379840742357E+00  -1.5180734196468710E+00  -1.5281964826031700E+00
  -1.5383047877083980E+00  -1.5483958893143956E+00  -1.5584672804426274E+00
  -1.5685163918668312E+00  -1.5785405911958950E+00  -1.5885371819575873E+00
  -1.5985034026838418E+00  -1.6084364259982751E+00  -1.6183333577066925E+00
  -1.6281912358913431E+00  -1.6380070300097196E+00  -1.6477776399987516E+00
  -1.6574998953852358E+00  -1.6671705544034441E+00  -1.6767863031208112E+00
  -1.6863437545727091E+00  -1.6958394479073058E+00  -1.7052698475415711E+00
  -1.7146313423295267E+00  -1.7239202447438664E+00  -1.7331327900721303E+00
  -1.7422651356286500E+00  -1.7513133599835227E+00  -1.7602734622099414E+00
  -1.7691413611511992E+00  -1.7779128947087979E+00  -1.7865838191530883E+00
  -1.7951498084579409E+00  -1.8036064536609839E+00  -1.8119492622510098E+00
  -1.8201736575841789E+00  -1.8282749783307142E+00  -1.8362484779538428E+00
  -1.8440893242227658E+00  -1.8517925987615087E+00  -1.8593532966355661E+00
  -1.8667663259782787E+00  -1.8740265076589766E+00  -1.8811285749949367E+00
  -1.8880671735092980E+00  -1.8948368607370905E+00  -1.9014321060816430E+00
  -1.9078472907236452E+00  -1.9140767075852143E+00  -1.9201145613513986E+00
  -1.9259549685515525E+00  -1.9315919577031428E+00  -1.9370194695205365E+00
  -1.9422313571914454E+00  -1.9472213867236925E+00  -1.9519832373650907E+00
  -1.9565105020992120E+00  -1.9607966882199472E+00  -1.9648352179877666E+00
  -1.9686194293706627E+00  -1.9721425768728185E+00  -1.9753978324540777E+00
  -1.9783782865433748E+00  -1.9810769491492930E+00  -1.9834867510710217E+00
  -1.9856005452129706E+00  -1.9874111080064036E+00  -1.9889111409414608E+00
  -1.9900932722129803E+00  -1.9909500584836046E+00  -1.9914739867676514E+00
  -1.9916574764393016E+00  -1.9914928813686403E+00  -1.9909724921891907E+00
  -1.9900885387005118E+00  -1.9888331924095421E+00  -1.9871985692143213E+00
  -1.9851767322337830E+00  -1.9827596947872812E+00  -1.9799394235275538E+00
  -1.9767078417308084E+00  -1.9730568327475879E+00  -1.9689782436181291E+00
  -1.9644638888558230E+00  -1.9595055544024247E+00  -1.9540950017586254E+00
  -1.9482239722935171E+00  -1.9418841917364953E+00  -1.9350673748550580E+00
  -1.9277652303218973E+00  -1.9199694657746371E+00  -1.9116717930714799E+00
  -1.9028639337459152E+00  -1.8935376246636040E+00  -1.8836846238843932E+00
  -1.8732967167323189E+00  -1.8623657220763548E+00  -1.8508834988244711E+00
  -1.8388419526334785E+00  -1.8262330428369302E+00  -1.8130487895931950E+00
  -1.7992812812556391E+00  -1.7849226819666275E+00  -1.7699652394768868E+00
  -1.7544012931914816E+00  -1.7382232824434778E+00  -1.7214237549960878E+00
  -1.7039953757737758E+00  -1.6859309358226051E+00  -1.6672233614997112E+00
  -1.6478657238915326E+00  -1.6278512484600631E+00  -1.6071733249160345E+00
  -1.5858255173175726E+00  -1.5638015743924976E+00  -1.5410954400819747E+00
  -1.5177012643028989E+00  -1.4936134139258024E+00  -1.4688264839647769E+00
  -1.4433353089752761E+00  -1.4171349746552417E+00  -1.3902208296444740E+00
  -1.3625884975165465E+00  -1.3342338889571346E+00  -1.3051532141218922E+00
  -1.2753429951665465E+00  -1.2448000789411724E+00  -1.2135216498399861E+00
  -1.1815052427973678E+00  -1.1487487564200876E+00  -1.1152504662450744E+00
  -1.0810090381113082E+00  -1.0460235416336674E+00  -1.0102934637658949E+00
  -9.7381872243896606E-01  -9.3659968026045426E-01  -8.9863715825969592E-01
  -8.5993244966263849E-01  -8.2048733367962390E-01  -7.8030408928838302E-01
  -7.3938550899375532E-01  -6.9773491254488074E-01  -6.5535616058960999E-01
  -6.1225366824528948E-01  -5.6843241856401372E-01  -5.2389797586980735E-01
  -4.7865649894434720E-01  -4.3271475403686299E-01  -3.8608012767346889E-01
  -3.3876063923997857E-01  -2.9076495331166302E-01  -2.4210239170294126E-01
  -1.9278294520862374E-01  -1.4281728500834245E-01  -9.2216773704568822E-02
  -4.0993475963931027E-02   1.0839831268710697E-02   6.3269649015423521E-02
   1.1628174700167833E-01   1.6986115491725434E-01   2.2399215423570643E-01
   2.7865827062660925E-01   3.3384226699642389E-01   3.8952613719399776E-01
   4.4569110041774090E-01   5.0231759636253270E-01   5.5938528114462704E-01
   6.1687302404414412E-01   6.7475890510504333E-01   7.3302021363304937E-01
   7.9163344763281296E-01   8.5057431422551699E-01   9.0981773108881947E-01
   9.6933782896079435E-01   1.0291079552497968E+00   1.0891006787917756E+00
   1.1492877957963121E+00   1.2096403370221354E+00   1.2701285762222334E+00
   1.3307220398976853E+00   1.3913895183985741E+00   1.4520990784087870E+00
   1.5128180768505177E+00   1.5735131762422161E+00   1.6341503615423343E+00
   1.6946949585089754E+00   1.7551116536031883E+00   1.8153645154617437E+00
   1.8754170179617720E+00   1.9352320648976500E+00   1.9947720162871687E+00
   2.0539987163207720E+00   2.1128735229651872E+00   2.1713573392285377E+00
   2.2294106460915213E+00   2.2869935371054786E+00   2.3440657546543737E+00
   2.4005867278748534E+00   2.4565156122239253E+00   2.5118113306805894E+00
   2.5664326165636808E+00   2.6203380579435005E+00   2.6734861436213442E+00
   2.7258353106458282E+00   2.7773439933306339E+00   2.8279706737337520E+00
   2.8776739335527615E+00   2.9264125073864604E+00   2.9741453373074904E+00
   3.0208316286855568E+00   3.0664309071958278E+00   3.1109030769412591E+00
   3.1542084796127088E+00   3.1963079546049880E+00   3.2371629000015401E+00
   3.2767353343352856E+00   3.3149879590272557E+00   3.3518842213996276E+00
   3.3873883781541907E+00   3.4214655592018568E+00   3.4540818317237929E+00
   3.4852042643393970E+00   3.5148009912513092E+00   3.5428412762328207E+00
   3.5692955763181584E+00   3.5941356050516498E+00   3.6173343951472883E+00
   3.6388663604062197E+00   3.6587073567355883E+00   3.6768347421087650E+00
   3.6932274353035748E+00   3.7078659732521841E+00   3.7207325668337958E+00
   3.7318111549389799E+00   3.7410874566327830E+00   3.7485490212423924E+00
   3.7541852761942729E+00   3.7579875724253782E+00   3.7599492271931756E+00
   3.7600655641100760E+00   3.7583339502290691E+00   3.7547538300095020E+00
   3.7493267559943555E+00   3.7420564160338028E+00   3.7329486568936732E+00
   3.7220115040921562E+00   3.7092551778134522E+00   3.6946921047531105E+00
   3.6783369257566938E+00   3.6602064991210126E+00   3.6403198994353114E+00
   3.6186984118491909E+00   3.5953655216635503E+00   3.5703468991516560E+00
   3.5436703795288209E+00   3.5153659380012146E+00   3.4854656598375762E+00
   3.4540037054213601E+00   3.4210162702556950E+00   3.3865415399095595E+00
   3.3506196399101413E+00   3.3132925806047795E+00   3.2746041970348010E+00
   3.2346000838840534E+00   3.1933275255867262E+00   3.1508354217013768E+00
   3.1071742076821591E+00   3.0623957712023904E+00   3.0165533642106324E+00
   2.9697015109244922E+00   2.9218959119919825E+00   2.8731933450744309E+00
   2.8236515621276479E+00   2.7733291836793050E+00   2.7222855904188701E+00
   2.6705808124322958E+00   2.6182754164097739E+00   2.5654303912590497E+00
   2.5121070323066985E+00   2.4583668246041097E+00   2.4042713255818069E+00
   2.3498820473818856E+00   2.2952603391564543E+00   2.2404672695960790E+00
   2.1855635099311690E+00   2.1306092176376183E+00   2.0756639210775902E+00
   2.0207864053188134E+00   1.9660345994015769E+00   1.9114654653548411E+00
   1.8571348892998800E+00   1.8030975750125715E+00   1.7494069403405388E+00
   1.6961150168858203E+00   1.6432723533646796E+00   1.5909279230466984E+00
   1.5391290356554492E+00   1.4879212540866520E+00   1.4373483162697231E+00
   1.3874520624665667E+00   1.3382723682699538E+00   1.2898470835336877E+00
   1.2422119774380618E+00   1.1954006898674510E+00   1.1494446892512875E+00
   1.1043732369947894E+00   1.0602133586010611E+00   1.0169898215609563E+00
   9.7472512006112566E-01   9.3343946653348076E-01   8.9315079004142783E-01
   8.5387474146884279E-01   8.1562470544829624E-01   7.7841181893469269E-01
   7.4224499630015683E-01   7.0713096079626481E-01   6.7307428219998655E-01
   6.4007742043149807E-01   6.0814077490471752E-01   5.7726273934538508E-01
   5.4743976178771636E-01   5.1866640943795217E-01   4.9093543807301526E-01
   4.6423786562432612E-01   4.3856304958051334E-01   4.1389876782953050E-01
   3.9023130254897082E-01   3.6754552674461793E-01   3.4582499303091740E-01
   3.2505202424265867E-01   3.0520780546592813E-01   2.8627247707686271E-01
   2.6822522837985807E-01   2.5104439144242685E-01   2.3470753473110831E-01
   2.1919155616271077E-01   2.0447277519657087E-01   1.9052702360690579E-01
   1.7732973458957754E-01   1.6485602987417824E-01   1.5308080453065701E-01
   1.4197880917933134E-01   1.3152472933396742E-01   1.2169326162995915E-01
   1.1245918671285723E-01   1.0379743858708926E-01   9.5683170250212946E-02
   8.8091815464433981E-02   8.0999146544312978E-02   7.4381328067062574E-02
   6.8214966439512997E-02   6.2477155283076631E-02   5.7145516624524231E-02
   5.2198237905579398E-02   4.7614104847658392E-02   4.3372530229017395E-02
   3.9453578649266123E-02   3.5837987370048743E-02   3.2507183330064297E-02
   2.9443296437781930E-02   2.6629169247829713E-02   2.4048363130303788E-02
   2.1685161050424992E-02   1.9524567092587868E-02   1.7552302888536483E-02
   1.5754801140877003E-02   1.4119196463780606E-02   1.2633313785728746E-02
   1.1285654570168092E-02   1.0065381108751202E-02   8.9622991316340248E-03
   7.9668389644606923E-03   7.0700354461048238E-03   6.2635068071793332E-03
   5.5394326974466781E-03   4.8905315402716608E-03   4.3100373833721223E-03
   3.7916764066606196E-03   3.3296432394039795E-03   2.9185772299571066E-03
   2.5535388018712822E-03   2.2299860202209380E-03   1.9437514816294922E-03
   1.6910196308156660E-03   1.4683045956384673E-03   1.2724286217409794E-03
   1.1005011770912254E-03   9.4989878611841940E-04   8.1824564285699398E-04
   7.0339504261834342E-04   6.0341166231209469E-04   5.1655471067534834E-04
   4.4126196140403389E-04   3.7613467454442805E-04   3.1992340451725949E-04
   2.7151468682659954E-04   2.2991858985233374E-04   1.9425711313441710E-04
   1.6375340921765994E-04   1.3772180242037298E-04   1.1555857479200671E-04
   9.6733487014560147E-05   8.0782000037672366E-05   6.7298161791649446E-05
   5.5928122354410434E-05   4.6364240419378564E-05   3.8339743780591486E-05
   3.1623906777582029E-05   2.6017708184325332E-05   2.1349933842705141E-05
   1.7473689392143490E-05   1.4263289692915954E-05   1.1611492947766409E-05
   9.4270490565668969E-06   7.6325333621028280E-06   6.1624386313863026E-06
   4.9614998391923805E-06   3.9832280549890073E-06   3.1886314597935103E-06
   2.5451032173619242E-06   2.0254575788532391E-06   1.6070971987430633E-06
   1.2712961714015576E-06   1.0025847547994099E-06   7.8822312355046855E-07
   6.1775278405028419E-07   4.8261548751078935E-07   3.7583059120140117E-07
   2.9172284472141273E-07   2.2569351822813017E-07   1.7402864577943317E-07
   1.3373893261166559E-07   1.0242657418172266E-07   7.8174861448256462E-08
   5.9457005857007368E-08   4.5061113638357978E-08   3.4028677156729331E-08
   2.5604336159987921E-08   1.9194998585344176E-08   1.4336703750654638E-08
   1.0667864730644831E-08   7.9077456833303622E-09   5.8392177838047914E-09
   4.2949978900481593E-09   3.1467104626845483E-09   2.2962286496733439E-09
   1.6688476148868941E-09   1.2079246052322666E-09   8.7068816576783828E-10
   6.2497528431725591E-10   4.4670181869127336E-10   3.1790985003387873E-10
   2.2526693617373231E-10   1.5891775035558689E-10   1.1160926298523265E-10
   7.8027293016298711E-11   5.4295629080101837E-11   3.7599605372941878E-11
   2.5573890208066499E-11   8.5643887724281712E-12   3.7542207207741370E-13
  -0.0000000000000000E+00  -0.0000000000000000E+00  -0.0000000000000000E+00
  -0.0000000000000000E+00  -0.0000000000000000E+00  -0.0000000000000000E+00
  -0.0000000000000000E+00  -0.0000000000000000E+00  -0.0000000000000000E+00
  -0.0000000000000000E+00  -0.0000000000000000E+00  -0.0000000000000000E+00
  -0.0000000000000000E+00  -0.0000000000000000E+00  -0.0000000000000000E+00
  -0.0000000000000000E+00  -0.0000000000000000E+00  -0.0000000000000000E+00
  -0.0000000000000000E+00  -0.0000000000000000E+00  -0.0000000000000000E+00
  -0.0000000000000000E+00  -0.0000000000000000E+00  -0.0000000000000000E+00
  -0.0000000000000000E+00  -0.0000000000000000E+00  -0.0000000000000000E+00
  -0.0000000000000000E+00  -0.0000000000000000E+00  -0.0000000000000000E+00
  -0.0000000000000000E+00  -0.0000000000000000E+00  -0.0000000000000000E+00
  -0.0000000000000000E+00  -0.0000000000000000E+00  -0.0000000000000000E+00
  -0.0000000000000000E+00  -0.0000000000000000E+00  -0.0000000000000000E+00
  -0.0000000000000000E+00  -0.0000000000000000E+00  -0.0000000000000000E+00
  -0.0000000000000000E+00  -0.0000000000000000E+00  -0.0000000000000000E+00
  -0.0000000000000000E+00  -0.0000000000000000E+00  -0.0000000000000000E+00
  -0.0000000000000000E+00  -0.0000000000000000E+00  -0.0000000000000000E+00
  -0.0000000000000000E+00  -0.0000000000000000E+00  -0.0000000000000000E+00
  -0.0000000000000000E+00  -0.0000000000000000E+00  -0.0000000000000000E+00
  -0.0000000000000000E+00  -0.0000000000000000E+00  -0.0000000000000000E+00
  -0.0000000000000000E+00  -0.0000000000000000E+00  -0.0000000000000000E+00
  -0.0000000000000000E+00  -0.0000000000000000E+00  -0.0000000000000000E+00
  -0.0000000000000000E+00  -0.0000000000000000E+00  -0.0000000000000000E+00
  -0.0000000000000000E+00  -0.0000000000000000E+00  -0.0000000000000000E+00
  -0.0000000000000000E+00  -0.0000000000000000E+00  -0.0000000000000000E+00
  -0.0000000000000000E+00  -0.0000000000000000E+00  -0.0000000000000000E+00
  -0.0000000000000000E+00  -0.0000000000000000E+00  -0.0000000000000000E+00
  -0.0000000000000000E+00  -0.0000000000000000E+00  -0.0000000000000000E+00
  -0.0000000000000000E+00  -0.0000000000000000E+00  -0.0000000000000000E+00
  -0.0000000000000000E+00  -0.0000000000000000E+00  -0.0000000000000000E+00
  -0.0000000000000000E+00  -0.0000000000000000E+00  -0.0000000000000000E+00
  -0.0000000000000000E+00  -0.0000000000000000E+00  -0.0000000000000000E+00
  -0.0000000000000000E+00  -0.0000000000000000E+00  -0.0000000000000000E+00
  -0.0000000000000000E+00  -0.0000000000000000E+00  -0.0000000000000000E+00
  -0.0000000000000000E+00  -0.0000000000000000E+00  -0.0000000000000000E+00
  -0.0000000000000000E+00  -0.0000000000000000E+00  -0.0000000000000000E+00
  -0.0000000000000000E+00  -0.0000000000000000E+00  -0.0000000000000000E+00
  -0.0000000000000000E+00  -0.0000000000000000E+00  -0.0000000000000000E+00
  -0.0000000000000000E+00  -0.0000000000000000E+00  -0.0000000000000000E+00
  -0.0000000000000000E+00  -0.0000000000000000E+00  -0.0000000000000000E+00
  -0.0000000000000000E+00  -0.0000000000000000E+00  -0.0000000000000000E+00
  -0.0000000000000000E+00  -0.0000000000000000E+00  -0.0000000000000000E+00
  -0.0000000000000000E+00  -0.0000000000000000E+00  -0.0000000000000000E+00
  -0.0000000000000000E+00  -0.0000000000000000E+00  -0.0000000000000000E+00
  -0.0000000000000000E+00  -0.0000000000000000E+00  -0.0000000000000000E+00
  -0.0000000000000000E+00  -0.0000000000000000E+00  -0.0000000000000000E+00
  -0.0000000000000000E+00  -0.0000000000000000E+00  -0.0000000000000000E+00
  -0.0000000000000000E+00  -0.0000000000000000E+00  -0.0000000000000000E+00
  -0.0000000000000000E+00  -0.0000000000000000E+00  -0.0000000000000000E+00
  -0.0000000000000000E+00  -0.0000000000000000E+00  -0.0000000000000000E+00
  -0.0000000000000000E+00  -0.0000000000000000E+00  -0.0000000000000000E+00
  -0.0000000000000000E+00  -0.0000000000000000E+00  -0.0000000000000000E+00
  -0.0000000000000000E+00  -0.0000000000000000E+00  -0.0000000000000000E+00
  -0.0000000000000000E+00  -0.0000000000000000E+00  -0.0000000000000000E+00
  -0.0000000000000000E+00  -0.0000000000000000E+00  -0.0000000000000000E+00
  -0.0000000000000000E+00  -0.0000000000000000E+00  -0.0000000000000000E+00
  -0.0000000000000000E+00  -0.0000000000000000E+00  -0.0000000000000000E+00
  -0.0000000000000000E+00  -0.0000000000000000E+00  -0.0000000000000000E+00
  -0.0000000000000000E+00  -0.0000000000000000E+00  -0.0000000000000000E+00
  -0.0000000000000000E+00  -0.0000000000000000E+00  -0.0000000000000000E+00
  -0.0000000000000000E+00  -0.0000000000000000E+00  -0.0000000000000000E+00
  -0.0000000000000000E+00  -0.0000000000000000E+00  -0.0000000000000000E+00
  -0.0000000000000000E+00  -0.0000000000000000E+00  -0.0000000000000000E+00
  -0.0000000000000000E+00  -0.0000000000000000E+00  -0.0000000000000000E+00
  -0.0000000000000000E+00  -0.0000000000000000E+00  -0.0000000000000000E+00
  -0.0000000000000000E+00  -0.0000000000000000E+00  -0.0000000000000000E+00
  -0.0000000000000000E+00  -0.0000000000000000E+00  -0.0000000000000000E+00
  -0.0000000000000000E+00  -0.0000000000000000E+00  -0.0000000000000000E+00
  -0.0000000000000000E+00  -0.0000000000000000E+00  -0.0000000000000000E+00
     </PP_GIPAW_CORE_ORBITAL.2>
     <PP_GIPAW_CORE_ORBITAL.3 size="1164" index="3" label="2P" n="2" l="1">
   0.0000000000000000E+00   4.9263004131758680E-06   5.0236064827147519E-06
   5.1230285264356386E-06   5.2246172591971138E-06   5.3284178306893944E-06
   5.4344742536234746E-06   5.5428314477918216E-06   5.6535353078385385E-06
   5.7666327227230797E-06   5.8821715956045026E-06   6.0002008641563160E-06
   6.1207705213205994E-06   6.2439316365100930E-06   6.3697363772674162E-06
   6.4982380313905452E-06   6.6294910295339748E-06   6.7635509682952553E-06
   6.9004746337966100E-06   7.0403200257717642E-06   7.1831463821682265E-06
   7.3290142042754050E-06   7.4779852823894615E-06   7.6301227220255466E-06
   7.7854909706888270E-06   7.9441558452155749E-06   8.1061845596959849E-06
   8.2716457539906338E-06   8.4406095228527010E-06   8.6131474456683732E-06
   8.7893326168280827E-06   8.9692396767415070E-06   9.1529448435096565E-06
   9.3405259452673289E-06   9.5320624532099192E-06   9.7276355153185606E-06
   9.9273279907979329E-06   1.0131224485241566E-05   1.0339411386539426E-05
   1.0551976901543269E-05   1.0769011093505248E-05   1.0990605920305898E-05
   1.1216855273487590E-05   1.1447855018110338E-05   1.1683703033446727E-05
   1.1924499254533485E-05   1.2170345714597351E-05   1.2421346588373332E-05
   1.2677608236333879E-05   1.2939239249847792E-05   1.3206350497288135E-05
   1.3479055171108941E-05   1.3757468835910580E-05   1.4041709477514576E-05
   1.4331897553068556E-05   1.4628156042202994E-05   1.4930610499261288E-05
   1.5239389106625768E-05   1.5554622729162206E-05   1.5876444969806161E-05
   1.6204992226314874E-05   1.6540403749209065E-05   1.6882821700929147E-05
   1.7232391216231394E-05   1.7589260463849762E-05   1.7953580709449618E-05
   1.8325506379900537E-05   1.8705195128895319E-05   1.9092807903943621E-05
   1.9488509014768547E-05   1.9892466203135658E-05   2.0304850714144119E-05
   2.0725837369010712E-05   2.1155604639377432E-05   2.1594334723174955E-05
   2.2042213622074013E-05   2.2499431220558213E-05   2.2966181366651708E-05
   2.3442661954336716E-05   2.3929075007695846E-05   2.4425626766815444E-05
   2.4932527775486676E-05   2.5449992970741886E-05   2.5978241774264669E-05
   2.6517498185712783E-05   2.7067990877993758E-05   2.7629953294534375E-05
   2.8203623748585264E-05   2.8789245524603498E-05   2.9387066981756606E-05
   2.9997341659592322E-05   3.0620328385919343E-05   3.1256291386945497E-05
   3.1905500399720534E-05   3.2568230786931751E-05   3.3244763654101593E-05
   3.3935385969237954E-05   3.4640390684987854E-05   3.5360076863347772E-05
   3.6094749802983337E-05   3.6844721169213785E-05   3.7610309126716521E-05
   3.8391838475008892E-05   3.9189640786765866E-05   4.0004054549032112E-05
   4.0835425307390215E-05   4.1684105813146110E-05   4.2550456173595891E-05
   4.3434844005437626E-05   4.4337644591395084E-05   4.5259241040120380E-05
   4.6200024449443966E-05   4.7160394073042890E-05   4.8140757490598814E-05
   4.9141530781518560E-05   5.0163138702293040E-05   5.1206014867569792E-05
   5.2270601935017827E-05   5.3357351794064363E-05   5.4466725758584696E-05
   5.5599194763627820E-05   5.6755239566263584E-05   5.7935350950637055E-05
   5.9140029937318845E-05   6.0369787997041713E-05   6.1625147268916172E-05
   6.2906640783217568E-05   6.4214812688843554E-05   6.5550218485536596E-05
   6.6913425260975727E-05   6.8305011932836315E-05   6.9725569495924743E-05
   7.1175701274493806E-05   7.2656023179848073E-05   7.4167163973350533E-05
   7.5709765534944141E-05   7.7284483137304185E-05   7.8891985725740752E-05
   8.0532956203971127E-05   8.2208091725887149E-05   8.3918103993442579E-05
   8.5663719560790289E-05   8.7445680144799856E-05   8.9264742942091559E-05
   9.1121680952722429E-05   9.3017283310665964E-05   9.4952355621227204E-05
   9.6927720305540802E-05   9.8944216952300736E-05   1.0100270267687385E-04
   1.0310405248795358E-04   1.0524915966191242E-04   1.0743893612501532E-04
   1.0967431284366090E-04   1.1195624022281852E-04   1.1428568851283490E-04
   1.1666364822478649E-04   1.1909113055455847E-04   1.2156916781583412E-04
   1.2409881388218341E-04   1.2668114463844086E-04   1.2931725844157177E-04
   1.3200827659122505E-04   1.3475534381017794E-04   1.3755962873488148E-04
   1.4042232441632027E-04   1.4334464883140416E-04   1.4632784540511497E-04
   1.4937318354363462E-04   1.5248195917868753E-04   1.5565549532333442E-04
   1.5889514263945915E-04   1.6220228001719619E-04   1.6557831516655043E-04
   1.6902468522146902E-04   1.7254285735662642E-04   1.7613432941719409E-04
   1.7980063056186689E-04   1.8354332191942876E-04   1.8736399725914325E-04
   1.9126428367526312E-04   1.9524584228595518E-04   1.9931036894694823E-04
   2.0345959498021461E-04   2.0769528791800444E-04   2.1201925226255726E-04
   2.1643333026182394E-04   2.2093940270153804E-04   2.2553938971398268E-04
   2.3023525160380579E-04   2.3502898969125118E-04   2.3992264717316586E-04
   2.4491831000216706E-04   2.5001810778435270E-04   2.5522421469594963E-04
   2.6053885041929796E-04   2.6596428109858797E-04   2.7150282031576406E-04
   2.7715683008702594E-04   2.8292872188036630E-04   2.8882095765458900E-04
   2.9483605092026679E-04   3.0097656782310353E-04   3.0724512825017734E-04
   3.1364440695955478E-04   3.2017713473376770E-04   3.2684609955766479E-04
   3.3365414782115615E-04   3.4060418554737759E-04   3.4769917964682344E-04
   3.5494215919799253E-04   3.6233621675511716E-04   3.6988450968355427E-04
   3.7759026152342002E-04   3.8545676338208433E-04   3.9348737535612610E-04
   4.0168552798338671E-04   4.1005472372576240E-04   4.1859853848339297E-04
   4.2732062314091248E-04   4.3622470514645319E-04   4.4531459012409958E-04
   4.5459416352050660E-04   4.6406739228641242E-04   4.7373832659379804E-04
   4.8361110158944595E-04   4.9368993918568512E-04   5.0397914988911316E-04
   5.1448313466811394E-04   5.2520638685999474E-04   5.3615349411859472E-04
   5.4732914040323487E-04   5.5873810800988817E-04   5.7038527964547938E-04
   5.8227564054624077E-04   5.9441428064106305E-04   6.0680639676080660E-04
   6.1945729489456592E-04   6.3237239249388610E-04   6.4555722082596033E-04
   6.5901742737686949E-04   6.7275877830592066E-04   6.8678716095219678E-04
   7.0110858639443158E-04   7.1572919206534889E-04   7.3065524442164642E-04
   7.4589314167081025E-04   7.6144941655597893E-04   7.7733073920011487E-04
   7.9354392001073986E-04   8.1009591264654887E-04   8.2699381704722029E-04
   8.4424488252778378E-04   8.6185651093893855E-04   8.7983625989471778E-04
   8.9819184606896988E-04   9.1693114856211189E-04   9.3606221233967599E-04
   9.5559325174418910E-04   9.7553265408195048E-04   9.9588898328631880E-04
   1.0166709836591610E-03   1.0378875836921154E-03   1.0595478999694079E-03
   1.0816612411539480E-03   1.1042371120585008E-03   1.1272852178037635E-03
   1.1508154680651913E-03   1.1748379814104982E-03   1.1993630897297546E-03
   1.2244013427600757E-03   1.2499635127069288E-03   1.2760605989641195E-03
   1.3027038329345752E-03   1.3299046829540885E-03   1.3576748593202058E-03
   1.3860263194285381E-03   1.4149712730187581E-03   1.4445221875326686E-03
   1.4746917935866959E-03   1.5054930905612871E-03   1.5369393523097068E-03
   1.5690441329887393E-03   1.6018212730139836E-03   1.6352849051423106E-03
   1.6694494606842626E-03   1.7043296758491447E-03   1.7399405982256176E-03
   1.7762975934007335E-03   1.8134163517203067E-03   1.8513128951936836E-03
   1.8900035845459541E-03   1.9295051264207491E-03   1.9698345807368537E-03
   2.0110093682018867E-03   2.0530472779863832E-03   2.0959664755617296E-03
   2.1397855107053703E-03   2.1845233256769241E-03   2.2301992635687540E-03
   2.2768330768347506E-03   2.3244449360011179E-03   2.3730554385629501E-03
   2.4226856180706406E-03   2.4733569534100591E-03   2.5250913782806504E-03
   2.5779112908756304E-03   2.6318395637685405E-03   2.6868995540105509E-03
   2.7431151134429551E-03   2.8005105992293757E-03   2.8591108846123714E-03
   2.9189413698991152E-03   2.9800279936810247E-03   3.0423972442922402E-03
   3.1060761715119797E-03   3.1710923985159415E-03   3.2374741340818816E-03
   3.3052501850548447E-03   3.3744499690773885E-03   3.4451035275903721E-03
   3.5172415391100439E-03   3.5908953327870776E-03   3.6660969022536106E-03
   3.7428789197641345E-03   3.8212747506365355E-03   3.9013184679993354E-03
   3.9830448678517053E-03   4.0664894844426366E-03   4.1516886059759133E-03
   4.2386792906476982E-03   4.3274993830234847E-03   4.4181875307616469E-03
   4.5107832016905236E-03   4.6053267012464939E-03   4.7018591902804321E-03
   4.8004227032400395E-03   4.9010601667359120E-03   5.0038154184991685E-03
   5.1087332267385002E-03   5.2158593099051595E-03   5.3252403568737859E-03
   5.4369240475479180E-03   5.5509590738986132E-03   5.6673951614449828E-03
   5.7862830911857982E-03   5.9076747219909288E-03   6.0316230134622945E-03
   6.1581820492735530E-03   6.2874070609981545E-03   6.4193544524357906E-03
   6.5540818244468040E-03   6.6916480003051887E-03   6.8321130515801732E-03
   6.9755383245570365E-03   7.1219864672079341E-03   7.2715214567233783E-03
   7.4242086276156962E-03   7.5801147004057462E-03   7.7393078109039880E-03
   7.9018575400981172E-03   8.0678349446585470E-03   8.2373125880742405E-03
   8.4103645724308909E-03   8.5870665708438817E-03   8.7674958605589420E-03
   8.9517313567328855E-03   9.1398536469079923E-03   9.3319450261930264E-03
   9.5280895331642645E-03   9.7283729865006874E-03   9.9328830223664750E-03
   1.0141709132555750E-02   1.0354942703413229E-02   1.0572677055545715E-02
   1.0795007484339019E-02   1.1022031301295204E-02   1.1253847876205491E-02
   1.1490558680174210E-02   1.1732267329509201E-02   1.1979079630494816E-02
   1.2231103625063163E-02   1.2488449637380248E-02   1.2751230321363270E-02
   1.3019560709145646E-02   1.3293558260507019E-02   1.3573342913284934E-02
   1.3859037134785790E-02   1.4150765974212505E-02   1.4448657116126546E-02
   1.4752840934962460E-02   1.5063450550612770E-02   1.5380621885101666E-02
   1.5704493720366274E-02   1.6035207757163755E-02   1.6372908675123476E-02
   1.6717744193963453E-02   1.7069865135889543E-02   1.7429425489198153E-02
   1.7796582473100689E-02   1.8171496603790523E-02   1.8554331761772052E-02
   1.8945255260471423E-02   1.9344437916150377E-02   1.9752054119142028E-02
   2.0168281906430430E-02   2.0593303035593685E-02   2.1027303060131317E-02
   2.1470471406197414E-02   2.1923001450759518E-02   2.2385090601204742E-02
   2.2856940376414319E-02   2.3338756489326810E-02   2.3830748931012214E-02
   2.4333132056277247E-02   2.4846124670823217E-02   2.5369950119978096E-02
   2.5904836379022678E-02   2.6451016145133417E-02   2.7008726930961843E-02
   2.7578211159871951E-02   2.8159716262856627E-02   2.8753494777152808E-02
   2.9359804446577528E-02   2.9978908323603694E-02   3.0611074873196965E-02
   3.1256578078433274E-02   3.1915697547916386E-02   3.2588718625015708E-02
   3.3275932498943249E-02   3.3977636317688298E-02   3.4694133302828799E-02
   3.5425732866236861E-02   3.6172750728697169E-02   3.6935509040454242E-02
   3.7714336503705856E-02   3.8509568497059631E-02   3.9321547201965755E-02
   4.0150621731144150E-02   4.0997148259017770E-02   4.1861490154166556E-02
   4.2744018113815514E-02   4.3645110300366545E-02   4.4565152479988379E-02
   4.5504538163271754E-02   4.6463668747960894E-02   4.7442953663769140E-02
   4.8442810519284354E-02   4.9463665250972233E-02   5.0505952274280404E-02
   5.1570114636847082E-02   5.2656604173817026E-02   5.3765881665263672E-02
   5.4898416995718513E-02   5.6054689315803340E-02   5.7235187205961990E-02
   5.8440408842285990E-02   5.9670862164424035E-02   6.0927065045568725E-02
   6.2209545464506300E-02   6.3518841679715804E-02   6.4855502405502863E-02
   6.6220086990146976E-02   6.7613165596043912E-02   6.9035319381818380E-02
   7.0487140686380817E-02   7.1969233214900036E-02   7.3482212226658711E-02
   7.5026704724757851E-02   7.6603349647632699E-02   7.8212798062336150E-02
   7.9855713359549468E-02   8.1532771450266439E-02   8.3244660964104378E-02
   8.4992083449183076E-02   8.6775753573511472E-02   8.8596399327821609E-02
   9.0454762229776567E-02   9.2351597529484117E-02   9.4287674416236575E-02
   9.6263776226393802E-02   9.8280700652325942E-02   1.0033925995231652E-01
   1.0244028116133676E-01   1.0458460630258047E-01   1.0677309259965459E-01
   1.0900661268930885E-01   1.1128605483458225E-01   1.1361232313824118E-01
   1.1598633775637332E-01   1.1840903511199481E-01   1.2088136810852666E-01
   1.2340430634297933E-01   1.2597883631868761E-01   1.2860596165742230E-01
   1.3128670331069886E-01   1.3402209977010060E-01   1.3681320727641291E-01
   1.3966110002737317E-01   1.4256687038381580E-01   1.4553162907399217E-01
   1.4855650539583448E-01   1.5164264741691760E-01   1.5479122217186861E-01
   1.5800341585696182E-01   1.6128043402162287E-01   1.6462350175655879E-01
   1.6803386387821770E-01   1.7151278510926787E-01   1.7506155025478087E-01
   1.7868146437378035E-01   1.8237385294581882E-01   1.8614006203221584E-01
   1.8998145843159461E-01   1.9389942982932912E-01   1.9789538494049883E-01
   2.0197075364594774E-01   2.0612698712101007E-01   2.1036555795646708E-01
   2.1468796027127465E-01   2.1909570981658971E-01   2.2359034407060385E-01
   2.2817342232368282E-01   2.3284652575328579E-01   2.3761125748813042E-01
   2.4246924266104189E-01   2.4742212844991998E-01   2.5247158410622533E-01
   2.5761930097038005E-01   2.6286699247345530E-01   2.6821639412449644E-01
   2.7366926348282422E-01   2.7922738011462200E-01   2.8489254553310905E-01
   2.9066658312157673E-01   2.9655133803853845E-01   3.0254867710423494E-01
   3.0866048866770390E-01   3.1488868245361629E-01   3.2123518938804368E-01
   3.2770196140232138E-01   3.3429097121412604E-01   3.4100421208488590E-01
   3.4784369755261357E-01   3.5481146113922374E-01   3.6190955603138730E-01
   3.6914005473394307E-01   3.7650504869487145E-01   3.8400664790081318E-01
   3.9164698044209217E-01   3.9942819204618535E-01   4.0735244557855294E-01
   4.1542192050973170E-01   4.2363881234756379E-01   4.3200533203342661E-01
   4.4052370530128837E-01   4.4919617199842221E-01   4.5802498536656200E-01
   4.6701241128229415E-01   4.7616072745543808E-01   4.8547222258416661E-01
   4.9494919546559324E-01   5.0459395406053331E-01   5.1440881451114917E-01
   5.2439610011015503E-01   5.3455814022025294E-01   5.4489726914246051E-01
   5.5541582493198460E-01   5.6611614816026512E-01   5.7700058062184112E-01
   5.8807146398464394E-01   5.9933113838235408E-01   6.1078194094742388E-01
   6.2242620428338746E-01   6.3426625487507904E-01   6.4630441143536654E-01
   6.5854298318702964E-01   6.7098426807840550E-01   6.8363055093145308E-01
   6.9648410152086770E-01   7.0954717258292610E-01   7.2282199775273936E-01
   7.3631078942860573E-01   7.5001573656220288E-01   7.6393900237336476E-01
   7.7808272198822459E-01   7.9244899999953677E-01   8.0703990794803215E-01
   8.2185748172370321E-01   8.3690371888595205E-01   8.5218057590159468E-01
   8.6768996529975750E-01   8.8343375274276392E-01   8.9941375401219315E-01
   9.1563173190931135E-01   9.3208939306921035E-01   9.4878838468801718E-01
   9.6573029116264164E-01   9.8291663064263946E-01   1.0003488514938113E+00
   1.0180283286733178E+00   1.0359563600161614E+00   1.0541341624330030E+00
   1.0725628680194286E+00   1.0912435200768691E+00   1.1101770690455490E+00
   1.1293643683499504E+00   1.1488061701574472E+00   1.1685031210509103E+00
   1.1884557576162600E+00   1.2086645019460942E+00   1.2291296570607260E+00
   1.2498514022481086E+00   1.2708297883243926E+00   1.2920647328169785E+00
   1.3135560150722023E+00   1.3353032712900004E+00   1.3573059894880777E+00
   1.3795635043984398E+00   1.4020749922992715E+00   1.4248394657855175E+00
   1.4478557684816846E+00   1.4711225697007071E+00   1.4946383590529893E+00
   1.5184014410100044E+00   1.5424099294271298E+00   1.5666617420307045E+00
   1.5911545948745771E+00   1.6158859967717700E+00   1.6408532437071124E+00
   1.6660534132371434E+00   1.6914833588837848E+00   1.7171397045286656E+00
   1.7430188388153716E+00   1.7691169095670805E+00   1.7954298182275354E+00
   1.8219532143335462E+00   1.8486824900275449E+00   1.8756127746191442E+00
   1.9027389292048604E+00   1.9300555413556122E+00   1.9575569198818747E+00
   1.9852370896866871E+00   2.0130897867172157E+00   2.0411084530256236E+00
   2.0692862319506533E+00   2.0976159634315752E+00   2.1260901794663472E+00
   2.1547010997266409E+00   2.1834406273423115E+00   2.2123003448686300E+00
   2.2412715104500629E+00   2.2703450541945256E+00   2.2995115747730095E+00
   2.3287613362595856E+00   2.3580842652275549E+00   2.3874699481181558E+00
   2.4169076288984801E+00   2.4463862070262743E+00   2.4758942357395628E+00
   2.5054199206896794E+00   2.5349511189370078E+00   2.5644753383289207E+00
   2.5939797372801841E+00   2.6234511249762913E+00   2.6528759620205378E+00
   2.6822403615460235E+00   2.7115300908137150E+00   2.7407305733179794E+00
   2.7698268914207991E+00   2.7988037895359179E+00   2.8276456778838477E+00
   2.8563366368384111E+00   2.8848604218851297E+00   2.9132004692112705E+00
   2.9413399019467921E+00   2.9692615370748143E+00   2.9969478930293807E+00
   3.0243811979975885E+00   3.0515433989419884E+00   3.0784161713582563E+00
   3.1049809297819242E+00   3.1312188390566020E+00   3.1571108263750900E+00
   3.1826375941029812E+00   3.2077796333933923E+00   3.2325172385997414E+00
   3.2568305224921379E+00   3.2806994322817182E+00   3.3041037664555244E+00
   3.3270231924234452E+00   3.3494372649771855E+00   3.3713254455597039E+00
   3.3926671223423406E+00   3.4134416311049951E+00   3.4336282769132853E+00
   3.4532063565849200E+00   3.4721551819354324E+00   3.4904541037918562E+00
   3.5080825367605444E+00   3.5250199847333912E+00   3.5412460671145327E+00
   3.5567405457470076E+00   3.5714833525168577E+00   3.5854546176093960E+00
   3.5986346983899637E+00   3.6110042088789998E+00   3.6225440497884729E+00
   3.6332354390842374E+00   3.6430599430360471E+00   3.6519995077143008E+00
   3.6600364908898269E+00   3.6671536942901812E+00   3.6733343961632037E+00
   3.6785623840956880E+00   3.6828219880322521E+00   3.6860981134366710E+00
   3.6883762745350954E+00   3.6896426275778405E+00   3.6898840040536416E+00
   3.6890879437876127E+00   3.6872427278514213E+00   3.6843374112116685E+00
   3.6803618550399180E+00   3.6753067586053985E+00   3.6691636906691105E+00
   3.6619251202958365E+00   3.6535844469985390E+00   3.6441360301276222E+00
   3.6335752174159404E+00   3.6218983725886607E+00   3.6091029019458762E+00
   3.5951872798246240E+00   3.5801510728460171E+00   3.5639949628525773E+00
   3.5467207684403701E+00   3.5283314649903947E+00   3.5088312031039615E+00
   3.4882253253470599E+00   3.4665203812097367E+00   3.4437241401875265E+00
   3.4198456028934765E+00   3.3948950101113304E+00   3.3688838497024847E+00
   3.3418248612821606E+00   3.3137320385832778E+00   3.2846206294297078E+00
   3.2545071332449647E+00   3.2234092960261433E+00   3.1913461027180636E+00
   3.1583377669276631E+00   3.1244057179243123E+00   3.0895725848782112E+00
   3.0538621782956632E+00   3.0172994686176251E+00   2.9799105619562614E+00
   2.9417226729530301E+00   2.9027640947519862E+00   2.8630641660926770E+00
   2.8226532355388549E+00   2.7815626228721215E+00   2.7398245776931995E+00
   2.6974722352883380E+00   2.6545395698334873E+00   2.6110613450252567E+00
   2.5670730622440256E+00   2.5226109063581679E+00   2.4777116893333884E+00
   2.4324127917674510E+00   2.3867521025311902E+00   2.3407679566883917E+00
   2.2944990718809901E+00   2.2479844833721927E+00   2.2012634779433107E+00
   2.1543755268382929E+00   2.1073602179424409E+00   2.0602571873696820E+00
   2.0131060506148164E+00   1.9659463334068483E+00   1.9188174023792097E+00
   1.8717583956553840E+00   1.8248081534394927E+00   1.7780051487024311E+00
   1.7313874180665887E+00   1.6849924930163185E+00   1.6388573315915405E+00
   1.5930182507564974E+00   1.5475108596673928E+00   1.5023699940883601E+00
   1.4576296522225616E+00   1.4133229322315910E+00   1.3694819717143711E+00
   1.3261378894064737E+00   1.2833207293453011E+00   1.2410594077284030E+00
   1.1993816626726495E+00   1.1583140070630762E+00   1.1178816846628574E+00
   1.0781086296398195E+00   1.0390174296508514E+00   1.0006292926125575E+00
   9.6296401727413383E-01   9.2603996769632291E-01   8.8987405172765166E-01
   8.5448170355591369E-01   8.1987687039831525E-01   7.8607200337845951E-01
   7.5307805262146976E-01   7.2090446658132823E-01   6.8955919559606593E-01
   6.5904869964760637E-01   6.2937796028417325E-01   6.0055049664376248E-01
   5.7256838549842370E-01   5.4543228522048792E-01   5.1914146355367308E-01
   4.9369382905496845E-01   4.6908596605642194E-01   4.4531317298057926E-01
   4.2236950382890465E-01   4.0024781264888759E-01   3.7893980077379436E-01
   3.5843606661780469E-01   3.3872615779985793E-01   3.1979862536143483E-01
   3.0164107983638072E-01   2.8424024892578992E-01   2.6758203652670709E-01
   2.5165158286078892E-01   2.3643332544800311E-01   2.2191106067024302E-01
   2.0806800567141129E-01   1.9488686034305094E-01   1.8234986914850329E-01
   1.7043888254374837E-01   1.5913541775917139E-01   1.4842071871389567E-01
   1.3827581484272916E-01   1.2868157862519436E-01   1.1961878161686880E-01
   1.1106814879489904E-01   1.0301041104258159E-01   9.5426355612015984E-02
   8.8296874419102639E-02   8.1603010041580729E-02   7.5325999307987362E-02
   6.9447314383353817E-02   6.3948701275599068E-02   5.8812215704647550E-02
   5.4020256293794963E-02   4.9555595059207126E-02   4.5401405188106717E-02
   4.1541286108271611E-02   3.7959285860190158E-02   3.4639920787820501E-02
   3.1568192564515055E-02   2.8729602568868605E-02   2.6110163624404003E-02
   2.3696409121840421E-02   2.1475399557390050E-02   1.9434726546365615E-02
   1.7562514405343781E-02   1.5847419431296202E-02   1.4278627034878017E-02
   1.2845846902169099E-02   1.1539306363665281E-02   1.0349742144128758E-02
   9.2683906565256911E-03   8.2869769919361111E-03   7.3977027475596495E-03
   6.5932328276280495E-03   5.8666813469508711E-03   5.2115967631295931E-03
   4.6219463604080784E-03   4.0921002050467196E-03   3.6168146886075641E-03
   3.1912157714568058E-03   2.8107820340367417E-03   2.4713276380684810E-03
   2.1689852938831223E-03   1.9001893236127428E-03   1.6616589031270084E-03
   1.4503815584635074E-03   1.2635969851839768E-03   1.0987812517010819E-03
   9.5363144024027157E-04   8.2605077183413539E-04   7.1413425464475944E-04
   6.1615488804786457E-04   5.3055044833806217E-04   4.5591087566711788E-04
   3.9096627594331455E-04   3.3457554592340830E-04   2.8571562463967562E-04
   2.4347136963696471E-04   2.0702605225716655E-04   1.7565246240173495E-04
   1.4870460983260276E-04   1.2561000612355152E-04   1.0586250884587762E-04
   8.9015707447082402E-05   7.4676828544378927E-05   6.2501136986288744E-05
   5.2186808014163910E-05   4.3470245157275891E-05   3.6121818094845463E-05
   2.9941994590384603E-05   2.4757840719130980E-05   2.0419863944212329E-05
   1.6799174120857455E-05   1.3784938196112510E-05   1.1282105197828574E-05
   9.2093790461854755E-06   7.4974177506830167E-06   6.0872386533666597E-06
   4.9288105248993065E-06   3.9798144955500227E-06   3.2045569917007852E-06
   2.5730190349620719E-06   2.0600274332482298E-06   1.6445345394038801E-06
   1.3089943641550585E-06   1.0388238987187737E-06   8.2193952208743288E-07
   6.4835933426216949E-07   5.0986316622573035E-07   3.9970286815500209E-07
   3.1235626824758211E-07   2.4331892553414936E-07   1.8892847184291541E-07
   1.4621695217360623E-07   1.1278713108988712E-07   8.6709237681912197E-08
   6.6435076097961170E-08   5.0726835515698208E-08   3.8598295931037384E-08
   2.9266447548286616E-08   2.2111825146305632E-08   1.6646107826001490E-08
   1.2485752191911956E-08   9.3306163395599933E-09   6.9466959211606978E-09
   5.1522348135801674E-09   3.8065940352834083E-09   2.8013659683569259E-09
   2.0533087898667611E-09   1.4987505005234847E-09   1.0793215629313003E-09
   5.8261711576842543E-11  -7.9507755362785595E-14   0.0000000000000000E+00
   0.0000000000000000E+00   0.0000000000000000E+00   0.0000000000000000E+00
   0.0000000000000000E+00   0.0000000000000000E+00   0.0000000000000000E+00
   0.0000000000000000E+00   0.0000000000000000E+00   0.0000000000000000E+00
   0.0000000000000000E+00   0.0000000000000000E+00   0.0000000000000000E+00
   0.0000000000000000E+00   0.0000000000000000E+00   0.0000000000000000E+00
   0.0000000000000000E+00   0.0000000000000000E+00   0.0000000000000000E+00
   0.0000000000000000E+00   0.0000000000000000E+00   0.0000000000000000E+00
   0.0000000000000000E+00   0.0000000000000000E+00   0.0000000000000000E+00
   0.0000000000000000E+00   0.0000000000000000E+00   0.0000000000000000E+00
   0.0000000000000000E+00   0.0000000000000000E+00   0.0000000000000000E+00
   0.0000000000000000E+00   0.0000000000000000E+00   0.0000000000000000E+00
   0.0000000000000000E+00   0.0000000000000000E+00   0.0000000000000000E+00
   0.0000000000000000E+00   0.0000000000000000E+00   0.0000000000000000E+00
   0.0000000000000000E+00   0.0000000000000000E+00   0.0000000000000000E+00
   0.0000000000000000E+00   0.0000000000000000E+00   0.0000000000000000E+00
   0.0000000000000000E+00   0.0000000000000000E+00   0.0000000000000000E+00
   0.0000000000000000E+00   0.0000000000000000E+00   0.0000000000000000E+00
   0.0000000000000000E+00   0.0000000000000000E+00   0.0000000000000000E+00
   0.0000000000000000E+00   0.0000000000000000E+00   0.0000000000000000E+00
   0.0000000000000000E+00   0.0000000000000000E+00   0.0000000000000000E+00
   0.0000000000000000E+00   0.0000000000000000E+00   0.0000000000000000E+00
   0.0000000000000000E+00   0.0000000000000000E+00   0.0000000000000000E+00
   0.0000000000000000E+00   0.0000000000000000E+00   0.0000000000000000E+00
   0.0000000000000000E+00   0.0000000000000000E+00   0.0000000000000000E+00
   0.0000000000000000E+00   0.0000000000000000E+00   0.0000000000000000E+00
   0.0000000000000000E+00   0.0000000000000000E+00   0.0000000000000000E+00
   0.0000000000000000E+00   0.0000000000000000E+00   0.0000000000000000E+00
   0.0000000000000000E+00   0.0000000000000000E+00   0.0000000000000000E+00
   0.0000000000000000E+00   0.0000000000000000E+00   0.0000000000000000E+00
   0.0000000000000000E+00   0.0000000000000000E+00   0.0000000000000000E+00
   0.0000000000000000E+00   0.0000000000000000E+00   0.0000000000000000E+00
   0.0000000000000000E+00   0.0000000000000000E+00   0.0000000000000000E+00
   0.0000000000000000E+00   0.0000000000000000E+00   0.0000000000000000E+00
   0.0000000000000000E+00   0.0000000000000000E+00   0.0000000000000000E+00
   0.0000000000000000E+00   0.0000000000000000E+00   0.0000000000000000E+00
   0.0000000000000000E+00   0.0000000000000000E+00   0.0000000000000000E+00
   0.0000000000000000E+00   0.0000000000000000E+00   0.0000000000000000E+00
   0.0000000000000000E+00   0.0000000000000000E+00   0.0000000000000000E+00
   0.0000000000000000E+00   0.0000000000000000E+00   0.0000000000000000E+00
   0.0000000000000000E+00   0.0000000000000000E+00   0.0000000000000000E+00
   0.0000000000000000E+00   0.0000000000000000E+00   0.0000000000000000E+00
   0.0000000000000000E+00   0.0000000000000000E+00   0.0000000000000000E+00
   0.0000000000000000E+00   0.0000000000000000E+00   0.0000000000000000E+00
   0.0000000000000000E+00   0.0000000000000000E+00   0.0000000000000000E+00
   0.0000000000000000E+00   0.0000000000000000E+00   0.0000000000000000E+00
   0.0000000000000000E+00   0.0000000000000000E+00   0.0000000000000000E+00
   0.0000000000000000E+00   0.0000000000000000E+00   0.0000000000000000E+00
   0.0000000000000000E+00   0.0000000000000000E+00   0.0000000000000000E+00
   0.0000000000000000E+00   0.0000000000000000E+00   0.0000000000000000E+00
   0.0000000000000000E+00   0.0000000000000000E+00   0.0000000000000000E+00
   0.0000000000000000E+00   0.0000000000000000E+00   0.0000000000000000E+00
   0.0000000000000000E+00   0.0000000000000000E+00   0.0000000000000000E+00
   0.0000000000000000E+00   0.0000000000000000E+00   0.0000000000000000E+00
   0.0000000000000000E+00   0.0000000000000000E+00   0.0000000000000000E+00
   0.0000000000000000E+00   0.0000000000000000E+00   0.0000000000000000E+00
   0.0000000000000000E+00   0.0000000000000000E+00   0.0000000000000000E+00
   0.0000000000000000E+00   0.0000000000000000E+00   0.0000000000000000E+00
   0.0000000000000000E+00   0.0000000000000000E+00   0.0000000000000000E+00
   0.0000000000000000E+00   0.0000000000000000E+00   0.0000000000000000E+00
   0.0000000000000000E+00   0.0000000000000000E+00   0.0000000000000000E+00
   0.0000000000000000E+00   0.0000000000000000E+00   0.0000000000000000E+00
   0.0000000000000000E+00   0.0000000000000000E+00   0.0000000000000000E+00
   0.0000000000000000E+00   0.0000000000000000E+00   0.0000000000000000E+00
   0.0000000000000000E+00   0.0000000000000000E+00   0.0000000000000000E+00
   0.0000000000000000E+00   0.0000000000000000E+00   0.0000000000000000E+00
   0.0000000000000000E+00   0.0000000000000000E+00   0.0000000000000000E+00
   0.0000000000000000E+00   0.0000000000000000E+00   0.0000000000000000E+00
   0.0000000000000000E+00   0.0000000000000000E+00   0.0000000000000000E+00
   0.0000000000000000E+00   0.0000000000000000E+00   0.0000000000000000E+00
   0.0000000000000000E+00   0.0000000000000000E+00   0.0000000000000000E+00
   0.0000000000000000E+00   0.0000000000000000E+00   0.0000000000000000E+00
     </PP_GIPAW_CORE_ORBITAL.3>
     <PP_GIPAW_CORE_ORBITAL.4 size="1164" index="4" label="3S" n="3" l="0">
   0.0000000000000000E+00   5.0940902363416423E-03   5.1479667948805714E-03
   5.2024119856456351E-03   5.2574317537173098E-03   5.3130321464283986E-03
   5.3692192872538463E-03   5.4259993641997198E-03   5.4833786301759927E-03
   5.5413634036716748E-03   5.5999600694368558E-03   5.6591750791717289E-03
   5.7190149522225384E-03   5.7794862762846691E-03   5.8405957081127920E-03
   5.9023499742382676E-03   5.9647558716938000E-03   6.0278202687454284E-03
   6.0915501056319323E-03   6.1559523953117097E-03   6.2210342242172379E-03
   6.2868027530170968E-03   6.3532652173857772E-03   6.4204289287811593E-03
   6.4883012752299189E-03   6.5568897221208100E-03   6.6262018130059420E-03
   6.6962451704101287E-03   6.7670274966483849E-03   6.8385565746516414E-03
   6.9108402688007539E-03   6.9838865257688927E-03   7.0577033753723671E-03
   7.1322989314300308E-03   7.2076813926312223E-03   7.2838590434124786E-03
   7.3608402548429432E-03   7.4386334855187190E-03   7.5172472824660439E-03
   7.5966902820535989E-03   7.6769712109138188E-03   7.7580988868734668E-03
   7.8400822198934177E-03   7.9229302130178203E-03   8.0066519633327053E-03
   8.0912566629341154E-03   8.1767535999057988E-03   8.2631521593066835E-03
   8.3504618241680775E-03   8.4386921765007613E-03   8.5278528983120366E-03
   8.6179537726328286E-03   8.7090046845549295E-03   8.8010156222784897E-03
   8.8939966781698063E-03   8.9879580498295440E-03   9.0829100411714495E-03
   9.1788630635116861E-03   9.2758276366688430E-03   9.3738143900747150E-03
   9.4728340638960285E-03   9.5728975101670617E-03   9.6740156939333893E-03
   9.7761996944067831E-03   9.8794607061313405E-03   9.9838100401610543E-03
   1.0089259125248764E-02   1.0195819509046657E-02   1.0303502859318530E-02
   1.0412320965163670E-02   1.0522285738252661E-02   1.0633409214075153E-02
   1.0745703553199643E-02   1.0859181042545419E-02   1.0973854096666782E-02
   1.1089735259049608E-02   1.1206837203420373E-02   1.1325172735067725E-02
   1.1444754792176737E-02   1.1565596447175915E-02   1.1687710908097122E-02
   1.1811111519948366E-02   1.1935811766099799E-02   1.2061825269682823E-02
   1.2189165795002481E-02   1.2317847248963296E-02   1.2447883682508551E-02
   1.2579289292073224E-02   1.2712078421050569E-02   1.2846265561272613E-02
   1.2981865354504490E-02   1.3118892593952821E-02   1.3257362225788298E-02
   1.3397289350682429E-02   1.3538689225358691E-02   1.3681577264158138E-02
   1.3825969040619519E-02   1.3971880289074187E-02   1.4119326906255671E-02
   1.4268324952924226E-02   1.4418890655506335E-02   1.4571040407749342E-02
   1.4724790772391298E-02   1.4880158482846106E-02   1.5037160444904133E-02
   1.5195813738448359E-02   1.5356135619186105E-02   1.5518143520396644E-02
   1.5681855054694525E-02   1.5847288015808956E-02   1.6014460380379299E-02
   1.6183390309766572E-02   1.6354096151881485E-02   1.6526596443028622E-02
   1.6700909909767310E-02   1.6877055470788997E-02   1.7055052238811354E-02
   1.7234919522489196E-02   1.7416676828342290E-02   1.7600343862700263E-02
   1.7785940533664505E-02   1.7973486953087429E-02   1.8163003438568914E-02
   1.8354510515470324E-02   1.8548028918945879E-02   1.8743579595991853E-02
   1.8941183707513264E-02   1.9140862630408571E-02   1.9342637959672133E-02
   1.9546531510514876E-02   1.9752565320502773E-02   1.9960761651713798E-02
   2.0171142992912991E-02   2.0383732061745964E-02   2.0598551806950891E-02
   2.0815625410588977E-02   2.1034976290293651E-02   2.1256628101538420E-02
   2.1480604739923585E-02   2.1706930343481787E-02   2.1935629295002569E-02
   2.2166726224375995E-02   2.2400246010955360E-02   2.2636213785939097E-02
   2.2874654934772021E-02   2.3115595099565810E-02   2.3359060181539083E-02
   2.3605076343476701E-02   2.3853670012208873E-02   2.4104867881109718E-02
   2.4358696912615514E-02   2.4615184340762760E-02   2.4874357673745889E-02
   2.5136244696494933E-02   2.5400873473273057E-02   2.5668272350293984E-02
   2.5938469958359332E-02   2.6211495215516210E-02   2.6487377329734583E-02
   2.6766145801604982E-02   2.7047830427056139E-02   2.7332461300092894E-02
   2.7620068815554240E-02   2.7910683671891649E-02   2.8204336873967433E-02
   2.8501059735873569E-02   2.8800883883770511E-02   2.9103841258746585E-02
   2.9409964119697270E-02   2.9719285046224984E-02   3.0031836941558972E-02
   3.0347653035495532E-02   3.0666766887358365E-02   3.0989212388979094E-02
   3.1315023767698055E-02   3.1644235589385096E-02   3.1976882761480585E-02
   3.2313000536056298E-02   3.2652624512896501E-02   3.2995790642598805E-02
   3.3342535229694936E-02   3.3692894935791425E-02   3.4046906782729876E-02
   3.4404608155766923E-02   3.4766036806773759E-02   3.5131230857455190E-02
   3.5500228802587880E-02   3.5873069513277990E-02   3.6249792240237756E-02
   3.6630436617081250E-02   3.7015042663638753E-02   3.7403650789290102E-02
   3.7796301796316246E-02   3.8193036883269249E-02   3.8593897648360846E-02
   3.8998926092868244E-02   3.9408164624558345E-02   3.9821656061129272E-02
   4.0239443633669242E-02   4.0661570990132526E-02   4.1088082198832261E-02
   4.1519021751949943E-02   4.1954434569061047E-02   4.2394366000676663E-02
   4.2838861831800988E-02   4.3287968285504075E-02   4.3741732026509557E-02
   4.4200200164797157E-02   4.4663420259219315E-02   4.5131440321131949E-02
   4.5604308818038550E-02   4.6082074677247419E-02   4.6564787289541415E-02
   4.7052496512859879E-02   4.7545252675992369E-02   4.8043106582283522E-02
   4.8546109513348056E-02   4.9054313232796687E-02   4.9567769989970790E-02
   5.0086532523686333E-02   5.0610654065985958E-02   5.1140188345898716E-02
   5.1675189593206751E-02   5.2215712542218039E-02   5.2761812435544939E-02
   5.3313545027887446E-02   5.3870966589820074E-02   5.4434133911582180E-02
   5.5003104306870755E-02   5.5577935616634259E-02   5.6158686212867188E-02
   5.6745415002404348E-02   5.7338181430713508E-02   5.7937045485685706E-02
   5.8542067701422472E-02   5.9153309162018101E-02   5.9770831505336540E-02
   6.0394696926781545E-02   6.1024968183058977E-02   6.1661708595929628E-02
   6.2304982055952085E-02   6.2954853026213523E-02   6.3611386546047533E-02
   6.4274648234737997E-02   6.4944704295206115E-02   6.5621621517681292E-02
   6.6305467283352307E-02   6.6996309567998666E-02   6.7694216945599794E-02
   6.8399258591920503E-02   6.9111504288071682E-02   6.9831024424043278E-02
   7.0557890002209106E-02   7.1292172640800663E-02   7.2033944577348602E-02
   7.2783278672089877E-02   7.3540248411338077E-02   7.4304927910815666E-02
   7.5077391918945954E-02   7.5857715820101410E-02   7.6645975637808297E-02
   7.7442248037903366E-02   7.8246610331641209E-02   7.9059140478750234E-02
   7.9879917090433988E-02   8.0709019432315537E-02   8.1546527427323309E-02
   8.2392521658514295E-02   8.3247083371832759E-02   8.4110294478801945E-02
   8.4982237559145010E-02   8.5862995863333708E-02   8.6752653315059991E-02
   8.7651294513629185E-02   8.8559004736271041E-02   8.9475869940364855E-02
   9.0401976765576431E-02   9.1337412535902565E-02   9.2282265261620630E-02
   9.3236623641138869E-02   9.4200577062743804E-02   9.5174215606242188E-02
   9.6157630044492154E-02   9.7150911844820928E-02   9.8154153170324415E-02
   9.9167446881045049E-02   1.0019088653502324E-01   1.0122456638921866E-01
   1.0226858140029700E-01   1.0332302722527678E-01   1.0438800022203315E-01
   1.0546359744965299E-01   1.0654991666863610E-01   1.0764705634093899E-01
   1.0875511562985492E-01   1.0987419439972543E-01   1.1100439321547850E-01
   1.1214581334198695E-01   1.1329855674324278E-01   1.1446272608134056E-01
   1.1563842471526474E-01   1.1682575669947498E-01   1.1802482678228284E-01
   1.1923574040401405E-01   1.2045860369495000E-01   1.2169352347304115E-01
   1.2294060724138708E-01   1.2419996318547484E-01   1.2547170017016898E-01
   1.2675592773644720E-01   1.2805275609787237E-01   1.2936229613679498E-01
   1.3068465940027713E-01   1.3201995809573169E-01   1.3336830508626601E-01
   1.3472981388572544E-01   1.3610459865342484E-01   1.3749277418856135E-01
   1.3889445592429922E-01   1.4030975992151776E-01   1.4173880286221255E-01
   1.4318170204254121E-01   1.4463857536550351E-01   1.4610954133324677E-01
   1.4759471903898472E-01   1.4909422815852297E-01   1.5060818894137504E-01
   1.5213672220146424E-01   1.5367994930739592E-01   1.5523799217229114E-01
   1.5681097324316967E-01   1.5839901548986940E-01   1.6000224239349314E-01
   1.6162077793436685E-01   1.6325474657949915E-01   1.6490427326953039E-01
   1.6656948340515368E-01   1.6825050283299950E-01   1.6994745783096904E-01
   1.7166047509299817E-01   1.7338968171324601E-01   1.7513520516968484E-01
   1.7689717330708291E-01   1.7867571431936263E-01   1.8047095673131824E-01
   1.8228302937967908E-01   1.8411206139350009E-01   1.8595818217386501E-01
   1.8782152137288674E-01   1.8970220887198305E-01   1.9160037475941721E-01
   1.9351614930707881E-01   1.9544966294649233E-01   1.9740104624403246E-01
   1.9937042987532716E-01   2.0135794459883213E-01   2.0336372122855192E-01
   2.0538789060589460E-01   2.0743058357063493E-01   2.0949193093096607E-01
   2.1157206343262183E-01   2.1367111172704406E-01   2.1578920633857671E-01
   2.1792647763066239E-01   2.2008305577102000E-01   2.2225907069578074E-01
   2.2445465207255605E-01   2.2666992926241911E-01   2.2890503128077139E-01
   2.3116008675706989E-01   2.3343522389339419E-01   2.3573057042181983E-01
   2.3804625356058165E-01   2.4038239996899288E-01   2.4273913570109723E-01
   2.4511658615802648E-01   2.4751487603903291E-01   2.4993412929117148E-01
   2.5237446905760363E-01   2.5483601762448838E-01   2.5731889636643845E-01
   2.5982322569050431E-01   2.6234912497866109E-01   2.6489671252876401E-01
   2.6746610549394173E-01   2.7005741982039633E-01   2.7267077018357583E-01
   2.7530626992268831E-01   2.7796403097352196E-01   2.8064416379953872E-01
   2.8334677732120761E-01   2.8607197884353958E-01   2.8881987398179165E-01
   2.9159056658530402E-01   2.9438415865943157E-01   2.9720075028553655E-01
   3.0004043953900139E-01   3.0290332240522355E-01   3.0578949269356004E-01
   3.0869904194917486E-01   3.1163205936275445E-01   3.1458863167805351E-01
   3.1756884309722183E-01   3.2057277518388499E-01   3.2360050676392410E-01
   3.2665211382392345E-01   3.2972766940723797E-01   3.3282724350763970E-01
   3.3595090296050167E-01   3.3909871133147401E-01   3.4227072880260728E-01
   3.4546701205588670E-01   3.4868761415411875E-01   3.5193258441914016E-01
   3.5520196830729439E-01   3.5849580728213132E-01   3.6181413868429102E-01
   3.6515699559851400E-01   3.6852440671774123E-01   3.7191639620425304E-01
   3.7533298354779909E-01   3.7877418342067593E-01   3.8224000552969833E-01
   3.8573045446502413E-01   3.8924552954577829E-01   3.9278522466243376E-01
   3.9634952811589669E-01   3.9993842245324940E-01   4.0355188430010419E-01
   4.0718988418951935E-01   4.1085238638742633E-01   4.1453934871452580E-01
   4.1825072236459726E-01   4.2198645171918203E-01   4.2574647415858680E-01
   4.2953071986916064E-01   4.3333911164680494E-01   4.3717156469665497E-01
   4.4102798642890595E-01   4.4490827625072094E-01   4.4881232535418542E-01
   4.5274001650025963E-01   4.5669122379868277E-01   4.6066581248379079E-01
   4.6466363868619986E-01   4.6868454920031588E-01   4.7272838124763072E-01
   4.7679496223575862E-01   4.8088410951318106E-01   4.8499563011965952E-01
   4.8912932053227559E-01   4.9328496640707054E-01   4.9746234231624153E-01
   5.0166121148087095E-01   5.0588132549914933E-01   5.1012242407007036E-01
   5.1438423471256622E-01   5.1866647248005326E-01   5.2296883967037866E-01
   5.2729102553113083E-01   5.3163270596030554E-01   5.3599354320230563E-01
   5.4037318553926095E-01   5.4477126697766121E-01   5.4918740693028556E-01
   5.5362120989343422E-01   5.5807226511944719E-01   5.6254014628452165E-01
   5.6702441115182478E-01   5.7152460122991833E-01   5.7604024142649390E-01
   5.8057083969745216E-01   5.8511588669132697E-01   5.8967485538909559E-01
   5.9424720073939330E-01   5.9883235928916856E-01   6.0342974880982303E-01
   6.0803876791886902E-01   6.1265879569716586E-01   6.1728919130178350E-01
   6.2192929357455429E-01   6.2657842064638514E-01   6.3123586953739375E-01
   6.3590091575296381E-01   6.4057281287579060E-01   6.4525079215402370E-01
   6.4993406208560200E-01   6.5462180799889313E-01   6.5931319162975377E-01
   6.6400735069514083E-01   6.6870339846340121E-01   6.7340042332139416E-01
   6.7809748833858929E-01   6.8279363082831024E-01   6.8748786190629663E-01
   6.9217916604676333E-01   6.9686650063615707E-01   7.0154879552481275E-01
   7.0622495257672480E-01   7.1089384521767163E-01   7.1555431798191871E-01
   7.2020518605777351E-01   7.2484523483224084E-01   7.2947321943507515E-01
   7.3408786428251427E-01   7.3868786262100694E-01   7.4327187607126366E-01
   7.4783853417295898E-01   7.5238643393045301E-01   7.5691413935989471E-01
   7.6142018103809905E-01   7.6590305565360883E-01   7.7036122556034980E-01
   7.7479311833433928E-01   7.7919712633389770E-01   7.8357160626383981E-01
   7.8791487874416055E-01   7.9222522788371696E-01   7.9650090085945946E-01
   8.0074010750177083E-01   8.0494101988649602E-01   8.0910177193427346E-01
   8.1322045901778994E-01   8.1729513757762129E-01   8.2132382474733157E-01
   8.2530449798853378E-01   8.2923509473663748E-01   8.3311351205804229E-01
   8.3693760631954950E-01   8.4070519287080714E-01   8.4441404574061107E-01
   8.4806189734793969E-01   8.5164643822859554E-01   8.5516531677838925E-01
   8.5861613901380496E-01   8.6199646835113120E-01   8.6530382540507056E-01
   8.6853568780785995E-01   8.7168949004998886E-01   8.7476262334360433E-01
   8.7775243550976323E-01   8.8065623089067546E-01   8.8347127028816863E-01
   8.8619477092959387E-01   8.8882390646246101E-01   8.9135580697909778E-01
   8.9378755907268526E-01   8.9611620592603813E-01   8.9833874743455855E-01
   9.0045214036479315E-01   9.0245329855009837E-01   9.0433909312491778E-01
   9.0610635279924456E-01   9.0775186417485221E-01   9.0927237210492984E-01
   9.1066458009878892E-01   9.1192515077334158E-01   9.1305070635309193E-01
   9.1403782922041488E-01   9.1488306251793572E-01   9.1558291080485299E-01
   9.1613384076908755E-01   9.1653228199717485E-01   9.1677462780384567E-01
   9.1685723612328107E-01   9.1677643046406021E-01   9.1652850092983251E-01
   9.1610970530781455E-01   9.1551627022719373E-01   9.1474439238959393E-01
   9.1379023987375141E-01   9.1264995351659639E-01   9.1131964837294721E-01
   9.0979541525605923E-01   9.0807332236127225E-01   9.0614941697504048E-01
   9.0401972727162982E-01   9.0168026419979175E-01   8.9912702346172257E-01
   8.9635598758664703E-01   8.9336312810134710E-01   8.9014440779997595E-01
   8.8669578311550357E-01   8.8301320659511218E-01   8.7909262948188294E-01
   8.7493000440508495E-01   8.7052128818137475E-01   8.6586244472918916E-01
   8.6094944809859753E-01   8.5577828561884817E-01   8.5034496116581382E-01
   8.4464549855150295E-01   8.3867594503776433E-01   8.3243237497625944E-01
   8.2591089357672187E-01   8.1910764080547749E-01   8.1201879541610777E-01
   8.0464057911408982E-01   7.9696926085715070E-01   7.8900116129299536E-01
   7.8073265733595998E-01   7.7216018688406041E-01   7.6328025367777241E-01
   7.5408943230177328E-01   7.4458437333074601E-01   7.3476180862020146E-01
   7.2461855674313658E-01   7.1415152857319131E-01   7.0335773301478088E-01
   6.9223428288053568E-01   6.8077840091616071E-01   6.6898742597264960E-01
   6.5685881932557877E-01   6.4439017114096042E-01   6.3157920708694093E-01
   6.1842379509034484E-01   6.0492195223682987E-01   5.9107185181316102E-01
   5.7687183048977309E-01   5.6232039564157621E-01   5.4741623280456086E-01
   5.3215821326550805E-01   5.1654540178173058E-01   5.0057706442742000E-01
   4.8425267656284127E-01   4.6757193092217858E-01   4.5053474581551028E-01
   4.3314127343992270E-01   4.1539190829436523E-01   3.9728729569244875E-01
   3.7882834036686192E-01   3.6001621515868942E-01   3.4085236978440681E-01
   3.2133853967279807E-01   3.0147675486361580E-01   2.8126934895921818E-01
   2.6071896811991163E-01   2.3982858009323160E-01   2.1860148326675435E-01
   1.9704131573359412E-01   1.7515206435906169E-01   1.5293807383647778E-01
   1.3040405571953356E-01   1.0755509741792323E-01   8.4396671142577526E-02
   6.0934642786020461E-02   3.7175280722849029E-02   1.3125264514863743E-02
  -1.1208306495556684E-02  -3.5817904720506444E-02  -6.0695566007592086E-02
  -8.5832881485166462E-02  -1.1122098959040203E-01  -1.3685056829989820E-01
  -1.6271182758290720E-01  -1.8879450209813645E-01  -2.1508784415596244E-01
  -2.4158061696833247E-01  -2.6826108820983124E-01  -2.9511702391390304E-01
  -3.2213568272915155E-01  -3.4930381056159648E-01  -3.7660763562931687E-01
  -4.0403286395704302E-01  -4.3156467533887088E-01  -4.5918771979807060E-01
  -4.8688611457382835E-01  -5.1464344166525045E-01  -5.4244274596380049E-01
  -5.7026653400574157E-01  -5.9809677337681866E-01  -6.2591489280174784E-01
  -6.5370178295148174E-01  -6.8143779800153215E-01  -7.0910275797481526E-01
  -7.3667595190258850E-01  -7.6413614183716294E-01  -7.9146156774990839E-01
  -8.1862995334804467E-01  -8.4561851284330558E-01  -8.7240395870532794E-01
  -8.9896251043208220E-01  -9.2526990436898238E-01  -9.5130140460786627E-01
  -9.7703181499585789E-01  -1.0024354922835732E+00  -1.0274863604409539E+00
  -1.0521579261678760E+00  -1.0764232956258211E+00  -1.1002551924152646E+00
  -1.1236259768225016E+00  -1.1465076663580942E+00  -1.1688719576075717E+00
  -1.1906902494137157E+00  -1.2119336674077725E+00  -1.2325730899053546E+00
  -1.2525791751808428E+00  -1.2719223901318215E+00  -1.2905730403431508E+00
  -1.3085013015576115E+00  -1.3256772525576725E+00  -1.3420709094602297E+00
  -1.3576522614231565E+00  -1.3723913077596768E+00  -1.3862580964532476E+00
  -1.3992227640623480E+00  -1.4112555770011534E+00  -1.4223269741782787E+00
  -1.4324076109721358E+00  -1.4414684045174126E+00  -1.4494805802730726E+00
  -1.4564157198381082E+00  -1.4622458099767663E+00  -1.4669432928105086E+00
  -1.4704811171292618E+00  -1.4728327907696499E+00  -1.4739724340030091E+00
  -1.4738748338708585E+00  -1.4725154994003393E+00  -1.4698707176267891E+00
  -1.4659176103452671E+00  -1.4606341915073213E+00  -1.4539994251737356E+00
  -1.4459932839283609E+00  -1.4365968076524978E+00  -1.4257921625535339E+00
  -1.4135627003358946E+00  -1.3998930173966122E+00  -1.3847690139221416E+00
  -1.3681779527574600E+00  -1.3501085179128911E+00  -1.3305508725686375E+00
  -1.3094967164317426E+00  -1.2869393422949011E+00  -1.2628736916417185E+00
  -1.2372964091381067E+00  -1.2102058958450173E+00  -1.1816023609836070E+00
  -1.1514878720797557E+00  -1.1198664033116295E+00  -1.0867438818805826E+00
  -1.0521282322229664E+00  -1.0160294178784663E+00  -9.7845948082838097E-01
  -9.3943257811652037E-01  -8.9896501556463881E-01  -8.5707527839418962E-01
  -8.1378405856747571E-01  -7.6911427866212900E-01  -7.2309111209559707E-01
  -6.7574199951928193E-01  -6.2709666120578123E-01  -5.7718710525797545E-01
  -5.2604763147425015E-01  -4.7371483071113440E-01  -4.2022757959276785E-01
  -3.6562703042506717E-01  -3.0995659618290816E-01  -2.5326193044911471E-01
  -1.9559090219585581E-01  -1.3699356531157955E-01  -7.7522122789184550E-02
  -1.7230885504660672E-02   4.3823774471581194E-02   1.0558347607531449E-01
   1.6798788699316314E-01   2.3097478697171966E-01   2.9448013670060841E-01
   3.5843815226929943E-01   4.2278138518897790E-01   4.8744080796385575E-01
   5.5234590518966931E-01   6.1742477015245156E-01   6.8260420689496493E-01
   7.4780983771189435E-01   8.1296621602654084E-01   8.7799694458764310E-01
   9.4282479890568160E-01   1.0073718558195239E+00   1.0715596270465062E+00
   1.1353091975236353E+00   1.1985413682946384E+00   1.2611768036430879E+00
   1.3231361821201066E+00   1.3843403510694710E+00   1.4447104842200391E+00
   1.5041682418929516E+00   1.5626359333614888E+00   1.6200366809004316E+00
   1.6762945850650388E+00   1.7313348907454342E+00   1.7850841535443187E+00
   1.8374704060247056E+00   1.8884233233678460E+00   1.9378743879700149E+00
   1.9857570524924841E+00   2.0320069008627488E+00   2.0765618067090479E+00
   2.1193620886965907E+00   2.1603506622233173E+00   2.1994731869270630E+00
   2.2366782094548938E+00   2.2719173009491227E+00   2.3051451887130252E+00
   2.3363198815316060E+00   2.3654027881390389E+00   2.3923588283429171E+00
   2.4171565363368610E+00   2.4397681557555688E+00   2.4601697260507414E+00
   2.4783411597916642E+00   2.4942663105203420E+00   2.5079330308184362E+00
   2.5193332202710734E+00   2.5284628630414412E+00   2.5353220547998712E+00
   2.5399150187814508E+00   2.5422501107778874E+00   2.5423398129016026E+00
   2.5402007159934490E+00   2.5358534905797945E+00   2.5293228463200954E+00
   2.5206374799224491E+00   2.5098300115421130E+00   2.4969369097165623E+00
   2.4819984049302026E+00   2.4650583919427174E+00   2.4461643210566275E+00
   2.4253670785423118E+00   2.4027208564821518E+00   2.3782830123389593E+00
   2.3521139185977300E+00   2.3242768028727059E+00   2.2948375789132935E+00
   2.2638646689822601E+00   2.2314288181158854E+00   2.1976029008088713E+00
   2.1624617206956152E+00   2.1260818038239129E+00   2.0885411861392207E+00
   2.0499191958175036E+00   2.0102962311073727E+00   1.9697535343707262E+00
   1.9283729630516220E+00   1.8862367583619368E+00   1.8434273125544809E+00
   1.8000269357659180E+00   1.7561176235498261E+00   1.7117808264256940E+00
   1.6670972228895884E+00   1.6221464976643247E+00   1.5770071270848653E+00
   1.5317561737082943E+00   1.4864690922753780E+00   1.4412195489932278E+00
   1.3960792556658963E+00   1.3511178194286946E+00   1.3064026077967936E+00
   1.2619986276088737E+00   1.2179684155326824E+00   1.1743719374069068E+00
   1.1312664939899886E+00   1.0887066315930614E+00   1.0467440572938793E+00
   1.0054275595770643E+00   9.6480293602305189E-01   9.2491292996036079E-01
   8.8579717786328149E-01   8.4749216888165135E-01   8.1003121739864470E-01
   7.7344444904680842E-01   7.3775880023407203E-01   7.0299803095109914E-01
   6.6918275043777420E-01   6.3633045515867925E-01   6.0445557845427322E-01
   5.7356955118368647E-01   5.4368087264474463E-01   5.1479519104137672E-01
   4.8691539276319185E-01   4.6004169974138193E-01   4.3417177414773250E-01
   4.0930082970561182E-01   3.8542174888238434E-01   3.6252520523184678E-01
   3.4059979015216868E-01   3.1963214332175799E-01   2.9960708607285785E-01
   2.8050775696217939E-01   2.6231574880100023E-01   2.4501124641428390E-01
   2.2857316441079051E-01   2.1297928426374046E-01   1.9820639002462626E-01
   1.8423040202106630E-01   1.7102650792265417E-01   1.5856929059629657E-01
   1.4683285221383452E-01   1.3579093411920540E-01   1.2541703200954110E-01
   1.1568450603353976E-01   1.0656668546082666E-01   9.8036967627031804E-02
   9.0068910910548264E-02   8.2636321547810671E-02   7.5713334143920202E-02
   6.9274485784250842E-02   6.3294783699687912E-02   5.7749766483224288E-02
   5.2615558898365243E-02   4.7868920359846585E-02   4.3487287204546872E-02
   3.9448808904696195E-02   3.5732378406691245E-02   3.2317656806775175E-02
   2.9185092599468321E-02   2.6315935756044545E-02   2.3692246908389038E-02
   2.1296901928411101E-02   1.9113592204875636E-02   1.7126820928064272E-02
   1.5321895698359147E-02   1.3684917777647991E-02   1.2202768302620225E-02
   1.0863091776736174E-02   9.6542771530087092E-03   8.5654368130307686E-03
   7.5863837390341415E-03   6.7076071654050308E-03   5.9202469842366138E-03
   5.2160671663264990E-03   4.5874284447889229E-03   4.0272604933183284E-03
   3.5290338153219788E-03   3.0867315438465374E-03   2.6948213356174002E-03
   2.3482275257888561E-03   2.0423036933197073E-03   1.7728057703889067E-03
   1.5358658130923393E-03   1.3279665349195118E-03   1.1459166893062604E-03
   9.8682737298843182E-04   8.4808930800563337E-04   7.2735114710184025E-04
   6.2249883498671776E-04   5.3163604650828511E-04   4.5306571227705971E-04
   3.8527263270186571E-04   3.2690717276133153E-04   2.7677002214720559E-04
   2.3379799866826096E-04   1.9705086697295815E-04   1.6569913971624086E-04
   1.3901282420753300E-04   1.1635107429883256E-04   9.7152704745742769E-05
   8.0927523445009566E-05   6.7248435761109329E-05   5.5744274540620550E-05
   4.6093309315860916E-05   3.8017388558837929E-05   3.1276669604755409E-05
   2.5664891961970762E-05   2.1005151114643093E-05   1.7146131546435459E-05
   1.3958759527342424E-05   1.1333238163529008E-05   9.1764292724418575E-06
   7.4095487754804332E-06   5.9661444651555722E-06   4.7903271738333600E-06
   3.8352285212559629E-06   3.0616605264711845E-06   2.4369544173647377E-06
   1.9339579441038203E-06   1.5301723875817368E-06   1.2070122424483976E-06
   9.4917223941688933E-07   7.4408794897179985E-07   5.8147767615426448E-07
   4.5295471333456164E-07   3.5170026592421497E-07   2.7218850725815133E-07
   2.0995625695871793E-07   1.6141071621603220E-07   1.2366953888280928E-07
   9.4428274364530295E-08   7.1850892955189901E-08   5.4479702570927543E-08
   4.1161493797657175E-08   3.0987213848342086E-08   2.3242875306708842E-08
   1.7369758096646206E-08   1.2932268374274745E-08   9.5920811052136335E-09
   7.0874187229169341E-09   5.2165109048483753E-09   3.8244442017930515E-09
   2.7927487007169438E-09   2.0311854613718550E-09   1.4712961290332935E-09
   1.0613575750902890E-09   7.6245202527971724E-10   5.4541898955697190E-10
   3.8850123278812356E-10   2.7553460721778348E-10   1.9456217430470992E-10
   1.3677784972939301E-10   9.5724814788434768E-11   6.6689995891349648E-11
   4.6248741566533228E-11   3.1924020984500832E-11   2.1932530301175846E-11
   1.4996437132442290E-11   1.0204460235577121E-11   6.9098502227030029E-12
   4.6558351690155782E-12   3.1214062808291389E-12   2.0820912916616479E-12
   1.3817156191326015E-12   9.1217737630039694E-13   5.9903689029445699E-13
   3.9130280591034069E-13   2.5423095570002502E-13   1.6427450098531437E-13
   1.0556184362594199E-13   6.7453552084801484E-14   4.2857120488373374E-14
   2.6929631568724709E-14   1.3405726616815489E-14   3.7834701467299208E-16
   0.0000000000000000E+00   0.0000000000000000E+00   0.0000000000000000E+00
   0.0000000000000000E+00   0.0000000000000000E+00   0.0000000000000000E+00
   0.0000000000000000E+00   0.0000000000000000E+00   0.0000000000000000E+00
   0.0000000000000000E+00   0.0000000000000000E+00   0.0000000000000000E+00
   0.0000000000000000E+00   0.0000000000000000E+00   0.0000000000000000E+00
   0.0000000000000000E+00   0.0000000000000000E+00   0.0000000000000000E+00
   0.0000000000000000E+00   0.0000000000000000E+00   0.0000000000000000E+00
   0.0000000000000000E+00   0.0000000000000000E+00   0.0000000000000000E+00
   0.0000000000000000E+00   0.0000000000000000E+00   0.0000000000000000E+00
   0.0000000000000000E+00   0.0000000000000000E+00   0.0000000000000000E+00
   0.0000000000000000E+00   0.0000000000000000E+00   0.0000000000000000E+00
   0.0000000000000000E+00   0.0000000000000000E+00   0.0000000000000000E+00
   0.0000000000000000E+00   0.0000000000000000E+00   0.0000000000000000E+00
   0.0000000000000000E+00   0.0000000000000000E+00   0.0000000000000000E+00
   0.0000000000000000E+00   0.0000000000000000E+00   0.0000000000000000E+00
   0.0000000000000000E+00   0.0000000000000000E+00   0.0000000000000000E+00
   0.0000000000000000E+00   0.0000000000000000E+00   0.0000000000000000E+00
   0.0000000000000000E+00   0.0000000000000000E+00   0.0000000000000000E+00
   0.0000000000000000E+00   0.0000000000000000E+00   0.0000000000000000E+00
   0.0000000000000000E+00   0.0000000000000000E+00   0.0000000000000000E+00
   0.0000000000000000E+00   0.0000000000000000E+00   0.0000000000000000E+00
   0.0000000000000000E+00   0.0000000000000000E+00   0.0000000000000000E+00
   0.0000000000000000E+00   0.0000000000000000E+00   0.0000000000000000E+00
   0.0000000000000000E+00   0.0000000000000000E+00   0.0000000000000000E+00
   0.0000000000000000E+00   0.0000000000000000E+00   0.0000000000000000E+00
   0.0000000000000000E+00   0.0000000000000000E+00   0.0000000000000000E+00
   0.0000000000000000E+00   0.0000000000000000E+00   0.0000000000000000E+00
   0.0000000000000000E+00   0.0000000000000000E+00   0.0000000000000000E+00
   0.0000000000000000E+00   0.0000000000000000E+00   0.0000000000000000E+00
   0.0000000000000000E+00   0.0000000000000000E+00   0.0000000000000000E+00
   0.0000000000000000E+00   0.0000000000000000E+00   0.0000000000000000E+00
   0.0000000000000000E+00   0.0000000000000000E+00   0.0000000000000000E+00
   0.0000000000000000E+00   0.0000000000000000E+00   0.0000000000000000E+00
   0.0000000000000000E+00   0.0000000000000000E+00   0.0000000000000000E+00
   0.0000000000000000E+00   0.0000000000000000E+00   0.0000000000000000E+00
   0.0000000000000000E+00   0.0000000000000000E+00   0.0000000000000000E+00
   0.0000000000000000E+00   0.0000000000000000E+00   0.0000000000000000E+00
   0.0000000000000000E+00   0.0000000000000000E+00   0.0000000000000000E+00
   0.0000000000000000E+00   0.0000000000000000E+00   0.0000000000000000E+00
   0.0000000000000000E+00   0.0000000000000000E+00   0.0000000000000000E+00
   0.0000000000000000E+00   0.0000000000000000E+00   0.0000000000000000E+00
   0.0000000000000000E+00   0.0000000000000000E+00   0.0000000000000000E+00
   0.0000000000000000E+00   0.0000000000000000E+00   0.0000000000000000E+00
   0.0000000000000000E+00   0.0000000000000000E+00   0.0000000000000000E+00
     </PP_GIPAW_CORE_ORBITAL.4>
     <PP_GIPAW_CORE_ORBITAL.5 size="1164" index="5" label="3P" n="3" l="1">
   0.0000000000000000E+00  -2.4983860887766297E-06  -2.5477351154168692E-06
  -2.5981572636444756E-06  -2.6496782536486972E-06  -2.7023209832374326E-06
  -2.7561077735999271E-06  -2.8110614059547969E-06  -2.8672051559198121E-06
  -2.9245628033829972E-06  -2.9831586425870216E-06  -3.0430174924319697E-06
  -3.1041647070008685E-06  -3.1666261863124423E-06  -3.2304283873056681E-06
  -3.2955983350608088E-06  -3.3621636342617113E-06  -3.4301524809042231E-06
  -3.4995936742557333E-06  -3.5705166290709145E-06  -3.6429513880688701E-06
  -3.7169286346769854E-06  -3.7924797060469713E-06  -3.8696366063485136E-06
  -3.9484320203463322E-06  -4.0288993272663286E-06  -4.1110726149567859E-06
  -4.1949866943506080E-06  -4.2806771142347994E-06  -4.3681801763334481E-06
  -4.4575329507106289E-06  -4.5487732914998411E-06  -4.6419398529666100E-06
  -4.7370721059111515E-06  -4.8342103544180543E-06  -4.9333957529601575E-06
  -5.0346703238638528E-06  -5.1380769751433214E-06  -5.2436595187112504E-06
  -5.3514626889738402E-06  -5.4615321618179850E-06  -5.5739145739987632E-06
  -5.6886575429354714E-06  -5.8058096869246518E-06  -5.9254206457787700E-06
  -6.0475411018992771E-06  -6.1722228017930922E-06  -6.2995185780416891E-06
  -6.4294823717321377E-06  -6.5621692553596616E-06  -6.6976354562115125E-06
  -6.8359383802421506E-06  -6.9771366364498380E-06  -7.1212900617651936E-06
  -7.2684597464621558E-06  -7.4187080601024112E-06  -7.5720986780241154E-06
  -7.7286966083864916E-06  -7.8885682197816142E-06  -8.0517812694253150E-06
  -8.2184049319392470E-06  -8.3885098287362994E-06  -8.5621680580220346E-06
  -8.7394532254249064E-06  -8.9204404752683753E-06  -9.1052065224982437E-06
  -9.2938296852789143E-06  -9.4863899182724511E-06  -9.6829688466147614E-06
  -9.8836498006032754E-06  -1.0088517851111114E-05  -1.0297659845742787E-05
  -1.0511164445746972E-05  -1.0729122163702057E-05  -1.0951625401990666E-05
  -1.1178768492079601E-05  -1.1410647734621994E-05  -1.1647361440398828E-05
  -1.1889009972117424E-05  -1.2135695787084688E-05  -1.2387523480773467E-05
  -1.2644599831300637E-05  -1.2907033844835949E-05  -1.3174936801961169E-05
  -1.3448422304999349E-05  -1.3727606326334302E-05  -1.4012607257741412E-05
  -1.4303545960750513E-05  -1.4600545818062645E-05  -1.4903732786042662E-05
  -1.5213235448310252E-05  -1.5529185070452276E-05  -1.5851715655879973E-05
  -1.6180964002854922E-05  -1.6517069762708253E-05  -1.6860175499278177E-05
  -1.7210426749591190E-05  -1.7567972085813072E-05  -1.7932963178496406E-05
  -1.8305554861151452E-05  -1.8685905196168518E-05  -1.9074175542119808E-05
  -1.9470530622469776E-05  -1.9875138595723672E-05  -2.0288171127044060E-05
  -2.0709803461366471E-05  -2.1140214498045500E-05  -2.1579586867063126E-05
  -2.2028107006832655E-05  -2.2485965243631147E-05  -2.2953355872694915E-05
  -2.3430477241012724E-05  -2.3917531831852437E-05  -2.4414726351057565E-05
  -2.4922271815150638E-05  -2.5440383641281659E-05  -2.5969281739060018E-05
  -2.6509190604309699E-05  -2.7060339414788073E-05  -2.7622962127909550E-05
  -2.8197297580516037E-05  -2.8783589590737610E-05  -2.9382087061986720E-05
  -2.9993044089131484E-05  -3.0616720066893095E-05  -3.1253379800514945E-05
  -3.1903293618750328E-05  -3.2566737489218375E-05  -3.3243993136176941E-05
  -3.3935348160764724E-05  -3.4641096163762963E-05  -3.5361536870931008E-05
  -3.6096976260969094E-05  -3.6847726696164088E-05  -3.7614107055774377E-05
  -3.8396442872211698E-05  -3.9195066470078729E-05  -4.0010317108122596E-05
  -4.0842541124165570E-05  -4.1692092083075967E-05  -4.2559330927842797E-05
  -4.3444626133820071E-05  -4.4348353866206800E-05  -4.5270898140832002E-05
  -4.6212650988312902E-05  -4.7174012621658926E-05  -4.8155391607392702E-05
  -4.9157205040263140E-05  -5.0179878721626281E-05  -5.1223847341570370E-05
  -5.2289554664865423E-05  -5.3377453720816703E-05  -5.4488006997105204E-05
  -5.5621686637699025E-05  -5.6778974644921476E-05  -5.7960363085763611E-05
  -5.9166354302530899E-05  -6.0397461127915059E-05  -6.1654207104585288E-05
  -6.2937126709393490E-05  -6.4246765582291038E-05  -6.5583680760057035E-05
  -6.6948440914939050E-05  -6.8341626598310851E-05  -6.9763830489451910E-05
  -7.1215657649558321E-05  -7.2697725781094307E-05  -7.4210665492598524E-05
  -7.5755120569058720E-05  -7.7331748247974277E-05  -7.8941219501225656E-05
  -8.0584219322873800E-05  -8.2261447023015301E-05  -8.3973616527820133E-05
  -8.5721456685884897E-05  -8.7505711581032809E-05  -8.9327140851698354E-05
  -9.1186520017035554E-05  -9.3084640809891511E-05  -9.5022311516791718E-05
  -9.7000357325084546E-05  -9.9019620677396694E-05  -1.0108096163355504E-04
  -1.0318525824013213E-04  -1.0533340690777697E-04  -1.0752632279649712E-04
  -1.0976494020905890E-04  -1.1205021299267913E-04  -1.1438311494918314E-04
  -1.1676464025380879E-04  -1.1919580388284163E-04  -1.2167764205026493E-04
  -1.2421121265361845E-04  -1.2679759572926114E-04  -1.2943789391723693E-04
  -1.3213323293594613E-04  -1.3488476206683297E-04  -1.3769365464930093E-04
  -1.4056110858607187E-04  -1.4348834685921335E-04  -1.4647661805705829E-04
  -1.4952719691225020E-04  -1.5264138485114980E-04  -1.5582051055484426E-04
  -1.5906593053200709E-04  -1.6237902970385931E-04  -1.6576122200149022E-04
  -1.6921395097580110E-04  -1.7273869042033895E-04  -1.7633694500729789E-04
  -1.8001025093696514E-04  -1.8376017660090023E-04  -1.8758832325914022E-04
  -1.9149632573172752E-04  -1.9548585310487018E-04  -1.9955860945204191E-04
  -2.0371633457034322E-04  -2.0796080473244895E-04  -2.1229383345447593E-04
  -2.1671727228010700E-04  -2.2123301158132397E-04  -2.2584298137609977E-04
  -2.3054915216341474E-04  -2.3535353577596506E-04  -2.4025818625094607E-04
  -2.4526520071929084E-04  -2.5037672031376351E-04  -2.5559493109630855E-04
  -2.6092206500506954E-04  -2.6636040082149637E-04  -2.7191226515797242E-04
  -2.7758003346640254E-04  -2.8336613106820524E-04  -2.8927303420617543E-04
  -2.9530327111868009E-04  -3.0145942313666841E-04  -3.0774412580398413E-04
  -3.1416007002147984E-04  -3.2071000321544504E-04  -3.2739673053086657E-04
  -3.3422311605005664E-04  -3.4119208403718941E-04  -3.4830662020930524E-04
  -3.5556977303434923E-04  -3.6298465505682124E-04  -3.7055444425163411E-04
  -3.7828238540678246E-04  -3.8617179153543923E-04  -3.9422604531811722E-04
  -4.0244860057553165E-04  -4.1084298377283134E-04  -4.1941279555586302E-04
  -4.2816171232016442E-04  -4.3709348781338360E-04  -4.4621195477183848E-04
  -4.5552102659195950E-04  -4.6502469903734865E-04  -4.7472705198223247E-04
  -4.8463225119208507E-04  -4.9474455014221041E-04  -5.0506829187510753E-04
  -5.1560791089745302E-04  -5.2636793511753020E-04  -5.3735298782399865E-04
  -5.4856778970686795E-04  -5.6001716092159203E-04  -5.7170602319720301E-04
  -5.8363940198942769E-04  -5.9582242867975410E-04  -6.0826034282142490E-04
  -6.2095849443336547E-04  -6.3392234634307844E-04  -6.4715747657953678E-04
  -6.6066958081716272E-04  -6.7446447487197318E-04  -6.8854809725100703E-04
  -7.0292651175618483E-04  -7.1760591014374375E-04  -7.3259261484045829E-04
  -7.4789308171784095E-04  -7.6351390292556370E-04  -7.7946180978538497E-04
  -7.9574367574683155E-04  -8.1236651940600250E-04  -8.2933750758879573E-04
  -8.4666395849996678E-04  -8.6435334493939866E-04  -8.8241329758702162E-04
  -9.0085160835785578E-04  -9.1967623382865091E-04  -9.3889529873766202E-04
  -9.5851709955911159E-04  -9.7855010815391975E-04  -9.9900297549833979E-04
  -1.0198845354921413E-03  -1.0412038088480318E-03  -1.0629700070640528E-03
  -1.0851925364806904E-03  -1.1078810024245272E-03  -1.1310452134402390E-03
  -1.1546951856128303E-03  -1.1788411469820178E-03  -1.2034935420506948E-03
  -1.2286630363894967E-03  -1.2543605213394756E-03  -1.2805971188149668E-03
  -1.3073841862087708E-03  -1.3347333214017926E-03  -1.3626563678793627E-03
  -1.3911654199564804E-03  -1.4202728281142623E-03  -1.4499912044499694E-03
  -1.4803334282429577E-03  -1.5113126516390389E-03  -1.5429423054556970E-03
  -1.5752361051107181E-03  -1.6082080566768371E-03  -1.6418724630649863E-03
  -1.6762439303389168E-03  -1.7113373741638770E-03  -1.7471680263921722E-03
  -1.7837514417884850E-03  -1.8211035048978131E-03  -1.8592404370590793E-03
  -1.8981788035673547E-03  -1.9379355209878839E-03  -1.9785278646249366E-03
  -2.0199734761488443E-03  -2.0622903713843795E-03  -2.1054969482638759E-03
  -2.1496119949485039E-03  -2.1946546981210864E-03  -2.2406446514541237E-03
  -2.2876018642565034E-03  -2.3355467703026619E-03  -2.3845002368478980E-03
  -2.4344835738336302E-03  -2.4855185432865485E-03  -2.5376273689155849E-03
  -2.5908327459106795E-03  -2.6451578509476023E-03  -2.7006263524028090E-03
  -2.7572624207827965E-03  -2.8150907393721643E-03  -2.8741365151048236E-03
  -2.9344254896629552E-03  -2.9959839508080983E-03  -3.0588387439492598E-03
  -3.1230172839526462E-03  -3.1885475671978741E-03  -3.2554581838856672E-03
  -3.3237783306018739E-03  -3.3935378231430917E-03  -3.4647671096089397E-03
  -3.5374972837663192E-03  -3.6117600986910340E-03  -3.6875879806921204E-03
  -3.7650140435245925E-03  -3.8440721028961443E-03  -3.9247966912734997E-03
  -4.0072230729944125E-03  -4.0913872596910032E-03  -4.1773260260306849E-03
  -4.2650769257806358E-03  -4.3546783082021121E-03  -4.4461693347809224E-03
  -4.5395899963003939E-03  -4.6349811302634648E-03  -4.7323844386704585E-03
  -4.8318425061592112E-03  -4.9333988185145368E-03  -5.0370977815536464E-03
  -5.1429847403949213E-03  -5.2511059991168646E-03  -5.3615088408146012E-03
  -5.4742415480612460E-03  -5.5893534237814960E-03  -5.7068948125450812E-03
  -5.8269171222876713E-03  -5.9494728464669208E-03  -6.0746155866616336E-03
  -6.2024000756217964E-03  -6.3328822007777206E-03  -6.4661190282163271E-03
  -6.6021688271327714E-03  -6.7410910947659245E-03  -6.8829465818259781E-03
  -7.0277973184227453E-03  -7.1757066405033947E-03  -7.3267392168081891E-03
  -7.4809610763531898E-03  -7.6384396364487161E-03  -7.7992437312625609E-03
  -7.9634436409372102E-03  -8.1311111212699697E-03  -8.3023194339654580E-03
  -8.4771433774697719E-03  -8.6556593183954381E-03  -8.8379452235471476E-03
  -9.0240806925572861E-03  -9.2141469911412310E-03  -9.4082270849819676E-03
  -9.6064056742535455E-03  -9.8087692287936838E-03  -1.0015406023934640E-02
  -1.0226406177002892E-02  -1.0441861684497143E-02  -1.0661866459954539E-02
  -1.0886516372515554E-02  -1.1115909286196820E-02  -1.1350145099882525E-02
  -1.1589325788044183E-02  -1.1833555442198411E-02  -1.2082940313113431E-02
  -1.2337588853773661E-02  -1.2597611763112557E-02  -1.2863122030523942E-02
  -1.3134234981160840E-02  -1.3411068322032741E-02  -1.3693742188910183E-02
  -1.3982379194046636E-02  -1.4277104474727574E-02  -1.4578045742655452E-02
  -1.4885333334180798E-02  -1.5199100261388099E-02  -1.5519482264045830E-02
  -1.5846617862429593E-02  -1.6180648411026805E-02  -1.6521718153131987E-02
  -1.6869974276340741E-02  -1.7225566968950525E-02  -1.7588649477276504E-02
  -1.7959378163889393E-02  -1.8337912566783614E-02  -1.8724415459482072E-02
  -1.9119052912084499E-02  -1.9521994353266212E-02  -1.9933412633232228E-02
  -2.0353484087633659E-02  -2.0782388602450717E-02  -2.1220309679847182E-02
  -2.1667434505001304E-02  -2.2123954013915485E-02  -2.2590062962209789E-02
  -2.3065959994900340E-02  -2.3551847717165602E-02  -2.4047932766101981E-02
  -2.4554425883468695E-02  -2.5071541989423039E-02  -2.5599500257244650E-02
  -2.6138524189047403E-02  -2.6688841692477192E-02  -2.7250685158391390E-02
  -2.7824291539517133E-02  -2.8409902430082460E-02  -2.9007764146414795E-02
  -2.9618127808499803E-02  -3.0241249422491474E-02  -3.0877389964165745E-02
  -3.1526815463305734E-02  -3.2189797089007301E-02  -3.2866611235892310E-02
  -3.3557539611213744E-02  -3.4262869322838500E-02  -3.4982892968088986E-02
  -3.5717908723425375E-02  -3.6468220434947539E-02  -3.7234137709694144E-02
  -3.8015976007715092E-02  -3.8814056734891481E-02  -3.9628707336474167E-02
  -4.0460261391312875E-02  -4.1309058706741265E-02  -4.2175445414086223E-02
  -4.3059774064763585E-02  -4.3962403726921277E-02  -4.4883700082589829E-02
  -4.5824035525294814E-02  -4.6783789258086225E-02  -4.7763347391934809E-02
  -4.8763103044443132E-02  -4.9783456438818048E-02  -5.0824815003042971E-02
  -5.1887593469193243E-02  -5.2972213972826573E-02  -5.4079106152382338E-02
  -5.5208707248518049E-02  -5.6361462203307219E-02  -5.7537823759220653E-02
  -5.8738252557808582E-02  -5.9963217237994915E-02  -6.1213194533895801E-02
  -6.2488669372063634E-02  -6.3790134968059645E-02  -6.5118092922249321E-02
  -6.6473053314711150E-02  -6.7855534799146189E-02  -6.9266064695666818E-02
  -7.0705179082343222E-02  -7.2173422885375510E-02  -7.3671349967756983E-02
  -7.5199523216287964E-02  -7.6758514626791785E-02  -7.8348905387381110E-02
  -7.9971285959614849E-02  -8.1626256157379298E-02  -8.3314425223322136E-02
  -8.5036411902658274E-02  -8.6792844514162582E-02  -8.8584361018156005E-02
  -9.0411609081282235E-02  -9.2275246137869249E-02  -9.4175939447655663E-02
  -9.6114366149660471E-02  -9.8091213311962147E-02  -1.0010717797714469E-01
  -1.0216296720316345E-01  -1.0425929809936871E-01  -1.0639689785742149E-01
  -1.0857650377682321E-01  -1.1079886328477274E-01  -1.1306473395005356E-01
  -1.1537488349064499E-01  -1.1773008977474061E-01  -1.2013114081484637E-01
  -1.2257883475462007E-01  -1.2507397984810462E-01  -1.2761739443099299E-01
  -1.3020990688355477E-01  -1.3285235558484199E-01  -1.3554558885777779E-01
  -1.3829046490472371E-01  -1.4108785173310295E-01  -1.4393862707065186E-01
  -1.4684367826985489E-01  -1.4980390220110382E-01  -1.5282020513411598E-01
  -1.5589350260712229E-01  -1.5902471928333622E-01  -1.6221478879418647E-01
  -1.6546465356879586E-01  -1.6877526464916415E-01  -1.7214758149050569E-01
  -1.7558257174617639E-01  -1.7908121103660876E-01  -1.8264448270166223E-01
  -1.8627337753577763E-01  -1.8996889350531476E-01  -1.9373203544743292E-01
  -1.9756381474986442E-01  -2.0146524901091065E-01  -2.0543736167898061E-01
  -2.0948118167097396E-01  -2.1359774296879708E-01  -2.1778808419328841E-01
  -2.2205324815480759E-01  -2.2639428137973966E-01  -2.3081223361213862E-01
  -2.3530815728973289E-01  -2.3988310699348989E-01  -2.4453813886993547E-01
  -2.4927431002539624E-01  -2.5409267789133422E-01  -2.5899429955992015E-01
  -2.6398023108898522E-01  -2.6905152677547639E-01  -2.7420923839652922E-01
  -2.7945441441726315E-01  -2.8478809916439290E-01  -2.9021133196473964E-01
  -2.9572514624771717E-01  -3.0133056861086188E-01  -3.0702861784746233E-01
  -3.1282030393534632E-01  -3.1870662698587204E-01  -3.2468857615216784E-01
  -3.3076712849565826E-01  -3.3694324780991730E-01  -3.4321788340088777E-01
  -3.4959196882250093E-01  -3.5606642056674009E-01  -3.6264213670718881E-01
  -3.6931999549511391E-01  -3.7610085390713766E-01  -3.8298554614356484E-01
  -3.8997488207643594E-01  -3.9706964564639458E-01  -4.0427059320747027E-01
  -4.1157845181889446E-01  -4.1899391748308867E-01  -4.2651765332897851E-01
  -4.3415028773982284E-01  -4.4189241242475852E-01  -4.4974458043331283E-01
  -4.5770730411213889E-01  -4.6578105300329853E-01  -4.7396625168342449E-01
  -4.8226327754315484E-01  -4.9067245850628166E-01  -4.9919407068808053E-01
  -5.0782833599237454E-01  -5.1657541964691289E-01  -5.2543542767672424E-01
  -5.3440840431516368E-01  -5.4349432935244157E-01  -5.5269311542150101E-01
  -5.6200460522117457E-01  -5.7142856867666170E-01  -5.8096470003742728E-01
  -5.9061261491273953E-01  -6.0037184724514459E-01  -6.1024184622229838E-01
  -6.2022197312766469E-01  -6.3031149813073362E-01  -6.4050959701749699E-01
  -6.5081534786208761E-01  -6.6122772764058979E-01  -6.7174560878817746E-01
  -6.8236775570089936E-01  -6.9309282118355198E-01  -7.0391934284527435E-01
  -7.1484573944463203E-01  -7.2587030718615209E-01  -7.3699121597045036E-01
  -7.4820650560025137E-01  -7.5951408194483261E-01  -7.7091171306558959E-01
  -7.8239702530563615E-01  -7.9396749934658351E-01  -8.0562046623581429E-01
  -8.1735310338784928E-01  -8.2916243056358585E-01  -8.4104530583144088E-01
  -8.5299842151469119E-01  -8.6501830012951342E-01  -8.7710129031850426E-01
  -8.8924356278472561E-01  -9.0144110623153706E-01  -9.1368972331381637E-01
  -9.2598502660636373E-01  -9.3832243459563502E-01  -9.5069716770118695E-01
  -9.6310424433350927E-01  -9.7553847699528395E-01  -9.8799446843329553E-01
  -1.0004666078486577E+00  -1.0129490671733024E+00  -1.0254357974209560E+00
  -1.0379205251213228E+00  -1.0503967488464117E+00  -1.0628577358384206E+00
  -1.0752965187490324E+00  -1.0877058925002403E+00  -1.1000784112774744E+00
  -1.1124063856660882E+00  -1.1246818799428182E+00  -1.1368967095343632E+00
  -1.1490424386555949E+00  -1.1611103781405951E+00  -1.1730915834800946E+00
  -1.1849768530794438E+00  -1.1967567267517876E+00  -1.2084214844615144E+00
  -1.2199611453335777E+00  -1.2313654669447127E+00  -1.2426239449129184E+00
  -1.2537258128020303E+00  -1.2646600423584295E+00  -1.2754153440972957E+00
  -1.2859801682559893E+00  -1.2963427061323876E+00  -1.3064908918261122E+00
  -1.3164124044007048E+00  -1.3260946704848733E+00  -1.3355248673309488E+00
  -1.3446899263486378E+00  -1.3535765371321236E+00  -1.3621711519983817E+00
  -1.3704599910544568E+00  -1.3784290478111407E+00  -1.3860640953602557E+00
  -1.3933506931323831E+00  -1.4002741942514618E+00  -1.4068197535023181E+00
  -1.4129723359266224E+00  -1.4187167260623772E+00  -1.4240375378414818E+00
  -1.4289192251593614E+00  -1.4333460931302067E+00  -1.4373023100406772E+00
  -1.4407719200144524E+00  -1.4437388563993307E+00  -1.4461869558879135E+00
  -1.4480999733822175E+00  -1.4494615976117298E+00  -1.4502554675135648E+00
  -1.4504651893824294E+00  -1.4500743547970127E+00  -1.4490665593283292E+00
  -1.4474254220342269E+00  -1.4451346057429952E+00  -1.4421778381275210E+00
  -1.4385389335699355E+00  -1.4342018158150522E+00  -1.4291505414091772E+00
  -1.4233693239190770E+00  -1.4168425589239286E+00  -1.4095548497711474E+00
  -1.4014910340848203E+00  -1.3926362110133130E+00  -1.3829757692003244E+00
  -1.3724954154612503E+00  -1.3611812041442701E+00  -1.3490195671529388E+00
  -1.3359973446044167E+00  -1.3221018160947013E+00  -1.3073207325393290E+00
  -1.2916423485550801E+00  -1.2750554553451896E+00  -1.2575494140474208E+00
  -1.2391141895011839E+00  -1.2197403843865915E+00  -1.1994192736850602E+00
  -1.1781428394075824E+00  -1.1559038055335074E+00  -1.1326956730990305E+00
  -1.1085127553712073E+00  -1.0833502130397619E+00  -1.0572040893553203E+00
  -1.0300713451394188E+00  -1.0019498935878557E+00  -9.7283863478567778E-01
  -9.4273748984867412E-01  -9.1164743460274222E-01  -8.7957053270951535E-01
  -8.4650996814323953E-01  -8.1247007692096773E-01  -7.7745637798541778E-01
  -7.4147560313683480E-01  -7.0453572590806024E-01  -6.6664598927452778E-01
  -6.2781693208879208E-01  -5.8806041412785637E-01  -5.4738963963952236E-01
  -5.0581917927338749E-01  -4.6336499028111267E-01  -4.2004443487000287E-01
  -3.7587629659453603E-01  -3.3088079467030751E-01  -2.8507959609630218E-01
  -2.3849582547276835E-01  -1.9115407240381327E-01  -1.4308039637685360E-01
  -9.4302329013934483E-02  -4.4848873593888290E-02   5.2494982510115076E-03
   5.5960852755650124E-02   1.0725180324554118E-01   1.5908752244305452E-01
   2.1143175792969865E-01   2.6424685083090477E-01   3.1749375778326466E-01
   3.7113207623719030E-01   4.2512007314182115E-01   4.7941471705305777E-01
   5.3397171370050689E-01   5.8874554504496845E-01   6.4368951185484180E-01
   6.9875577982776993E-01   7.5389542928285458E-01   8.0905850844909355E-01
   8.6419409037609562E-01   9.1925033349486207E-01   9.7417454585675400E-01
   1.0289132530777272E+00   1.0834122700111442E+00   1.1376167761624671E+00
   1.1914713948434748E+00   1.2449202760389255E+00   1.2979071829252653E+00
   1.3503755819410461E+00   1.4022687362630784E+00   1.4535298024970402E+00
   1.5041019303503365E+00   1.5539283650216520E+00   1.6029525520211707E+00
   1.6511182441251946E+00   1.6983696101700998E+00   1.7446513453983412E+00
   1.7899087830794080E+00   1.8340880071388164E+00   1.8771359655333446E+00
   1.9190005841109108E+00   1.9596308806874612E+00   1.9989770790616448E+00
   2.0369907226730577E+00   2.0736247875927343E+00   2.1088337945172988E+00
   2.1425739194228068E+00   2.1748031025215577E+00   2.2054811551561313E+00
   2.2345698642599960E+00   2.2620330940128772E+00   2.2878368843216879E+00
   2.3119495457632304E+00   2.3343417506329618E+00   2.3549866197536549E+00
   2.3738598047089714E+00   2.3909395651785914E+00   2.4062068410639412E+00
   2.4196453191063210E+00   2.4312414937119979E+00   2.4409847217121818E+00
   2.4488672707990888E+00   2.4548843613931033E+00   2.4590342017102569E+00
   2.4613180158137542E+00   2.4617400644486409E+00   2.4603076584744636E+00
   2.4570311647274297E+00   2.4519240041610284E+00   2.4450026421323798E+00
   2.4362865707209864E+00   2.4257982829869649E+00   2.4135632390975905E+00
   2.3996098242737287E+00   2.3839692985321865E+00   2.3666757382255139E+00
   2.3477659694077126E+00   2.3272794930826888E+00   2.3052584024211975E+00
   2.2817472920622590E+00   2.2567931596449862E+00   2.2304452997465445E+00
   2.2027551904308935E+00   2.1737763726396659E+00   2.1435643226812413E+00
   2.1121763180958033E+00   2.0796712971929576E+00   2.0461097125761678E+00
   2.0115533789851634E+00   1.9760653158085046E+00   1.9397095846466743E+00
   1.9025511223476952E+00   1.8646555699988832E+00   1.8260890984451363E+00
   1.7869182310230274E+00   1.7472096643534247E+00   1.7070300882183174E+00
   1.6664460058075687E+00   1.6255235557602392E+00   1.5843283378105539E+00
   1.5429252439313801E+00   1.5013782970018936E+00   1.4597504989089838E+00
   1.4181036895932808E+00   1.3764984178128479E+00   1.3349938233663052E+00
   1.2936475293775185E+00   1.2525155422992882E+00   1.2116521568616716E+00
   1.1711098634566206E+00   1.1309392563523955E+00   1.0911889423783163E+00
   1.0519054509232189E+00   1.0131331469357756E+00   9.7491414897320083E-01
   9.3728825426656948E-01   9.0029287241408529E-01   8.6396296884734558E-01
   8.2833101876436710E-01   7.9342697185300703E-01   7.5927822785329968E-01
   7.2590962281739757E-01   6.9334342580066766E-01   6.6159934563645251E-01
   6.3069454739750175E-01   6.0064367811736796E-01   5.7145890132929811E-01
   5.4314993997364125E-01   5.1572412722191185E-01   4.8918646476477196E-01
   4.6353968810817708E-01   4.3878433841559900E-01   4.1491884042444771E-01
   3.9193958595060280E-01   3.6984102247868211E-01   3.4861574631774755E-01
   3.2825459978449462E-01   3.0874677186026395E-01   2.9007990175516984E-01
   2.7224018480381007E-01   2.5521248011260089E-01   2.3898041937933831E-01
   2.2352651631121656E-01   2.0883227607799712E-01   1.9487830425227845E-01
   1.8164441470837808E-01   1.6910973597478290E-01   1.5725281556218398E-01
   1.4605172181902792E-01   1.3548414289910840E-01   1.2552748246027021E-01
   1.1615895174951212E-01   1.0735565776715411E-01   9.9094687240785448E-02
   9.1353186178232751E-02   8.4108434807133786E-02   7.7337917746780463E-02
   7.1019389295265897E-02   6.5130933751262721E-02   5.9651020724989075E-02
   5.4558555426472859E-02   4.9832923951244334E-02   4.5454033613718761E-02
   4.1402348406614511E-02   3.7658919690830461E-02   3.4205412243986599E-02
   3.1024125817392768E-02   2.8098012370504990E-02   2.5410689168803714E-02
   2.2946447945701217E-02   2.0690260341375392E-02   1.8627779841484240E-02
   1.6745340446604588E-02   1.5029952308917204E-02   1.3469294576349079E-02
   1.2051705686066673E-02   1.0766171349031212E-02   9.6023104654199311E-03
   8.5503592071366850E-03   7.6011534985868040E-03   6.7461101204658062E-03
   5.9772066536610755E-03   5.2869604716644231E-03   4.6684069802523775E-03
   4.1150772927912816E-03   3.6209755184942053E-03   3.1805558294279212E-03
   2.7886994601845692E-03   2.4406917819910596E-03   2.1321995807491944E-03
   1.8592486561794981E-03   1.6182018469649176E-03   1.4057375746581390E-03
   1.2188289872043213E-03   1.0547237713301077E-03   9.1092469183664258E-04
   7.8517090508982402E-04   6.7542008379288705E-04   5.7983138051836546E-04
   4.9674924851887225E-04   4.2468813006326018E-04   3.6231801499274889E-04
   3.0845086535886593E-04   2.6202789590455954E-04   2.2210769476733303E-04
   1.8785516410136196E-04   1.5853125631106255E-04   1.3348347823006435E-04
   1.1213713283260538E-04   9.3987265891890841E-05   7.8591283361880435E-05
   6.5562204110810102E-05   5.4562511941254658E-05   4.5298570540181599E-05
   3.7515565078537960E-05   3.0992934577073747E-05   2.5540259833580774E-05
   2.0993572626475402E-05   1.7212053032400480E-05   1.4075082985370237E-05
   1.1479625627657007E-05   9.3379015269936813E-06   7.5753344304981620E-06
   6.1287408687670509E-06   4.9447395875012927E-06   3.9783584494939729E-06
   3.1918180977415117E-06   2.5534732850126570E-06   2.0368943430453741E-06
   1.6200727746325179E-06   1.2847363953595097E-06   1.0157608218887482E-06
   8.0066539564338924E-07   6.2918284106229775E-07   4.9289308505562464E-07
   3.8491270808292627E-07   2.9963245839572285E-07   2.3249614124323348E-07
   1.7981499670589998E-07   1.3861240656113205E-07   1.0649442591515075E-07
   8.1542223346018694E-08   6.2223038338574070E-08   4.7316731351637870E-08
   3.5855414453273653E-08   2.7074013651482801E-08   2.0369932240305647E-08
   1.5270261926112675E-08   1.1405229342143079E-08   8.4867736334495718E-09
   6.2913297420682105E-09   4.6460452125185797E-09   3.4177888760715778E-09
   2.5044204973569487E-09   1.8278839550673952E-09   1.3287650982831875E-09
   9.6202114685823207E-10   6.9364323847393899E-10   4.9805908257221032E-10
   3.5612010367280805E-10   2.5354818124566760E-10   1.7974220197047455E-10
   1.2686506192551143E-10   8.9148286732441733E-11   6.2364754211268646E-11
   4.3430679758675928E-11   3.0106541640801821E-11   2.0773384519864883E-11
   1.4266281267413504E-11   9.7509311533859328E-12   6.6326562786979174E-12
   4.4896132066033943E-12   3.0240148811313738E-12   2.0266814899463500E-12
   1.3514063077228610E-12   8.9651233847975355E-13   5.9165019055529430E-13
   3.8839638639612487E-13   2.5155353562376595E-13   1.1481312682331537E-13
   3.9248902473765757E-15  -0.0000000000000000E+00  -0.0000000000000000E+00
  -0.0000000000000000E+00  -0.0000000000000000E+00  -0.0000000000000000E+00
  -0.0000000000000000E+00  -0.0000000000000000E+00  -0.0000000000000000E+00
  -0.0000000000000000E+00  -0.0000000000000000E+00  -0.0000000000000000E+00
  -0.0000000000000000E+00  -0.0000000000000000E+00  -0.0000000000000000E+00
  -0.0000000000000000E+00  -0.0000000000000000E+00  -0.0000000000000000E+00
  -0.0000000000000000E+00  -0.0000000000000000E+00  -0.0000000000000000E+00
  -0.0000000000000000E+00  -0.0000000000000000E+00  -0.0000000000000000E+00
  -0.0000000000000000E+00  -0.0000000000000000E+00  -0.0000000000000000E+00
  -0.0000000000000000E+00  -0.0000000000000000E+00  -0.0000000000000000E+00
  -0.0000000000000000E+00  -0.0000000000000000E+00  -0.0000000000000000E+00
  -0.0000000000000000E+00  -0.0000000000000000E+00  -0.0000000000000000E+00
  -0.0000000000000000E+00  -0.0000000000000000E+00  -0.0000000000000000E+00
  -0.0000000000000000E+00  -0.0000000000000000E+00  -0.0000000000000000E+00
  -0.0000000000000000E+00  -0.0000000000000000E+00  -0.0000000000000000E+00
  -0.0000000000000000E+00  -0.0000000000000000E+00  -0.0000000000000000E+00
  -0.0000000000000000E+00  -0.0000000000000000E+00  -0.0000000000000000E+00
  -0.0000000000000000E+00  -0.0000000000000000E+00  -0.0000000000000000E+00
  -0.0000000000000000E+00  -0.0000000000000000E+00  -0.0000000000000000E+00
  -0.0000000000000000E+00  -0.0000000000000000E+00  -0.0000000000000000E+00
  -0.0000000000000000E+00  -0.0000000000000000E+00  -0.0000000000000000E+00
  -0.0000000000000000E+00  -0.0000000000000000E+00  -0.0000000000000000E+00
  -0.0000000000000000E+00  -0.0000000000000000E+00  -0.0000000000000000E+00
  -0.0000000000000000E+00  -0.0000000000000000E+00  -0.0000000000000000E+00
  -0.0000000000000000E+00  -0.0000000000000000E+00  -0.0000000000000000E+00
  -0.0000000000000000E+00  -0.0000000000000000E+00  -0.0000000000000000E+00
  -0.0000000000000000E+00  -0.0000000000000000E+00  -0.0000000000000000E+00
  -0.0000000000000000E+00  -0.0000000000000000E+00  -0.0000000000000000E+00
  -0.0000000000000000E+00  -0.0000000000000000E+00  -0.0000000000000000E+00
  -0.0000000000000000E+00  -0.0000000000000000E+00  -0.0000000000000000E+00
  -0.0000000000000000E+00  -0.0000000000000000E+00  -0.0000000000000000E+00
  -0.0000000000000000E+00  -0.0000000000000000E+00  -0.0000000000000000E+00
  -0.0000000000000000E+00  -0.0000000000000000E+00  -0.0000000000000000E+00
  -0.0000000000000000E+00  -0.0000000000000000E+00  -0.0000000000000000E+00
  -0.0000000000000000E+00  -0.0000000000000000E+00  -0.0000000000000000E+00
  -0.0000000000000000E+00  -0.0000000000000000E+00  -0.0000000000000000E+00
  -0.0000000000000000E+00  -0.0000000000000000E+00  -0.0000000000000000E+00
  -0.0000000000000000E+00  -0.0000000000000000E+00  -0.0000000000000000E+00
  -0.0000000000000000E+00  -0.0000000000000000E+00  -0.0000000000000000E+00
  -0.0000000000000000E+00  -0.0000000000000000E+00  -0.0000000000000000E+00
  -0.0000000000000000E+00  -0.0000000000000000E+00  -0.0000000000000000E+00
  -0.0000000000000000E+00  -0.0000000000000000E+00  -0.0000000000000000E+00
  -0.0000000000000000E+00  -0.0000000000000000E+00  -0.0000000000000000E+00
  -0.0000000000000000E+00  -0.0000000000000000E+00  -0.0000000000000000E+00
     </PP_GIPAW_CORE_ORBITAL.5>
     <PP_GIPAW_CORE_ORBITAL.6 size="1164" index="6" label="3D" n="3" l="2">
   0.0000000000000000E+00   8.6011538688513882E-11   8.8787657295393263E-11
   9.1656725639901648E-11   9.4621901733958092E-11   9.7686333311001865E-11
   1.0085323673086265E-10   1.0412593507867266E-10   1.0750786249072640E-10
   1.1100256776133906E-10   1.1461371807014099E-10   1.1834510283380319E-10
   1.2220063768624434E-10   1.2618436859150717E-10   1.3030047609363206E-10
   1.3455327970800131E-10   1.3894724245877277E-10   1.4348697556718206E-10
   1.4817724329564352E-10   1.5302296795275109E-10   1.5802923506444823E-10
   1.6320129871680396E-10   1.6854458707603078E-10   1.7406470809154208E-10
   1.7976745538806426E-10   1.8565881435300034E-10   1.9174496842545825E-10
   1.9803230559356304E-10   2.0452742510689699E-10   2.1123714441113647E-10
   2.1816850631218508E-10   2.2532878637735341E-10   2.3272550058137755E-10
   2.4036641320533051E-10   2.4825954499674755E-10   2.5641318159956144E-10
   2.6483588226272846E-10   2.7353648883672168E-10   2.8252413506736702E-10
   2.9180825619682010E-10   3.0139859888179598E-10   3.1130523143950797E-10
   3.2153855443211071E-10   3.3210931160080705E-10   3.4302860116113759E-10
   3.5430788747136734E-10   3.6595901308626280E-10   3.7799421120897130E-10
   3.9042611855413342E-10   4.0326778863578269E-10   4.1653270549405333E-10
   4.3023479787517039E-10   4.4438845387966906E-10   4.5900853609430638E-10
   4.7411039722361176E-10   4.8970989623757904E-10   5.0582341505252352E-10
   5.2246787576271419E-10   5.3966075844095195E-10   5.5742011952688365E-10
   5.7576461082245756E-10   5.9471349911456549E-10   6.1428668644557761E-10
   6.3450473105317743E-10   6.5538886900159805E-10   6.7696103652708549E-10
   6.9924389312120341E-10   7.2226084537633087E-10   7.4603607161855445E-10
   7.7059454735395285E-10   7.9596207155516183E-10   8.2216529381598059E-10
   8.4923174240270974E-10   8.7718985323185256E-10   9.0606899980480104E-10
   9.3589952413113641E-10   9.6671276867322856E-10   9.9854110934588928E-10
   1.0314179896059701E-09   1.0653779556679324E-09   1.1004566928826325E-09
   1.1366910633177713E-09   1.1741191445797574E-09   1.2127802699180508E-09
   1.2527150696543807E-09   1.2939655139806746E-09   1.3365749571709861E-09
   1.3805881832541784E-09   1.4260514531956974E-09   1.4730125536383776E-09
   1.5215208472538613E-09   1.5716273247579112E-09   1.6233846586447172E-09
   1.6768472586970535E-09   1.7320713293310885E-09   1.7891149288365732E-09
   1.8480380305751408E-09   1.9089025862015524E-09   1.9717725909748798E-09
   2.0367141512287906E-09   2.1037955540724702E-09   2.1730873393960334E-09
   2.2446623742567413E-09   2.3185959297249080E-09   2.3949657602709370E-09
   2.4738521857776972E-09   2.5553381762652106E-09   2.6395094394174966E-09
   2.7264545110044511E-09   2.8162648482946897E-09   2.9090349265584701E-09
   3.0048623387631044E-09   3.1038478985667156E-09   3.2060957467196434E-09
   3.3117134609864729E-09   3.4208121697054578E-09   3.5335066691058756E-09
   3.6499155445079922E-09   3.7701612955343936E-09   3.8943704654657097E-09
   4.0226737748781899E-09   4.1552062597052516E-09   4.2921074138696632E-09
   4.4335213366381155E-09   4.5795968848548210E-09   4.7304878302161153E-09
   4.8863530217532734E-09   5.0473565536965634E-09   5.2136679388989818E-09
   5.3854622880045039E-09   5.5629204945512912E-09   5.7462294262071946E-09
   5.9355821223410070E-09   6.1311779981400713E-09   6.3332230554915068E-09
   6.5419301008519365E-09   6.7575189703377091E-09   6.9802167622757250E-09
   7.2102580774625776E-09   7.4478852673884364E-09   7.6933486906901849E-09
   7.9469069781074773E-09   8.2088273062244204E-09   8.4793856802889592E-09
   8.7588672264117346E-09   9.0475664934566624E-09   9.3457877649451179E-09
   9.6538453813072669E-09   9.9720640728245349E-09   1.0300779303618966E-08
   1.0640337627057200E-08   1.0991097052948751E-08   1.1353427426931354E-08
   1.1727710822448960E-08   1.2114341945741708E-08   1.2513728554280960E-08
   1.2926291889097414E-08   1.3352467121464741E-08   1.3792703814417118E-08
   1.4247466399594794E-08   1.4717234669928217E-08   1.5202504288688798E-08
   1.5703787315451575E-08   1.6221612749533516E-08   1.6756527091490057E-08
   1.7309094923271904E-08   1.7879899507664369E-08   1.8469543407652353E-08
   1.9078649126375429E-08   1.9707859768359943E-08   2.0357839722738328E-08
   2.1029275369188708E-08   2.1722875807353641E-08   2.2439373610521181E-08
   2.3179525604378701E-08   2.3944113671676208E-08   2.4733945583664494E-08
   2.5549855859202492E-08   2.6392706652457779E-08   2.7263388670155628E-08
   2.8162822119364057E-08   2.9091957686835058E-08   3.0051777550957049E-08
   3.1043296427408296E-08   3.2067562649638608E-08   3.3125659285343637E-08
   3.4218705290135471E-08   3.5347856699654198E-08   3.6514307861406091E-08
   3.7719292707657847E-08   3.8964086070761753E-08   4.0250005042330648E-08
   4.1578410377731830E-08   4.2950707947417338E-08   4.4368350236659228E-08
   4.5832837895310578E-08   4.7345721339269570E-08   4.8908602405378206E-08
   5.0523136061547087E-08   5.2191032173957649E-08   5.3914057333255230E-08
   5.5694036741711925E-08   5.7532856163403776E-08   5.9432463939516310E-08
   6.1394873070965073E-08   6.3422163370588766E-08   6.5516483687251743E-08
   6.7680054204270180E-08   6.9915168814657139E-08   7.2224197575768911E-08
   7.4609589246018452E-08   7.7073873906414730E-08   7.9619665669779428E-08
   8.2249665480588774E-08   8.4966664008487649E-08   8.7773544638627640E-08
   9.0673286562085398E-08   9.3668967969730344E-08   9.6763769353023720E-08
   9.9960976915348163E-08   1.0326398609759095E-07   1.0667630522183011E-07
   1.1020155925710044E-07   1.1384349371135505E-07   1.1760597865387820E-07
   1.2149301287254360E-07   1.2550872817046925E-07   1.2965739380677123E-07
   1.3394342108627723E-07   1.3837136810322936E-07   1.4294594464417176E-07
   1.4767201725540493E-07   1.5255461448055698E-07   1.5759893227402760E-07
   1.6281033959624399E-07   1.6819438419687597E-07   1.7375679859236608E-07
   1.7950350624434735E-07   1.8544062794574585E-07   1.9157448842159293E-07
   1.9791162315182141E-07   2.0445878542355462E-07   2.1122295362066715E-07
   2.1821133875865404E-07   2.2543139227311706E-07   2.3289081407047182E-07
   2.4059756084976125E-07   2.4855985470477074E-07   2.5678619201595907E-07
   2.6528535264203026E-07   2.7406640942132781E-07   2.8313873799356007E-07
   2.9251202695274447E-07   3.0219628834261829E-07   3.1220186850615047E-07
   3.2253945930119843E-07   3.3322010969474811E-07   3.4425523774861790E-07
   3.5565664300994829E-07   3.6743651932023572E-07   3.7960746805717056E-07
   3.9218251182401108E-07   4.0517510860172360E-07   4.1859916637967018E-07
   4.3246905828113455E-07   4.4679963820055529E-07   4.6160625696992100E-07
   4.7690477907235336E-07   4.9271159992156369E-07   5.0904366372647486E-07
   5.2591848196098485E-07   5.4335415245953706E-07   5.6136937915985029E-07
   5.7998349251493335E-07   5.9921647059723673E-07   6.1908896091859898E-07
   6.3962230299046113E-07   6.6083855164965359E-07   6.8276050117595248E-07
   7.0541171022847896E-07   7.2881652762897314E-07   7.5300011902094113E-07
   7.7798849443462868E-07   8.0380853678890328E-07   8.3048803136208533E-07
   8.5805569626496683E-07   8.8654121395036748E-07   9.1597526379473866E-07
   9.4638955578863539E-07   9.7781686537403563E-07   1.0102910694679097E-06
   1.0438471837127329E-06   1.0785214009960568E-06   1.1143511312827569E-06
   1.1513750428050114E-06   1.1896331046566801E-06   1.2291666308403639E-06
   1.2700183258170584E-06   1.3122323316101049E-06   1.3558542765168732E-06
   1.4009313254835142E-06   1.4475122322000188E-06   1.4956473929747688E-06
   1.5453889024499079E-06   1.5967906112208933E-06   1.6499081854258333E-06
   1.7047991683725364E-06   1.7615230442734218E-06   1.8201413041610568E-06
   1.8807175140594749E-06   1.9433173854890679E-06   2.0080088483856558E-06
   2.0748621265169089E-06   2.1439498154825080E-06   2.2153469633870818E-06
   2.2891311542783697E-06   2.3653825944460704E-06   2.4441842016801857E-06
   2.5256216975912483E-06   2.6097837030981998E-06   2.6967618371934400E-06
   2.7866508190984726E-06   2.8795485739273055E-06   2.9755563419791297E-06
   3.0747787917857112E-06   3.1773241370436602E-06   3.2833042575658003E-06
   3.3928348243911378E-06   3.5060354291972241E-06   3.6230297181640579E-06
   3.7439455304437962E-06   3.8689150413957501E-06   3.9980749107520701E-06
   4.1315664358848046E-06   4.2695357103514328E-06   4.4121337879018533E-06
   4.5595168521361477E-06   4.7118463920093750E-06   4.8692893833861990E-06
   5.0320184768550399E-06   5.2002121920195690E-06   5.3740551184917060E-06
   5.5537381238193936E-06   5.7394585685895505E-06   5.9314205289554815E-06
   6.1298350268468084E-06   6.3349202681282877E-06   6.5469018889842506E-06
   6.7660132108140490E-06   6.9924955039342518E-06   7.2265982603940309E-06
   7.4685794762196717E-06   7.7187059434168414E-06   7.9772535520690551E-06
   8.2445076028836534E-06   8.5207631305485772E-06   8.8063252382751986E-06
   9.1015094439169171E-06   9.4066420380655342E-06   9.7220604545416593E-06
   1.0048113653710879E-05   1.0385162519070678E-05   1.0733580267570392E-05
   1.1093752874141414E-05   1.1466079510931529E-05   1.1850973001755379E-05
   1.2248860292289233E-05   1.2660182936558350E-05   1.3085397600283139E-05
   1.3524976581669923E-05   1.3979408350253803E-05   1.4449198104419718E-05
   1.4934868348252762E-05   1.5436959488388300E-05   1.5956030451557824E-05
   1.6492659323549632E-05   1.7047444010328465E-05   1.7621002922084164E-05
   1.8213975681006423E-05   1.8827023853609014E-05   1.9460831708457503E-05
   2.0116107000181344E-05   2.0793581780684414E-05   2.1494013238497800E-05
   2.2218184567251300E-05   2.2966905864275549E-05   2.3741015060379208E-05
   2.4541378881883469E-05   2.5368893846032840E-05   2.6224487290939338E-05
   2.7109118441258260E-05   2.8023779510833099E-05   2.8969496843591419E-05
   2.9947332094017345E-05   3.0958383448570690E-05   3.2003786889470797E-05
   3.3084717502312993E-05   3.4202390829031175E-05   3.5358064267780167E-05
   3.6553038521355790E-05   3.7788659095833986E-05   3.9066317851163475E-05
   4.0387454605505392E-05   4.1753558795179668E-05   4.3166171192132945E-05
   4.4626885680917315E-05   4.6137351097229966E-05   4.7699273130136250E-05
   4.9314416290172997E-05   5.0984605945598275E-05   5.2711730429136213E-05
   5.4497743217643058E-05   5.6344665187199371E-05   5.8254586946226324E-05
   6.0229671249303227E-05   6.2272155494458498E-05   6.4384354306802090E-05
   6.6568662211454648E-05   6.8827556398842185E-05   7.1163599585516066E-05
   7.3579442973770019E-05   7.6077829313437865E-05   7.8661596069360060E-05
   8.1333678698137948E-05   8.4097114037900818E-05   8.6955043814948262E-05
   8.9910718271250567E-05   9.2967499916924026E-05   9.6128867411942646E-05
   9.9398419581477553E-05   1.0277987956941029E-04   1.0627709913471517E-04
   1.0989406309555504E-04   1.1363489392610808E-04   1.1750385651129359E-04
   1.2150536306474668E-04   1.2564397821556637E-04   1.2992442426953008E-04
   1.3435158665068075E-04   1.3893051952935706E-04   1.4366645164295698E-04
   1.4856479231592262E-04   1.5363113768563860E-04   1.5887127714117426E-04
   1.6429119998199993E-04   1.6989710230406004E-04   1.7569539412081391E-04
   1.8169270672709813E-04   1.8789590031393060E-04   1.9431207184262704E-04
   2.0094856318686851E-04   2.0781296955164742E-04   2.1491314817828752E-04
   2.2225722734504707E-04   2.2985361567309792E-04   2.3771101174799815E-04
   2.4583841406709405E-04   2.5424513132360374E-04   2.6294079303850149E-04
   2.7193536055164860E-04   2.8123913838397791E-04   2.9086278598293013E-04
   3.0081732986368394E-04   3.1111417615915961E-04   3.2176512359213496E-04
   3.3278237688325719E-04   3.4417856060914358E-04   3.5596673352520622E-04
   3.6816040336828834E-04   3.8077354215466447E-04   3.9382060198941206E-04
   4.0731653140369109E-04   4.2127679223690991E-04   4.3571737708133872E-04
   4.5065482730720553E-04   4.6610625168687050E-04   4.8208934563725823E-04
   4.9862241110023881E-04   5.1572437708130516E-04   5.3341482086744646E-04
   5.5171398994574388E-04   5.7064282464488558E-04   5.9022298152236095E-04
   6.1047685752087970E-04   6.3142761491813187E-04   6.5309920709476406E-04
   6.7551640514616383E-04   6.9870482536432655E-04   7.2269095761690451E-04
   7.4750219465124839E-04   7.7316686235204323E-04   7.9971425098199667E-04
   8.2717464743577228E-04   8.5557936853829014E-04   8.8496079541933420E-04
   9.1535240899725493E-04   9.4678882660554763E-04   9.7930583979686787E-04
   1.0129404533601415E-03   1.0477309255872336E-03   1.0837168098267102E-03
   1.1209389973631987E-03   1.1594397616618403E-03   1.1992628040183905E-03
   1.2404533006565857E-03   1.2830579513154162E-03   1.3271250293701074E-03
   1.3727044335316468E-03   1.4198477411708752E-03   1.4686082633143299E-03
   1.5190411013600831E-03   1.5712032055631782E-03   1.6251534353412631E-03
   1.6809526214524347E-03   1.7386636300984377E-03   1.7983514290075661E-03
   1.8600831555530806E-03   1.9239281869639754E-03   1.9899582126864583E-03
   2.0582473089556857E-03   2.1288720156386631E-03   2.2019114154105354E-03
   2.2774472153278785E-03   2.3555638308639147E-03   2.4363484724719939E-03
   2.5198912347449611E-03   2.6062851882395644E-03   2.6956264740362161E-03
   2.7880144011060396E-03   2.8835515465583743E-03   2.9823438588432952E-03
   3.0845007639852249E-03   3.1901352749247962E-03   3.2993641040478896E-03
   3.4123077789817960E-03   3.5290907617399063E-03   3.6498415712977760E-03
   3.7746929096844429E-03   3.9037817916745426E-03   4.0372496781676251E-03
   4.1752426133426692E-03   4.3179113656767222E-03   4.4654115729178476E-03
   4.6179038911038214E-03   4.7755541477188610E-03   4.9385334990818984E-03
   5.1070185920606952E-03   5.2811917302072560E-03   5.4612410444105156E-03
   5.6473606681635121E-03   5.8397509175424096E-03   6.0386184759958416E-03
   6.2441765840432380E-03   6.4566452339814024E-03   6.6762513696989644E-03
   6.9032290916982795E-03   7.1378198674249211E-03   7.3802727470042781E-03
   7.6308445844851577E-03   7.8898002646896528E-03   8.1574129357681376E-03
   8.4339642475577299E-03   8.7197445958414107E-03   9.0150533726045985E-03
   9.3201992223841592E-03   9.6355003048038453E-03   9.9612845633882032E-03
   1.0297890000745640E-02   1.0645664960208485E-02   1.1004968414016492E-02
   1.1376170258126532E-02   1.1759651613729293E-02   1.2155805135549716E-02
   1.2565035327005014E-02   1.2987758862289967E-02   1.3424404915454958E-02
   1.3875415496537468E-02   1.4341245794803139E-02   1.4822364529146967E-02
   1.5319254305698990E-02   1.5832411982673399E-02   1.6362349042492435E-02
   1.6909591971209694E-02   1.7474682645249800E-02   1.8058178725473030E-02
   1.8660654058564700E-02   1.9282699085739742E-02   1.9924921258743015E-02
   2.0587945463115681E-02   2.1272414448686022E-02   2.1978989267232060E-02
   2.2708349717250088E-02   2.3461194795750127E-02   2.4238243156986215E-02
   2.5040233578012692E-02   2.5867925430944426E-02   2.6722099161780515E-02
   2.7603556775634815E-02   2.8513122328198796E-02   2.9451642423241556E-02
   3.0419986715934322E-02   3.1419048421763400E-02   3.2449744830774938E-02
   3.3513017826872243E-02   3.4609834411860656E-02   3.5741187233912494E-02
   3.6908095120095234E-02   3.8111603612581750E-02   3.9352785508130962E-02
   4.0632741400398652E-02   4.1952600224606187E-02   4.3313519804064400E-02
   4.4716687398013717E-02   4.6163320250211096E-02   4.7654666137652964E-02
   4.9192003918791076E-02   5.0776644080556571E-02   5.2409929283465703E-02
   5.4093234904045544E-02   5.5827969573766116E-02   5.7615575713629387E-02
   5.9457530063513384E-02   6.1355344205324770E-02   6.3310565078966166E-02
   6.5324775490068904E-02   6.7399594608396216E-02   6.9536678455762113E-02
   7.1737720382260187E-02   7.4004451529540216E-02   7.6338641279806135E-02
   7.8742097689158366E-02   8.1216667903832404E-02   8.3764238557827039E-02
   8.6386736150352070E-02   8.9086127401452733E-02   9.1864419584103921E-02
   9.4723660830997342E-02   9.7665940414164584E-02   1.0069338899551925E-01
   1.0380817884630686E-01   1.0701252403339155E-01   1.1030868057021520E-01
   1.1369894653018629E-01   1.1718566212018564E-01   1.2077120971176324E-01
   1.2445801382754465E-01   1.2824854108026912E-01   1.3214530006177097E-01
   1.3615084117917856E-01   1.4026775643546271E-01   1.4449867915141612E-01
   1.4884628362606572E-01   1.5331328473239594E-01   1.5790243744524415E-01
   1.6261653629810260E-01   1.6745841476551490E-01   1.7243094456771554E-01
   1.7753703489404110E-01   1.8277963154166915E-01   1.8816171596614040E-01
   1.9368630424010241E-01   1.9935644591671198E-01   2.0517522279405642E-01
   2.1114574757699692E-01   2.1727116243279684E-01   2.2355463743689202E-01
   2.2999936890519457E-01   2.3660857760928208E-01   2.4338550687087937E-01
   2.5033342053201557E-01   2.5745560079729324E-01   2.6475534594470035E-01
   2.7223596790143784E-01   2.7990078968126475E-01   2.8775314267990426E-01
   2.9579636382508323E-01   3.0403379257785446E-01   3.1246876778186966E-01
   3.2110462435737730E-01   3.2994468983672970E-01   3.3899228073830612E-01
   3.4825069877580916E-01   3.5772322689994418E-01   3.6741312516966873E-01
   3.7732362645016199E-01   3.8745793193489791E-01   3.9781920648927038E-01
   4.0841057381332818E-01   4.1923511142146463E-01   4.3029584543693700E-01
   4.4159574519945644E-01   4.5313771768428701E-01   4.6492460173151939E-01
   4.7695916208464123E-01   4.8924408323770208E-01   5.0178196309085332E-01
   5.1457530641444182E-01   5.2762651812213168E-01   5.4093789635415168E-01
   5.5451162537207110E-01   5.6834976826706296E-01   5.8245425948418361E-01
   5.9682689716556248E-01   6.1146933531616476E-01   6.2638307579621899E-01
   6.4156946014506733E-01   6.5702966124190942E-01   6.7276467480943103E-01
   6.8877531076717669E-01   7.0506218444214486E-01   7.2162570764486822E-01
   7.3846607962009381E-01   7.5558327788187885E-01   7.7297704894386587E-01
   7.9064689895633600E-01   8.0859208426246898E-01   8.2681160188727998E-01
   8.4530417997352048E-01   8.6406826817984639E-01   8.8310202805752236E-01
   9.0240332342289320E-01   9.2196971074389644E-01   9.4179842955981985E-01
   9.6188639295463929E-01   9.8223017810512470E-01   1.0028260169260756E+00
   1.0236697868359321E+00   1.0447570016670360E+00   1.0660828027458547E+00
   1.0876419501692809E+00   1.1094288143042075E+00   1.1314373675383864E+00
   1.1536611763113855E+00   1.1760933934554081E+00   1.1987267508762656E+00
   1.2215535526056875E+00   1.2445656682566779E+00   1.2677545269140706E+00
   1.2911111114931102E+00   1.3146259535989855E+00   1.3382891289206387E+00
   1.3620902531923567E+00   1.3860184787563916E+00   1.4100624917601006E+00
   1.4342105100204572E+00   1.4584502815885214E+00   1.4827690840459009E+00
   1.5071537245641260E+00   1.5315905407572112E+00   1.5560654023561866E+00
   1.5805637137330339E+00   1.6050704172999182E+00   1.6295699978075677E+00
   1.6540464875648597E+00   1.6784834725994706E+00   1.7028640997771720E+00
   1.7271710848954189E+00   1.7513867217645875E+00   1.7754928922886253E+00
   1.7994710775553879E+00   1.8233023699460331E+00   1.8469674862727594E+00
   1.8704467819546577E+00   1.8937202662430543E+00   1.9167676185102027E+00
   1.9395682056186803E+00   1.9621011003934385E+00   1.9843451012238584E+00
   2.0062787528294104E+00   2.0278803682292885E+00   2.0491280519635016E+00
   2.0699997246192372E+00   2.0904731487220074E+00   2.1105259560537886E+00
   2.1301356764594268E+00   2.1492797681960498E+00   2.1679356498660143E+00
   2.1860807339516737E+00   2.2036924619393039E+00   2.2207483409817019E+00
   2.2372259820077418E+00   2.2531031391469103E+00   2.2683577503031782E+00
   2.2829679786905035E+00   2.2969122551340426E+00   2.3101693209483027E+00
   2.3227182712225103E+00   2.3345385983707998E+00   2.3456102358346742E+00
   2.3559136018522264E+00   2.3654296432293185E+00   2.3741398790596175E+00
   2.3820264443431034E+00   2.3890721334471912E+00   2.3952604433431448E+00
   2.4005756165354328E+00   2.4050026835854132E+00   2.4085275051155537E+00
   2.4111368131674737E+00   2.4128182517778130E+00   2.4135604166301445E+00
   2.4133528936392388E+00   2.4121862963250273E+00   2.4100523018372759E+00
   2.4069436854971689E+00   2.4028543537283160E+00   2.3977793752562140E+00
   2.3917150104615699E+00   2.3846587387788460E+00   2.3766092840365385E+00
   2.3675666376402509E+00   2.3575320795033319E+00   2.3465081966329837E+00
   2.3344988992823481E+00   2.3215094345813276E+00   2.3075463975607597E+00
   2.2926177394865315E+00   2.2767327734219180E+00   2.2599021769384033E+00
   2.2421379918974527E+00   2.2234536212279399E+00   2.2038638226270826E+00
   2.1833846991158481E+00   2.1620336863839085E+00   2.1398295368640401E+00
   2.1167923004811047E+00   2.0929433020275670E+00   2.0683051151246175E+00
   2.0429015327363413E+00   2.0167575342139052E+00   1.9898992488563825E+00
   1.9623539159858432E+00   1.9341498415449865E+00   1.9053163512362570E+00
   1.8758837402315438E+00   1.8458832194901544E+00   1.8153468587299966E+00
   1.7843075261022785E+00   1.7527988246234243E+00   1.7208550254212791E+00
   1.6885109978477169E+00   1.6558021365596827E+00   1.6227642855968827E+00
   1.5894336595962701E+00   1.5558467623014967E+00   1.5220403025716152E+00
   1.4880511082041490E+00   1.4539160380067366E+00   1.4196718927055045E+00
   1.3853553254608437E+00   1.3510027529631616E+00   1.3166502682850860E+00
   1.2823335568376164E+00   1.2480878168631695E+00   1.2139476858245506E+00
   1.1799471737397824E+00   1.1461196039242354E+00   1.1124975607687024E+00
   1.0791128432547570E+00   1.0459964221355540E+00   1.0131783983546139E+00
   9.8068796049317597E-01   9.4855333978251821E-01   9.1680176225549159E-01
   8.8545939862162304E-01   8.5455131317191457E-01   8.2410141334366482E-01
   7.9413240153983500E-01   7.6466573052993159E-01   7.3572156339875860E-01
   7.0731873865860762E-01   6.7947474085458648E-01   6.5220567678390962E-01
   6.2552625731033107E-01   5.9944978466765808E-01   5.7398814509453278E-01
   5.4915180661601970E-01   5.2494982177634508E-01   5.0138983512662028E-01
   4.7847809527764024E-01   4.5621947133625612E-01   4.3461747355284747E-01
   4.1367427801355533E-01   3.9339075521298006E-01   3.7376650234070585E-01
   3.5479987910729643E-01   3.3648804692416390E-01   3.1882701123720902E-01
   3.0181166679789501E-01   2.8543584563893515E-01   2.6969236750563763E-01
   2.5457309247957083E-01   2.4006897551891523E-01   2.2617012263017594E-01
   2.1286584837919201E-01   2.0014473444545475E-01   1.8799468892283364E-01
   1.7640300607165610E-01   1.6535642623148480E-01   1.5484119561086462E-01
   1.4484312567928020E-01   1.3534765189758244E-01   1.2633989153577105E-01
   1.1780470034115656E-01   1.0972672783529699E-01   1.0209047103441660E-01
   9.4880326405240370E-02   8.8080639885864564E-02   8.1675754819468704E-02
   7.5650057667079454E-02   6.9988021383965690E-02   6.4674246362695614E-02
   5.9693498863912779E-02   5.5030746873689793E-02   5.0671193343608201E-02
   4.6600306786375584E-02   4.2803849215889513E-02   3.9267901435919322E-02
   3.5978885696076567E-02   3.2923585747422449E-02   3.0089164342738766E-02
   2.7463178238346844E-02   2.5033590765168281E-02   2.2788782046575536E-02
   2.0717556949479087E-02   1.8809150862920405E-02   1.7053233405328622E-02
   1.5439910167449028E-02   1.3959722602806363E-02   1.2603646181476413E-02
   1.1363086925848240E-02   1.0229876449077758E-02   9.1962656180507828E-03
   8.2549169629391114E-03   7.3988959549350286E-03   6.6216612724981612E-03
   5.9170541745463909E-03   5.2792870965123230E-03   4.7029315821218104E-03
   4.1829056602038740E-03   3.7144607718329775E-03   3.2931683486901427E-03
   2.9149061387372965E-03   2.5758443701563664E-03   2.2724318390543378E-03
   2.0013820007076413E-03   1.7596591381678825E-03   1.5444646759253458E-03
   1.3532237000937676E-03   1.1835717403028752E-03   1.0333418622347752E-03
   9.0055211358139829E-04   7.8339336019072844E-04   6.8021754337029342E-04
   5.8952638376063367E-04   5.0996055192249962E-04   4.4028932082251548E-04
   3.7940071077039730E-04   3.2629213307104317E-04   2.8006153471163946E-04
   2.3989904280956892E-04   2.0507910430122851E-04   1.7495311344936044E-04
   1.4894251717853180E-04   1.2653238601173202E-04   1.0726543645602018E-04
   9.0736489066402847E-05   7.6587345085880448E-05   6.4502063501798072E-05
   5.4202619557012377E-05   4.5444925190723919E-05   3.8015191540182608E-05
   3.1726613491197907E-05   2.6416356303823027E-05   2.1942824539238642E-05
   1.8183193857772295E-05   1.5031186724974870E-05   1.2395073636307720E-05
   1.0195882133262343E-05   8.3657966182025118E-06   6.8467327662815983E-06
   5.5890711660654013E-06   4.5505356826022628E-06   3.6952029154614558E-06
   2.9926300089230414E-06   2.4170889519385777E-06   1.9468963738226077E-06
   1.5638286899457052E-06   1.2526132740376141E-06   1.0004871250438369E-06
   7.9681525258113903E-07   6.3276172283488793E-07   5.0100698396684425E-07
   3.9550572528759694E-07   3.1128011683750014E-07   2.4424382550880208E-07
   1.9105271079415376E-07   1.4897856862850101E-07   1.1580271684864000E-07
   8.9726602059159844E-08   6.9296957113104949E-08   5.3343352943916837E-08
   4.0926270305123951E-08   3.1294068319478332E-08   2.3847449879679036E-08
   1.8110221145309477E-08   1.3705315876929967E-08   1.0335207300545386E-08
   7.7659626840467577E-09   5.8143108267088023E-09   4.3371920426525064E-09
   3.2233457345170537E-09   2.3865638951540688E-09   1.7603013310317340E-09
   1.2933864217880936E-09   9.4662104054974782E-10   6.9009596125896509E-10
   5.0107965757538765E-10   3.6236472851396487E-10   2.6097803969139630E-10
   1.8717872854911600E-10   1.3368307144912404E-10   9.5189453318922908E-11
   7.2657519428774014E-11  -4.0665832430388774E-12  -8.5853343249716979E-14
   0.0000000000000000E+00   0.0000000000000000E+00   0.0000000000000000E+00
   0.0000000000000000E+00   0.0000000000000000E+00   0.0000000000000000E+00
   0.0000000000000000E+00   0.0000000000000000E+00   0.0000000000000000E+00
   0.0000000000000000E+00   0.0000000000000000E+00   0.0000000000000000E+00
   0.0000000000000000E+00   0.0000000000000000E+00   0.0000000000000000E+00
   0.0000000000000000E+00   0.0000000000000000E+00   0.0000000000000000E+00
   0.0000000000000000E+00   0.0000000000000000E+00   0.0000000000000000E+00
   0.0000000000000000E+00   0.0000000000000000E+00   0.0000000000000000E+00
   0.0000000000000000E+00   0.0000000000000000E+00   0.0000000000000000E+00
   0.0000000000000000E+00   0.0000000000000000E+00   0.0000000000000000E+00
   0.0000000000000000E+00   0.0000000000000000E+00   0.0000000000000000E+00
   0.0000000000000000E+00   0.0000000000000000E+00   0.0000000000000000E+00
   0.0000000000000000E+00   0.0000000000000000E+00   0.0000000000000000E+00
   0.0000000000000000E+00   0.0000000000000000E+00   0.0000000000000000E+00
   0.0000000000000000E+00   0.0000000000000000E+00   0.0000000000000000E+00
   0.0000000000000000E+00   0.0000000000000000E+00   0.0000000000000000E+00
   0.0000000000000000E+00   0.0000000000000000E+00   0.0000000000000000E+00
   0.0000000000000000E+00   0.0000000000000000E+00   0.0000000000000000E+00
   0.0000000000000000E+00   0.0000000000000000E+00   0.0000000000000000E+00
   0.0000000000000000E+00   0.0000000000000000E+00   0.0000000000000000E+00
   0.0000000000000000E+00   0.0000000000000000E+00   0.0000000000000000E+00
   0.0000000000000000E+00   0.0000000000000000E+00   0.0000000000000000E+00
   0.0000000000000000E+00   0.0000000000000000E+00   0.0000000000000000E+00
   0.0000000000000000E+00   0.0000000000000000E+00   0.0000000000000000E+00
   0.0000000000000000E+00   0.0000000000000000E+00   0.0000000000000000E+00
   0.0000000000000000E+00   0.0000000000000000E+00   0.0000000000000000E+00
   0.0000000000000000E+00   0.0000000000000000E+00   0.0000000000000000E+00
   0.0000000000000000E+00   0.0000000000000000E+00   0.0000000000000000E+00
   0.0000000000000000E+00   0.0000000000000000E+00   0.0000000000000000E+00
   0.0000000000000000E+00   0.0000000000000000E+00   0.0000000000000000E+00
   0.0000000000000000E+00   0.0000000000000000E+00   0.0000000000000000E+00
   0.0000000000000000E+00   0.0000000000000000E+00   0.0000000000000000E+00
   0.0000000000000000E+00   0.0000000000000000E+00   0.0000000000000000E+00
   0.0000000000000000E+00   0.0000000000000000E+00   0.0000000000000000E+00
   0.0000000000000000E+00   0.0000000000000000E+00   0.0000000000000000E+00
   0.0000000000000000E+00   0.0000000000000000E+00   0.0000000000000000E+00
   0.0000000000000000E+00   0.0000000000000000E+00   0.0000000000000000E+00
   0.0000000000000000E+00   0.0000000000000000E+00   0.0000000000000000E+00
   0.0000000000000000E+00   0.0000000000000000E+00   0.0000000000000000E+00
   0.0000000000000000E+00   0.0000000000000000E+00   0.0000000000000000E+00
   0.0000000000000000E+00   0.0000000000000000E+00   0.0000000000000000E+00
   0.0000000000000000E+00   0.0000000000000000E+00   0.0000000000000000E+00
   0.0000000000000000E+00   0.0000000000000000E+00   0.0000000000000000E+00
   0.0000000000000000E+00   0.0000000000000000E+00   0.0000000000000000E+00
   0.0000000000000000E+00   0.0000000000000000E+00   0.0000000000000000E+00
   0.0000000000000000E+00   0.0000000000000000E+00   0.0000000000000000E+00
     </PP_GIPAW_CORE_ORBITAL.6>
     <PP_GIPAW_CORE_ORBITAL.7 size="1164" index="7" label="4S" n="4" l="0">
   0.0000000000000000E+00  -2.5304253225400634E-03  -2.5571878258021079E-03
  -2.5842327878604285E-03  -2.6115631617133731E-03  -2.6391819512206157E-03
  -2.6670921980854515E-03  -2.6952969760651816E-03  -2.7237993911557383E-03
  -2.7526025819269982E-03  -2.7817097198615556E-03  -2.8111240096969263E-03
  -2.8408486897712371E-03  -2.8708870323724176E-03  -2.9012423440909177E-03
  -2.9319179661760350E-03  -2.9629172748958216E-03  -2.9942436819006568E-03
  -3.0259006345904867E-03  -3.0578916164857805E-03  -3.0902201476022593E-03
  -3.1228897848293536E-03  -3.1559041223125635E-03  -3.1892667918396100E-03
  -3.2229814632305114E-03  -3.2570518447315893E-03  -3.2914816834134341E-03
  -3.3262747655728908E-03  -3.3614349171390743E-03  -3.3969660040834774E-03
  -3.4328719328341945E-03  -3.4691566506943015E-03  -3.5058241462644331E-03
  -3.5428784498696122E-03  -3.5803236339903297E-03  -3.6181638136979638E-03
  -3.6564031470945361E-03  -3.6950458357568813E-03  -3.7340961251852395E-03
  -3.7735583052563278E-03  -3.8134367106809528E-03  -3.8537357214661482E-03
  -3.8944597633819313E-03  -3.9356133084327170E-03  -3.9772008753333971E-03
  -4.0192270299901564E-03  -4.0616963859860609E-03  -4.1046136050714669E-03
  -4.1479833976592797E-03  -4.1918105233251192E-03  -4.2360997913124202E-03
  -4.2808560610425586E-03  -4.3260842426299673E-03  -4.3717892974023571E-03
  -4.4179762384260711E-03  -4.4646501310365841E-03  -4.5118160933742407E-03
  -4.5594792969252474E-03  -4.6076449670679745E-03  -4.6563183836246065E-03
  -4.7055048814182120E-03  -4.7552098508352493E-03  -4.8054387383935603E-03
  -4.8561970473159338E-03  -4.9074903381092407E-03  -4.9593242291492094E-03
  -5.0117043972709016E-03  -5.0646365783649228E-03  -5.1181265679793924E-03
  -5.1721802219278079E-03  -5.2268034569027139E-03  -5.2820022510953728E-03
  -5.3377826448213848E-03  -5.3941507411523473E-03  -5.4511127065536083E-03
  -5.5086747715281251E-03  -5.5668432312665469E-03  -5.6256244463035055E-03
  -5.6850248431801987E-03  -5.7450509151133070E-03  -5.8057092226703154E-03
  -5.8670063944512643E-03  -5.9289491277769784E-03  -5.9915441893838720E-03
  -6.0547984161253175E-03  -6.1187187156796904E-03  -6.1833120672650970E-03
  -6.2485855223608578E-03  -6.3145462054357941E-03  -6.3812013146834021E-03
  -6.4485581227638773E-03  -6.5166239775531730E-03  -6.5854063028990308E-03
  -6.6549125993840890E-03  -6.7251504450961284E-03  -6.7961274964054869E-03
  -6.8678514887496956E-03  -6.9403302374254133E-03  -7.0135716383876974E-03
  -7.0875836690566414E-03  -7.1623743891314970E-03  -7.2379519414122514E-03
  -7.3143245526287853E-03  -7.3915005342776244E-03  -7.4694882834663431E-03
  -7.5482962837656858E-03  -7.6279331060694466E-03  -7.7084074094621799E-03
  -7.7897279420947648E-03  -7.8719035420678901E-03  -7.9549431383235444E-03
  -8.0388557515444822E-03  -8.1236504950618280E-03  -8.2093365757707811E-03
  -8.2959232950545140E-03  -8.3834200497162857E-03  -8.4718363329199017E-03
  -8.5611817351384494E-03  -8.6514659451114497E-03  -8.7426987508104747E-03
  -8.8348900404132333E-03  -8.9280498032861793E-03  -9.0221881309757793E-03
  -9.1173152182083394E-03  -9.2134413638985911E-03  -9.3105769721669972E-03
  -9.4087325533658006E-03  -9.5079187251140319E-03  -9.6081462133412211E-03
  -9.7094258533402169E-03  -9.8117685908288600E-03  -9.9151854830207536E-03
  -1.0019687699705057E-02  -1.0125286524335413E-02  -1.0231993355128029E-02
  -1.0339819706168955E-02  -1.0448777208530600E-02  -1.0558877611397559E-02
  -1.0670132783201702E-02  -1.0782554712766734E-02  -1.0896155510462037E-02
  -1.1010947409366069E-02  -1.1126942766439147E-02  -1.1244154063705833E-02
  -1.1362593909446808E-02  -1.1482275039400395E-02  -1.1603210317973631E-02
  -1.1725412739463096E-02  -1.1848895429285309E-02  -1.1973671645216951E-02
  -1.2099754778644804E-02  -1.2227158355825390E-02  -1.2355896039154558E-02
  -1.2485981628446738E-02  -1.2617429062224218E-02  -1.2750252419016129E-02
  -1.2884465918667475E-02  -1.3020083923657957E-02  -1.3157120940430832E-02
  -1.3295591620731689E-02  -1.3435510762957140E-02  -1.3576893313513602E-02
  -1.3719754368185956E-02  -1.3864109173516331E-02  -1.4009973128192762E-02
  -1.4157361784448021E-02  -1.4306290849468292E-02  -1.4456776186812082E-02
  -1.4608833817838937E-02  -1.4762479923148341E-02  -1.4917730844028559E-02
  -1.5074603083915512E-02  -1.5233113309861655E-02  -1.5393278354014826E-02
  -1.5555115215107065E-02  -1.5718641059953440E-02  -1.5883873224960730E-02
  -1.6050829217646147E-02  -1.6219526718165761E-02  -1.6389983580852946E-02
  -1.6562217835766641E-02  -1.6736247690249232E-02  -1.6912091530494461E-02
  -1.7089767923124780E-02  -1.7269295616778504E-02  -1.7450693543706607E-02
  -1.7633980821378945E-02  -1.7819176754100122E-02  -1.8006300834634725E-02
  -1.8195372745841855E-02  -1.8386412362319145E-02  -1.8579439752055796E-02
  -1.8774475178094916E-02  -1.8971539100204795E-02  -1.9170652176559243E-02
  -1.9371835265426674E-02  -1.9575109426868149E-02  -1.9780495924443812E-02
  -1.9988016226928081E-02  -2.0197692010033182E-02  -2.0409545158140956E-02
  -2.0623597766042872E-02  -2.0839872140688009E-02  -2.1058390802938899E-02
  -2.1279176489335194E-02  -2.1502252153864719E-02  -2.1727640969742060E-02
  -2.1955366331194222E-02  -2.2185451855253367E-02  -2.2417921383556375E-02
  -2.2652798984151002E-02  -2.2890108953308383E-02  -2.3129875817341761E-02
  -2.3372124334431168E-02  -2.3616879496453694E-02  -2.3864166530819332E-02
  -2.4114010902311859E-02  -2.4366438314934694E-02  -2.4621474713761311E-02
  -2.4879146286790013E-02  -2.5139479466802533E-02  -2.5402500933226581E-02
  -2.5668237614001436E-02  -2.5936716687446598E-02  -2.6207965584133165E-02
  -2.6482011988757291E-02  -2.6758883842015496E-02  -2.7038609342481500E-02
  -2.7321216948484019E-02  -2.7606735379985019E-02  -2.7895193620458211E-02
  -2.8186620918767259E-02  -2.8481046791042883E-02  -2.8778501022558828E-02
  -2.9079013669606000E-02  -2.9382615061364022E-02  -2.9689335801770026E-02
  -2.9999206771383704E-02  -3.0312259129248471E-02  -3.0628524314747760E-02
  -3.0948034049455984E-02  -3.1270820338983443E-02  -3.1596915474814677E-02
  -3.1926352036139381E-02  -3.2259162891675221E-02  -3.2595381201481824E-02
  -3.2935040418765334E-02  -3.3278174291672478E-02  -3.3624816865073591E-02
  -3.3975002482333698E-02  -3.4328765787070746E-02  -3.4686141724900178E-02
  -3.5047165545164939E-02  -3.5411872802650207E-02  -3.5780299359281363E-02
  -3.6152481385804909E-02  -3.6528455363450910E-02  -3.6908258085575851E-02
  -3.7291926659285581E-02  -3.7679498507036134E-02  -3.8071011368212442E-02
  -3.8466503300683109E-02  -3.8866012682330260E-02  -3.9269578212553446E-02
  -3.9677238913746291E-02  -4.0089034132744346E-02  -4.0505003542243553E-02
  -4.0925187142187111E-02  -4.1349625261120349E-02  -4.1778358557511323E-02
  -4.2211428021036446E-02  -4.2648874973829375E-02  -4.3090741071691509E-02
  -4.3537068305263181E-02  -4.3987899001153068E-02  -4.4443275823025249E-02
  -4.4903241772641413E-02  -4.5367840190857003E-02  -4.5837114758569657E-02
  -4.6311109497617811E-02  -4.6789868771627656E-02  -4.7273437286807572E-02
  -4.7761860092686292E-02  -4.8255182582794980E-02  -4.8753450495289577E-02
  -4.9256709913512144E-02  -4.9765007266489296E-02  -5.0278389329364702E-02
  -5.0796903223764782E-02  -5.1320596418093903E-02  -5.1849516727758185E-02
  -5.2383712315314392E-02  -5.2923231690542138E-02  -5.3468123710437104E-02
  -5.4018437579122031E-02  -5.4574222847673610E-02  -5.5135529413862273E-02
  -5.5702407521801986E-02  -5.6274907761508078E-02  -5.6853081068359193E-02
  -5.7436978722461035E-02  -5.8026652347909276E-02  -5.8622153911947458E-02
  -5.9223535724018089E-02  -5.9830850434702910E-02  -6.0444151034548796E-02
  -6.1063490852777277E-02  -6.1688923555872528E-02  -6.2320503146045467E-02
  -6.2958283959570427E-02  -6.3602320664989331E-02  -6.4252668261181992E-02
  -6.4909382075295730E-02  -6.5572517760533522E-02  -6.6242131293793666E-02
  -6.6918278973159245E-02  -6.7601017415231765E-02  -6.8290403552304507E-02
  -6.8986494629372924E-02  -6.9689348200975165E-02  -7.0399022127859937E-02
  -7.1115574573476142E-02  -7.1839064000279521E-02  -7.2569549165851829E-02
  -7.3307089118826774E-02  -7.4051743194618436E-02  -7.4803571010945633E-02
  -7.5562632463148358E-02  -7.6328987719289726E-02  -7.7102697215037999E-02
  -7.7883821648323567E-02  -7.8672421973763493E-02  -7.9468559396849811E-02
  -8.0272295367893307E-02  -8.1083691575718070E-02  -8.1902809941099650E-02
  -8.2729712609940276E-02  -8.3564461946174742E-02  -8.4407120524400747E-02
  -8.5257751122224557E-02  -8.6116416712318233E-02  -8.6983180454177814E-02
  -8.7858105685577531E-02  -8.8741255913711334E-02  -8.9632694806014018E-02
  -9.0532486180655403E-02  -9.1440693996696770E-02  -9.2357382343904573E-02
  -9.3282615432211585E-02  -9.4216457580815996E-02  -9.5158973206912606E-02
  -9.6110226814043312E-02  -9.7070282980062123E-02  -9.8039206344702132E-02
  -9.9017061596737163E-02  -1.0000391346072787E-01  -1.0099982668334134E-01
  -1.0200486601923678E-01  -1.0301909621650580E-01  -1.0404258200165536E-01
  -1.0507538806412706E-01  -1.0611757904033726E-01  -1.0716921949723096E-01
  -1.0823037391533644E-01  -1.0930110667130925E-01  -1.1038148201995608E-01
  -1.1147156407572305E-01  -1.1257141679364095E-01  -1.1368110394971205E-01
  -1.1480068912072705E-01  -1.1593023566350120E-01  -1.1706980669351269E-01
  -1.1821946506293621E-01  -1.1937927333805280E-01  -1.2054929377602637E-01
  -1.2172958830103142E-01  -1.2292021847971821E-01  -1.2412124549600170E-01
  -1.2533273012516025E-01  -1.2655473270722797E-01  -1.2778731311966771E-01
  -1.2903053074930779E-01  -1.3028444446352905E-01  -1.3154911258068522E-01
  -1.3282459283974093E-01  -1.3411094236911261E-01  -1.3540821765469405E-01
  -1.3671647450705152E-01  -1.3803576802777126E-01  -1.3936615257494203E-01
  -1.4070768172775630E-01  -1.4206040825021074E-01  -1.4342438405389032E-01
  -1.4479966015981735E-01  -1.4618628665934599E-01  -1.4758431267408509E-01
  -1.4899378631483129E-01  -1.5041475463948978E-01  -1.5184726360996836E-01
  -1.5329135804802207E-01  -1.5474708159002859E-01  -1.5621447664067753E-01
  -1.5769358432554814E-01  -1.5918444444256163E-01  -1.6068709541228074E-01
  -1.6220157422704082E-01  -1.6372791639888848E-01  -1.6526615590630711E-01
  -1.6681632513970884E-01  -1.6837845484566907E-01  -1.6995257406988287E-01
  -1.7153871009882257E-01  -1.7313688840006949E-01  -1.7474713256130323E-01
  -1.7636946422792105E-01  -1.7800390303926686E-01  -1.7965046656344633E-01
  -1.8130917023070381E-01  -1.8298002726533885E-01  -1.8466304861613850E-01
  -1.8635824288530170E-01  -1.8806561625583237E-01  -1.8978517241737508E-01
  -1.9151691249047331E-01  -1.9326083494922197E-01  -1.9501693554229385E-01
  -1.9678520721231366E-01  -1.9856564001355403E-01  -2.0035822102793296E-01
  -2.0216293427928636E-01  -2.0397976064589010E-01  -2.0580867777121079E-01
  -2.0764965997285689E-01  -2.0950267814970974E-01  -2.1136769968720942E-01
  -2.1324468836076887E-01  -2.1513360423729883E-01  -2.1703440357480991E-01
  -2.1894703872008120E-01  -2.2087145800436006E-01  -2.2280760563707802E-01
  -2.2475542159755849E-01  -2.2671484152468913E-01  -2.2868579660454566E-01
  -2.3066821345593647E-01  -2.3266201401385261E-01  -2.3466711541080118E-01
  -2.3668342985599902E-01  -2.3871086451241066E-01  -2.4074932137160893E-01
  -2.4279869712644017E-01  -2.4485888304147663E-01  -2.4692976482123641E-01
  -2.4901122247615975E-01  -2.5110313018631780E-01  -2.5320535616284706E-01
  -2.5531776250709093E-01  -2.5744020506743448E-01  -2.5957253329382440E-01
  -2.6171459008996090E-01  -2.6386621166314994E-01  -2.6602722737181173E-01
  -2.6819745957063262E-01  -2.7037672345336022E-01  -2.7256482689323119E-01
  -2.7476157028103493E-01  -2.7696674636080709E-01  -2.7918014006315284E-01
  -2.8140152833620602E-01  -2.8363067997422448E-01  -2.8586735544382680E-01
  -2.8811130670788193E-01  -2.9036227704705569E-01  -2.9262000087903189E-01
  -2.9488420357541917E-01  -2.9715460127635890E-01  -2.9943090070285883E-01
  -3.0171279896686665E-01  -3.0399998337911460E-01  -3.0629213125475935E-01
  -3.0858890971684760E-01  -3.1088997549764258E-01  -3.1319497473784469E-01
  -3.1550354278375153E-01  -3.1781530398239560E-01  -3.2012987147471139E-01
  -3.2244684698678033E-01  -3.2476582061920639E-01  -3.2708637063468937E-01
  -3.2940806324384930E-01  -3.3173045238937693E-01  -3.3405307952857966E-01
  -3.3637547341439855E-01  -3.3869714987498334E-01  -3.4101761159190680E-01
  -3.4333634787711426E-01  -3.4565283444870648E-01  -3.4796653320565479E-01
  -3.5027689200156525E-01  -3.5258334441760081E-01  -3.5488530953468517E-01
  -3.5718219170511878E-01  -3.5947338032373838E-01  -3.6175824959876207E-01
  -3.6403615832247282E-01  -3.6630644964189152E-01  -3.6856845082960671E-01
  -3.7082147305493052E-01  -3.7306481115556200E-01  -3.7529774340994526E-01
  -3.7751953131051791E-01  -3.7972941933805976E-01  -3.8192663473734589E-01
  -3.8411038729434221E-01  -3.8627986911516426E-01  -3.8843425440704832E-01
  -3.9057269926158894E-01  -3.9269434144050297E-01  -3.9479830016419720E-01
  -3.9688367590342566E-01  -3.9894955017432948E-01  -4.0099498533717265E-01
  -4.0301902439908882E-01  -4.0502069082117431E-01  -4.0699898833027282E-01
  -4.0895290073580493E-01  -4.1088139175201693E-01  -4.1278340482603099E-01
  -4.1465786297209256E-01  -4.1650366861242910E-01  -4.1831970342514385E-01
  -4.2010482819958256E-01  -4.2185788269963176E-01  -4.2357768553541475E-01
  -4.2526303404387344E-01  -4.2691270417873356E-01  -4.2852545041037193E-01
  -4.3010000563611872E-01  -4.3163508110154292E-01  -4.3312936633328758E-01
  -4.3458152908403919E-01  -4.3599021529022852E-01  -4.3735404904308467E-01
  -4.3867163257367409E-01  -4.3994154625258131E-01  -4.4116234860490200E-01
  -4.4233257634123740E-01  -4.4345074440539844E-01  -4.4451534603955145E-01
  -4.4552485286754573E-01  -4.4647771499719102E-01  -4.4737236114227052E-01
  -4.4820719876509052E-01  -4.4898061424038949E-01  -4.4969097304145289E-01
  -4.5033661994928958E-01  -4.5091587928575561E-01  -4.5142705517152043E-01
  -4.5186843180980257E-01  -4.5223827379680531E-01  -4.5253482645981574E-01
  -4.5275631622394141E-01  -4.5290095100847971E-01  -4.5296692065393585E-01
  -4.5295239738071835E-01  -4.5285553628056341E-01  -4.5267447584175474E-01
  -4.5240733850922338E-01  -4.5205223128062655E-01  -4.5160724633952387E-01
  -4.5107046172678095E-01  -4.5043994205134918E-01  -4.4971373924157704E-01
  -4.4888989333823487E-01  -4.4796643333043062E-01  -4.4694137803561668E-01
  -4.4581273702489971E-01  -4.4457851159486178E-01  -4.4323669578712399E-01
  -4.4178527745688329E-01  -4.4022223939165633E-01  -4.3854556048147336E-01
  -4.3675321694176739E-01  -4.3484318359019830E-01  -4.3281343517865811E-01
  -4.3066194778169770E-01  -4.2838670024260689E-01  -4.2598567567838302E-01
  -4.2345686304479885E-01  -4.2079825876278348E-01  -4.1800786840731036E-01
  -4.1508370845996362E-01  -4.1202380812634881E-01  -4.0882621121947815E-01
  -4.0548897811024348E-01  -4.0201018774605818E-01  -3.9838793973871939E-01
  -3.9462035652250893E-01  -3.9070558558350421E-01  -3.8664180176104029E-01
  -3.8242720962220678E-01  -3.7806004591022035E-01  -3.7353858206745666E-01
  -3.6886112683386180E-01  -3.6402602892141084E-01  -3.5903167976519706E-01
  -3.5387651635167866E-01  -3.4855902412451950E-01  -3.4307773996837876E-01
  -3.3743125527091999E-01  -3.3161821906320954E-01  -3.2563734123857518E-01
  -3.1948739584989494E-01  -3.1316722448515694E-01  -3.0667573972103501E-01
  -3.0001192865407605E-01  -2.9317485650897396E-01  -2.8616367032327389E-01
  -2.7897760270767497E-01  -2.7161597568098500E-01  -2.6407820457857956E-01
  -2.5636380203308079E-01  -2.4847238202577715E-01  -2.4040366400712124E-01
  -2.3215747708446099E-01  -2.2373376427494379E-01  -2.1513258682133987E-01
  -2.0635412856830618E-01  -1.9739870039637747E-01  -1.8826674471076729E-01
  -1.7895883998178069E-01  -1.6947570533342585E-01  -1.5981820517654155E-01
  -1.4998735388247575E-01  -1.3998432049311288E-01  -1.2981043346273718E-01
  -1.1946718542694086E-01  -1.0895623799351389E-01  -9.8279426549905055E-02
  -8.7438765081598535E-02  -7.6436450995379199E-02  -6.5274869941187447E-02
  -5.3956600625930953E-02  -4.2484419612250156E-02  -3.0861306094999364E-02
  -1.9090446647761907E-02  -7.1752399314137074E-03   4.8806986435298580E-03
   1.7073532309564602E-02   2.9399198398806354E-02   4.1853403873018530E-02
   5.4431620936894555E-02   6.7129082744709384E-02   7.9940779211038898E-02
   9.2861452936504885E-02   1.0588559526000572E-01   1.1900744244940051E-01
   1.3222097204290839E-01   1.4551989935415555E-01   1.5889767415414377E-01
   1.7234747754395299E-01   1.8586221903255451E-01   1.9943453383447557E-01
   2.1305678040270171E-01   2.2672103821260906E-01   2.4041910581320022E-01
   2.5414249916245424E-01   2.6788245026393792E-01   2.8162990612234556E-01
   2.9537552803593886E-01   3.0910969124429061E-01   3.2282248495000476E-01
   3.3650371273339974E-01   3.5014289337939475E-01   3.6372926213605361E-01
   3.7725177242439012E-01   3.9069909801921882E-01   4.0405963572085329E-01
   4.1732150853756766E-01   4.3047256939863110E-01   4.4350040541773883E-01
   4.5639234272648704E-01   4.6913545189733419E-01   4.8171655397536245E-01
   4.9412222713767723E-01   5.0633881399912539E-01   5.1835242958252081E-01
   5.3014896997110328E-01   5.4171412166063182E-01   5.5303337162778987E-01
   5.6409201813120780E-01   5.7487518226071932E-01   5.8536782024978062E-01
   5.9555473656538682E-01   6.0542059778891288E-01   6.1494994730053398E-01
   6.2412722077897609E-01   6.3293676252722320E-01   6.4136284263385890E-01
   6.4938967497839950E-01   6.5700143608775097E-01   6.6418228484956843E-01
   6.7091638308671941E-01   6.7718791699559477E-01   6.8298111944925211E-01
   6.8828029316462525E-01   6.9306983473119577E-01   6.9733425949647787E-01
   7.0105822730165890E-01   7.0422656905850456E-01   7.0682431415637725E-01
   7.0883671868581677E-01   7.1024929446262475E-01   7.1104783883380129E-01
   7.1121846524395704E-01   7.1074763453801282E-01   7.0962218697308066E-01
   7.0782937490937681E-01   7.0535689614692398E-01   7.0219292787154275E-01
   6.9832616117034640E-01   6.9374583607353224E-01   6.8844177707578436E-01
   6.8240442908701993E-01   6.7562489375860468E-01   6.6809496612742081E-01
   6.5980717151644286E-01   6.5075480262666585E-01   6.4093195675135528E-01
   6.3033357303978765E-01   6.1895546973369575E-01   6.0679438129578644E-01
   5.9384799534585597E-01   5.8011498931610550E-01   5.6559506673358761E-01
   5.5028899303387202E-01   5.3419863080641306E-01   5.1732697436861674E-01
   4.9967818356203436E-01   4.8125761666099992E-01   4.6207186228079405E-01
   4.4212877016947510E-01   4.2143748076496790E-01   4.0000845339626706E-01
   3.7785349300563176E-01   3.5498577526662622E-01   3.3141986997114142E-01
   3.0717176255756312E-01   2.8225887365102831E-01   2.5670007648647897E-01
   2.3051571208511726E-01   2.0372760205518597E-01   1.7635905888913575E-01
   1.4843489363049808E-01   1.1998142078583254E-01   9.1026460359787592E-02
   6.1599336894147316E-02   3.1730875395670148E-02   1.4533940414625667E-03
  -2.9199306444702314E-02  -6.0191956846643781E-02  -9.1487837037030992E-02
  -1.2304879717641193E-01  -1.5483528261539134E-01  -1.8680636257978053E-01
  -2.1891976271325042E-01  -2.5113190154700110E-01  -2.8339793096121979E-01
  -3.1567178069877183E-01  -3.4790620698759644E-01  -3.8005284532476141E-01
  -4.1206226747135483E-01  -4.4388404270406262E-01  -4.7546680336479435E-01
  -5.0675831474411381E-01  -5.3770554932667292E-01  -5.6825476541536879E-01
  -5.9835159013585337E-01  -6.2794110680237236E-01  -6.5696794659998936E-01
  -6.8537638450814908E-01  -7.1311043935688689E-01  -7.4011397787310751E-01
  -7.6633082254269891E-01  -7.9170486308660881E-01  -8.1618017132834697E-01
  -8.3970111921538160E-01  -8.6221249974804082E-01  -8.8365965056430462E-01
  -9.0398857992476489E-01  -9.2314609483779875E-01  -9.4107993105785948E-01
  -9.5773888467980861E-01  -9.7307294503875763E-01  -9.8703342860849019E-01
  -9.9957311357334167E-01  -1.0106463747292764E+00  -1.0202093183510188E+00
  -1.0282199166444632E+00  -1.0346381413877968E+00  -1.0394260963513349E+00
  -1.0425481480751686E+00  -1.0439710545752623E+00  -1.0436640915423832E+00
  -1.0415991755940108E+00  -1.0377509841366659E+00  -1.0320970713947657E+00
  -1.0246179801617943E+00  -1.0152973488301777E+00  -1.0041220132576185E+00
  -9.9108210302979438E-01  -9.7617113168231540E-01  -9.5938608044862606E-01
  -9.4072747510543675E-01  -9.2019945549328963E-01  -8.9780983729705333E-01
  -8.7357016568009793E-01  -8.4749576037607488E-01  -8.1960575185452789E-01
  -7.8992310819078149E-01  -7.5847465228655719E-01  -7.2529106910676566E-01
  -6.9040690261866311E-01  -6.5386054214331879E-01  -6.1569419785610224E-01
  -5.7595386520171266E-01  -5.3468927802226041E-01  -4.9195385023193156E-01
  -4.4780460591025045E-01  -4.0230209772800618E-01  -3.5551031366383423E-01
  -3.0749657201765146E-01  -2.5833140477728339E-01  -2.0808842944784936E-01
  -1.5684420951008263E-01  -1.0467810373257563E-01  -5.1672104625864836E-02
   2.0893336071645579E-03   5.6519477199485857E-02   1.1152950452476494E-01
   1.6702870679565965E-01   2.2292469708458457E-01   2.7912362690409431E-01
   3.3553040949076962E-01   3.9204894884576114E-01   4.4858237350638352E-01
   5.0503327396549080E-01   5.6130394263419336E-01   6.1729661527479329E-01
   6.7291371293322833E-01   7.2805808359191382E-01   7.8263324305575521E-01
   8.3654361497421037E-01   8.8969477035751521E-01   9.4199366739034840E-01
   9.9334889265345383E-01   1.0436709048706712E+00   1.0928722818627779E+00
   1.1408679704695728E+00   1.1875755379331823E+00   1.2329154219345708E+00
   1.2768111755324212E+00   1.3191897029676354E+00   1.3599814827257029E+00
   1.3991207751979953E+00   1.4365458134132547E+00   1.4721989763020620E+00
   1.5060269446281036E+00   1.5379808400411790E+00   1.5680163477571498E+00
   1.5960938232639310E+00   1.6221783832870211E+00   1.6462399810866259E+00
   1.6682534660280062E+00   1.6881986272742526E+00   1.7060602213948317E+00
   1.7218279836589949E+00   1.7354966227900848E+00   1.7470657989934077E+00
   1.7565400851359108E+00   1.7639289110483840E+00   1.7692464910346044E+00
   1.7725117348007158E+00   1.7737481421541963E+00   1.7729836819574190E+00
   1.7702506559498419E+00   1.7655855481700944E+00   1.7590288608117810E+00
   1.7506249374329912E+00   1.7404217745093618E+00   1.7284708223744605E+00
   1.7148267766308463E+00   1.6995473611417435E+00   1.6826931037283894E+00
   1.6643271057034918E+00   1.6445148063678350E+00   1.6233237435864305E+00
   1.6008233115435082E+00   1.5770845167528935E+00   1.5521797333730090E+00
   1.5261824588440174E+00   1.4991670708296310E+00   1.4712085864078939E+00
   1.4423824244146803E+00   1.4127641718010007E+00   1.3824293548207678E+00
   1.3514532158203560E+00   1.3199104963545383E+00   1.2878752273061076E+00
   1.2554205266508964E+00   1.2226184054023270E+00   1.1895395823510837E+00
   1.1562533080266915E+00   1.1228271983330391E+00   1.0893270782574038E+00
   1.0558168359953006E+00   1.0223582877897077E+00   9.8901105373639098E-01
   9.5583244476055906E-01   9.2287736092431916E-01   8.9019820117793680E-01
   8.5784478462301261E-01   8.2586428331047212E-01   7.9430116655187144E-01
   7.6319715667944399E-01   7.3259119614710722E-01   7.0251942582313220E-01
   6.7301517428393831E-01   6.4410895787763955E-01   6.1582849128586536E-01
   5.8819870827133169E-01   5.6124179225757864E-01   5.3497721634523043E-01
   5.0942179232582929E-01   4.8458972821096574E-01   4.6049269375061369E-01
   4.3713989337241133E-01   4.1453814593440796E-01   3.9269197064917938E-01
   3.7160367850992732E-01   3.5127346853029001E-01   3.3169952810100511E-01
   3.1287813676868342E-01   2.9480377275451070E-01   2.7746922155282727E-01
   2.6086568597915055E-01   2.4498289707233922E-01   2.2980922529355782E-01
   2.1533179150353107E-01   2.0153657723725640E-01   1.8840853383083034E-01
   1.7593168998762587E-01   1.6408925740073022E-01   1.5286373407575088E-01
   1.4223700502337930E-01   1.3219044001521199E-01   1.2270498812009256E-01
   1.1376126876197176E-01   1.0533965906469089E-01   9.7420377274210879E-02
   8.9983562074664084E-02   8.3009347641344849E-02   7.6477934300916456E-02
   7.0369654696660761E-02   6.4665035384263797E-02   5.9344853810931540E-02
   5.4390190657636409E-02   4.9782477550424073E-02   4.5503540171956174E-02
   4.1535636828590655E-02   3.7861492551017818E-02   3.4464328827828954E-02
   3.1327889091106606E-02   2.8436460091157200E-02   2.5774889313839561E-02
   2.3328598608380054E-02   2.1083594206216194E-02   1.9026473322167597E-02
   1.7144427538099128E-02   1.5425243176294432E-02   1.3857298874941186E-02
   1.2429560581562324E-02   1.1131574181942818E-02   9.9534559821569044E-03
   8.8858812598291911E-03   7.9200710978109996E-03   7.0477777091644380E-03
   6.2612684568182000E-03   5.5533087646083053E-03   4.9171441087783483E-03
   4.3464812705093859E-03   3.8354690207948162E-03   3.3786783991170341E-03
   2.9710827370314345E-03   2.6080375670436183E-03   2.2852605461979301E-03
   1.9988115126882149E-03   1.7450727826614271E-03   1.5207297833142847E-03
   1.3227521074673408E-03   1.1483750641274229E-03   9.9508178919485279E-04
   8.6058597049699492E-04   7.4281523180019641E-04   6.3989521141123067E-04
   5.5013436247073179E-04   4.7200949409861214E-04   4.0415206519515907E-04
   3.4533523595136505E-04   2.9446167598803073E-04   2.5055212252037082E-04
   2.1273467703674940E-04   1.8023482466926862E-04   1.5236615670710226E-04
   1.2852177353836123E-04   1.0816634267693172E-04   9.0828784409494124E-05
   7.6095555952074059E-05   6.3604503802307946E-05   5.3039253176051180E-05
   4.4124102993382546E-05   3.6619394787097744E-05   3.0317324115310113E-05
   2.5038163530359237E-05   2.0626866854804038E-05   1.6950025407737843E-05
   1.3893147878968006E-05   1.1358236733873400E-05   9.2616353193076435E-06
   7.5321212044668419E-06   6.1092227043548789E-06   4.9417369779839612E-06
   3.9864295455526140E-06   3.2068965138841221E-06   2.5725722210148092E-06
   2.0578663965671329E-06   1.6414162737979524E-06   1.3054403734118150E-06
   1.0351819017096107E-06   8.1843086147082073E-07   6.4511505986867355E-07
   5.0695121144335168E-07   3.9714827556072297E-07   3.1015603650932444E-07
   2.4145273216974825E-07   1.8736626582698883E-07   1.4492419780479865E-07
   1.1172831226885080E-07   8.5850093206578562E-08   6.5743925930872257E-08
   5.0175270315113823E-08   3.8161433277688557E-08   2.8922904670756993E-08
   2.1843516629683391E-08   1.6437945277219756E-08   1.2325299098596052E-08
   9.2077337369890503E-09   6.8532016171121359E-09   5.0815897056456114E-09
   3.7536226456316490E-09   2.7620140157420586E-09   2.0244378954089593E-09
   1.4779683732483773E-09   1.0746980108907255E-09   7.7829926425874218E-10
   5.6133696641240818E-10   4.0317651120654623E-10   2.8836250800445421E-10
   2.0536740925023701E-10   1.4562981887311194E-10   1.0281862086642050E-10
   7.2272366150530776E-11   5.0574068120260993E-11   3.5230144938388018E-11
   2.4429097808253462E-11   1.6860953787458354E-11   1.1582799263218001E-11
   7.9191083796453268E-12   5.3882135378251233E-12   3.6483219543635860E-12
   2.4580750851808719E-12   1.6478748809738060E-12   1.0991414121497499E-12
   7.2938356352242897E-13   4.8150844634015801E-13   3.1620555679692025E-13
   2.0654965276920330E-13   1.3419617323545335E-13   8.6713610769336759E-14
   5.5723184019821868E-14   3.5608593229787407E-14   2.2646565643972710E-14
   1.5079296131246444E-14  -3.0385555537822418E-16  -2.8257956840026353E-19
  -0.0000000000000000E+00  -0.0000000000000000E+00  -0.0000000000000000E+00
  -0.0000000000000000E+00  -0.0000000000000000E+00  -0.0000000000000000E+00
  -0.0000000000000000E+00  -0.0000000000000000E+00  -0.0000000000000000E+00
  -0.0000000000000000E+00  -0.0000000000000000E+00  -0.0000000000000000E+00
  -0.0000000000000000E+00  -0.0000000000000000E+00  -0.0000000000000000E+00
  -0.0000000000000000E+00  -0.0000000000000000E+00  -0.0000000000000000E+00
  -0.0000000000000000E+00  -0.0000000000000000E+00  -0.0000000000000000E+00
  -0.0000000000000000E+00  -0.0000000000000000E+00  -0.0000000000000000E+00
  -0.0000000000000000E+00  -0.0000000000000000E+00  -0.0000000000000000E+00
  -0.0000000000000000E+00  -0.0000000000000000E+00  -0.0000000000000000E+00
  -0.0000000000000000E+00  -0.0000000000000000E+00  -0.0000000000000000E+00
  -0.0000000000000000E+00  -0.0000000000000000E+00  -0.0000000000000000E+00
  -0.0000000000000000E+00  -0.0000000000000000E+00  -0.0000000000000000E+00
  -0.0000000000000000E+00  -0.0000000000000000E+00  -0.0000000000000000E+00
  -0.0000000000000000E+00  -0.0000000000000000E+00  -0.0000000000000000E+00
  -0.0000000000000000E+00  -0.0000000000000000E+00  -0.0000000000000000E+00
  -0.0000000000000000E+00  -0.0000000000000000E+00  -0.0000000000000000E+00
  -0.0000000000000000E+00  -0.0000000000000000E+00  -0.0000000000000000E+00
  -0.0000000000000000E+00  -0.0000000000000000E+00  -0.0000000000000000E+00
  -0.0000000000000000E+00  -0.0000000000000000E+00  -0.0000000000000000E+00
  -0.0000000000000000E+00  -0.0000000000000000E+00  -0.0000000000000000E+00
  -0.0000000000000000E+00  -0.0000000000000000E+00  -0.0000000000000000E+00
  -0.0000000000000000E+00  -0.0000000000000000E+00  -0.0000000000000000E+00
     </PP_GIPAW_CORE_ORBITAL.7>
     <PP_GIPAW_CORE_ORBITAL.8 size="1164" index="8" label="4P" n="4" l="1">
   0.0000000000000000E+00   1.2232387011267315E-06   1.2474005548574779E-06
   1.2720878212923865E-06   1.2973130933352226E-06   1.3230875820201642E-06
   1.3494222160626119E-06   1.3763281494137377E-06   1.4038167780883166E-06
   1.4318997449977423E-06   1.4605889448874648E-06   1.4898965293813416E-06
   1.5198349121350764E-06   1.5504167741008836E-06   1.5816550689056621E-06
   1.6135630283449523E-06   1.6461541679950069E-06   1.6794422929453769E-06
   1.7134415036544470E-06   1.7481662019304019E-06   1.7836310970401983E-06
   1.8198512119490948E-06   1.8568418896934760E-06   1.8946187998895696E-06
   1.9331979453809493E-06   1.9725956690275576E-06   2.0128286606392056E-06
   2.0539139640564562E-06   2.0958689843819384E-06   2.1387114953651600E-06
   2.1824596469439494E-06   2.2271319729457828E-06   2.2727473989522205E-06
   2.3193252503298569E-06   2.3668852604311606E-06   2.4154475789687395E-06
   2.4650327805665630E-06   2.5156618734918250E-06   2.5673563085711201E-06
   2.6201379882947898E-06   2.6740292761132750E-06   2.7290530059294649E-06
   2.7852324917910689E-06   2.8425915377871653E-06   2.9011544481531459E-06
   2.9609460375883393E-06   3.0219916417907392E-06   3.0843171282133428E-06
   3.1479489070466508E-06   3.2129139424320441E-06   3.2792397639108033E-06
   3.3469544781136923E-06   3.4160867806960329E-06   3.4866659685234378E-06
   3.5587219521133367E-06   3.6322852683376691E-06   3.7073870933920940E-06
   3.7840592560373447E-06   3.8623342511183018E-06   3.9422452533666016E-06
   4.0238261314926711E-06   4.1071114625732028E-06   4.1921365467402080E-06
   4.2789374221779525E-06   4.3675508804341637E-06   4.4580144820520334E-06
   4.5503665725297530E-06   4.6446462986143449E-06   4.7408936249368070E-06
   4.8391493509956310E-06   4.9394551284960011E-06   5.0418534790520810E-06
   5.1463878122599398E-06   5.2531024441488742E-06   5.3620426160189770E-06
   5.4732545136731026E-06   5.5867852870513557E-06   5.7026830702765675E-06
   5.8209970021193348E-06   5.9417772468913635E-06   6.0650750157761129E-06
   6.1909425886057634E-06   6.3194333360939815E-06   6.4506017425339157E-06
   6.5845034289711635E-06   6.7211951768615956E-06   6.8607349522243205E-06
   7.0031819302999746E-06   7.1485965207249566E-06   7.2970403932324996E-06
   7.4485765038914523E-06   7.6032691218941422E-06   7.7611838569047026E-06
   7.9223876869797124E-06   8.0869489870730366E-06   8.2549375581371402E-06
   8.4264246568333813E-06   8.6014830258639485E-06   8.7801869249386258E-06
   8.9626121623894931E-06   9.1488361274473264E-06   9.3389378231933786E-06
   9.5329979002008379E-06   9.7310986908803857E-06   9.9333242445445453E-06
   1.0139760363206010E-05   1.0350494638125187E-05   1.0565616487122866E-05
   1.0785217192673861E-05   1.1009389940798165E-05   1.1238229860766244E-05
   1.1471834065635650E-05   1.1710301693636229E-05   1.1953733950422033E-05
   1.2202234152207746E-05   1.2455907769808585E-05   1.2714862473602266E-05
   1.2979208179432757E-05   1.3249057095475301E-05   1.3524523770083160E-05
   1.3805725140636379E-05   1.4092780583414036E-05   1.4385811964511071E-05
   1.4684943691821991E-05   1.4990302768113568E-05   1.5302018845209783E-05
   1.5620224279311908E-05   1.5945054187478229E-05   1.6276646505287054E-05
   1.6615142045708674E-05   1.6960684559210963E-05   1.7313420795125217E-05
   1.7673500564298167E-05   1.8041076803057812E-05   1.8416305638520163E-05
   1.8799346455265509E-05   1.9190361963412894E-05   1.9589518268122244E-05
   1.9996984940554063E-05   2.0412935090317857E-05   2.0837545439440017E-05
   2.1270996397883548E-05   2.1713472140652306E-05   2.2165160686513082E-05
   2.2626253978369423E-05   2.3096947965322475E-05   2.3577442686453821E-05
   2.4067942356367119E-05   2.4568655452525242E-05   2.5079794804420990E-05
   2.5601577684620020E-05   2.6134225901715337E-05   2.6677965895233783E-05
   2.7233028832535678E-05   2.7799650707749737E-05   2.8378072442785909E-05
   2.8968539990470403E-05   2.9571304439847269E-05   3.0186622123692730E-05
   3.0814754728288499E-05   3.1455969405501974E-05   3.2110538887222181E-05
   3.2778741602200944E-05   3.3460861795350172E-05   3.4157189649547238E-05
   3.4868021410001341E-05   3.5593659511234710E-05   3.6334412706734708E-05
   3.7090596201332172E-05   3.7862531786364331E-05   3.8650547977681173E-05
   3.9454980156555059E-05   4.0276170713555039E-05   4.1114469195448668E-05
   4.1970232455195419E-05   4.2843824805096838E-05   4.3735618173170381E-05
   4.4645992262815279E-05   4.5575334715839772E-05   4.6524041278920891E-05
   4.7492515973570028E-05   4.8481171269677645E-05   4.9490428262713523E-05
   5.0520716854659655E-05   5.1572475938755116E-05   5.2646153588133324E-05
   5.3742207248434582E-05   5.4861103934477746E-05   5.6003320431077328E-05
   5.7169343498093401E-05   5.8359670079805467E-05   5.9574807518699948E-05
   6.0815273773766345E-05   6.2081597643397476E-05   6.3374318992991439E-05
   6.4693988987354453E-05   6.6041170328007693E-05   6.7416437495501367E-05
   6.8820376996842268E-05   7.0253587618144593E-05   7.1716680682613223E-05
   7.3210280313974559E-05   7.4735023705469752E-05   7.6291561394527997E-05
   7.7880557543242755E-05   7.9502690224772017E-05   8.1158651715790314E-05
   8.2849148795120260E-05   8.4574903048675830E-05   8.6336651180851355E-05
   8.8135145332494027E-05   8.9971153405599540E-05   9.1845459394874530E-05
   9.3758863726311887E-05   9.5712183602929594E-05   9.7706253357823981E-05
   9.9741924814694964E-05   1.0182006765600163E-04   1.0394156979891282E-04
   1.0610733777921650E-04   1.0831829714336014E-04   1.1057539284879488E-04
   1.1287958967280088E-04   1.1523187262997465E-04   1.1763324739856563E-04
   1.2008474075584815E-04   1.2258740102272426E-04   1.2514229851775429E-04
   1.2775052602081676E-04   1.3041319924660401E-04   1.3313145732816301E-04
   1.3590646331069874E-04   1.3873940465585705E-04   1.4163149375671385E-04
   1.4458396846369893E-04   1.4759809262168867E-04   1.5067515661850732E-04
   1.5381647794508057E-04   1.5702340176749325E-04   1.6029730151120343E-04
   1.6363957945767697E-04   1.6705166735370472E-04   1.7053502703367817E-04
   1.7409115105510085E-04   1.7772156334761651E-04   1.8142781987584688E-04
   1.8521150931633535E-04   1.8907425374889590E-04   1.9301770936268239E-04
   1.9704356717728560E-04   2.0115355377918953E-04   2.0534943207390851E-04
   2.0963300205414633E-04   2.1400610158432102E-04   2.1847060720180122E-04
   2.2302843493522193E-04   2.2768154114023389E-04   2.3243192335307134E-04
   2.3728162116231496E-04   2.4223271709923898E-04   2.4728733754714405E-04
   2.5244765367008235E-04   2.5771588236138653E-04   2.6309428721243327E-04
   2.6858517950206925E-04   2.7419091920714470E-04   2.7991391603460821E-04
   2.8575663047561851E-04   2.9172157488215332E-04   2.9781131456658809E-04
   3.0402846892474118E-04   3.1037571258288831E-04   3.1685577656925378E-04
   3.2347144951050660E-04   3.3022557885379591E-04   3.3712107211486758E-04
   3.4416089815282375E-04   3.5134808847209052E-04   3.5868573855218130E-04
   3.6617700920583962E-04   3.7382512796617492E-04   3.8163339050341003E-04
   3.8960516207186234E-04   3.9774387898781969E-04   4.0605305013895318E-04
   4.1453625852595012E-04   4.2319716283704923E-04   4.3203949905617708E-04
   4.4106708210540804E-04   4.5028380752246984E-04   4.5969365317404578E-04
   4.6930068100563494E-04   4.7910903882874162E-04   4.8912296214619674E-04
   4.9934677601641564E-04   5.0978489695741513E-04   5.2044183489144500E-04
   5.3132219513108250E-04   5.4243068040768202E-04   5.5377209294306428E-04
   5.6535133656537297E-04   5.7717341887002975E-04   5.8924345342673478E-04
   6.0156666203350104E-04   6.1414837701870533E-04   6.2699404359217270E-04
   6.4010922224633649E-04   6.5349959120851919E-04   6.6717094894541966E-04
   6.8112921672091285E-04   6.9538044120826361E-04   7.0993079715792908E-04
   7.2478659012208970E-04   7.3995425923712398E-04   7.5544038006522909E-04
   7.7125166749643218E-04   7.8739497871226939E-04   8.0387731621239431E-04
   8.2070583090547271E-04   8.3788782526567551E-04   8.5543075655615378E-04
   8.7334224012089456E-04   8.9163005274636893E-04   9.1030213609445308E-04
   9.2936660020806515E-04   9.4883172709108181E-04   9.6870597436400445E-04
   9.8899797899702139E-04   1.0097165611220138E-03   1.0308707279251569E-03
   1.0524696776217936E-03   1.0745228035152381E-03   1.0970396981412861E-03
   1.1200301575001559E-03   1.1435041853776714E-03   1.1674719977575318E-03
   1.1919440273264836E-03   1.2169309280743532E-03   1.2424435799908429E-03
   1.2684930938610423E-03   1.2950908161617311E-03   1.3222483340604239E-03
   1.3499774805193251E-03   1.3782903395062654E-03   1.4071992513147861E-03
   1.4367168179956033E-03   1.4668559089016193E-03   1.4976296663488432E-03
   1.5290515113954898E-03   1.5611351497416160E-03   1.5938945777517421E-03
   1.6273440886028238E-03   1.6614982785601491E-03   1.6963720533836330E-03
   1.7319806348671039E-03   1.7683395675132099E-03   1.8054647253465622E-03
   1.8433723188678887E-03   1.8820789021519221E-03   1.9216013800917758E-03
   1.9619570157927550E-03   2.0031634381183676E-03   2.0452386493916008E-03
   2.0882010332543503E-03   2.1320693626880774E-03   2.1768628081988064E-03
   2.2226009461694934E-03   2.2693037673830584E-03   2.3169916857192514E-03
   2.3656855470285919E-03   2.4154066381868282E-03   2.4661766963331028E-03
   2.5180179182954458E-03   2.5709529702069292E-03   2.6250049973160629E-03
   2.6801976339950111E-03   2.7365550139491924E-03   2.7941017806320102E-03
   2.8528630978683902E-03   2.9128646606908773E-03   2.9741327063921960E-03
   3.0366940257979783E-03   3.1005759747637883E-03   3.1658064859002260E-03
   3.2324140805301913E-03   3.3004278808824090E-03   3.3698776225252408E-03
   3.4407936670449724E-03   3.5132070149727929E-03   3.5871493189646659E-03
   3.6626528972384196E-03   3.7397507472723495E-03   3.8184765597696849E-03
   3.8988647328934310E-03   3.9809503867759060E-03   4.0647693783075305E-03
   4.1503583162094543E-03   4.2377545763943609E-03   4.3269963176203741E-03
   4.4181224974423781E-03   4.5111728884655988E-03   4.6061880949061175E-03
   4.7032095694628500E-03   4.8022796305060489E-03   4.9034414795867069E-03
   5.0067392192719709E-03   5.1122178713111539E-03   5.2199233951371717E-03
   5.3299027067083525E-03   5.4422036976952510E-03   5.5568752550174041E-03
   5.6739672807349338E-03   5.7935307122995144E-03   5.9156175431699506E-03
   6.0402808437967671E-03   6.1675747829808619E-03   6.2975546496109236E-03
   6.4302768747841570E-03   6.5657990543154026E-03   6.7041799716389648E-03
   6.8454796211079539E-03   6.9897592316957935E-03   7.1370812911041130E-03
   7.2875095702819252E-03   7.4411091483600573E-03   7.5979464380055116E-03
   7.7580892111998182E-03   7.9216066254454379E-03   8.0885692504045394E-03
   8.2590490949738995E-03   8.4331196347997555E-03   8.6108558402364626E-03
   8.7923342047522540E-03   8.9776327737859252E-03   9.1668311740573018E-03
   9.3600106433348353E-03   9.5572540606633557E-03   9.7586459770541943E-03
   9.9642726466409315E-03   1.0174222058302531E-02   1.0388583967756153E-02
   1.0607449930121630E-02   1.0830913332958724E-02   1.1059069429779163E-02
   1.1292015374033793E-02   1.1529850253576080E-02   1.1772675125602143E-02
   1.2020593052067249E-02   1.2273709135578736E-02   1.2532130555764600E-02
   1.2795966606116460E-02   1.3065328731305774E-02   1.3340330564971001E-02
   1.3621087967973632E-02   1.3907719067119975E-02   1.4200344294345472E-02
   1.4499086426357628E-02   1.4804070624732730E-02   1.5115424476461985E-02
   1.5433278034940727E-02   1.5757763861394755E-02   1.6089017066736939E-02
   1.6427175353845757E-02   1.6772379060258323E-02   1.7124771201268020E-02
   1.7484497513416988E-02   1.7851706498372925E-02   1.8226549467178110E-02
   1.8609180584858342E-02   1.8999756915378609E-02   1.9398438466930224E-02
   1.9805388237534985E-02   2.0220772260948785E-02   2.0644759652847820E-02
   2.1077522657278303E-02   2.1519236693349583E-02   2.1970080402149872E-02
   2.2430235693861409E-02   2.2899887795052098E-02   2.3379225296117665E-02
   2.3868440198848061E-02   2.4367727964090168E-02   2.4877287559476199E-02
   2.5397321507187823E-02   2.5928035931722153E-02   2.6469640607625047E-02
   2.7022349007155742E-02   2.7586378347843863E-02   2.8161949639899039E-02
   2.8749287733431158E-02   2.9348621365436062E-02   2.9960183206501827E-02
   3.0584209907185585E-02   3.1220942144011121E-02   3.1870624665033924E-02
   3.2533506334917778E-02   3.3209840179465482E-02   3.3899883429542373E-02
   3.4603897564330230E-02   3.5322148353845076E-02   3.6054905900650067E-02
   3.6802444680692221E-02   3.7565043583187706E-02   3.8342985949478166E-02
   3.9136559610777492E-02   3.9946056924724159E-02   4.0771774810652056E-02
   4.1614014783488404E-02   4.2473082986183998E-02   4.3349290220578394E-02
   4.4242951976596563E-02   4.5154388459672547E-02   4.6083924616288706E-02
   4.7031890157517790E-02   4.7998619580449445E-02   4.8984452187377306E-02
   4.9989732102622350E-02   5.1014808286858150E-02   5.2060034548804347E-02
   5.3125769554146246E-02   5.4212376831535070E-02   5.5320224775518713E-02
   5.6449686646246403E-02   5.7601140565787044E-02   5.8774969510894795E-02
   5.9971561302049788E-02   6.1191308588597629E-02   6.2434608829803083E-02
   6.3701864271631076E-02   6.4993481919059237E-02   6.6309873503721556E-02
   6.7651455446676848E-02   6.9018648816087907E-02   7.0411879279592998E-02
   7.1831577051144097E-02   7.3278176832077616E-02   7.4752117746181707E-02
   7.6253843268510382E-02   7.7783801147695966E-02   7.9342443321496134E-02
   8.0930225825313076E-02   8.2547608693407298E-02   8.4195055852526651E-02
   8.5873035007662885E-02   8.7582017519639246E-02   8.9322478274226139E-02
   9.1094895542474560E-02   9.2899750831949304E-02   9.4737528728535525E-02
   9.6608716728487962E-02   9.8513805060378379E-02   1.0045328649659648E-01
   1.0242765615404550E-01   1.0443741128367059E-01   1.0648305104844843E-01
   1.0856507628945847E-01   1.1068398927965170E-01   1.1284029346492001E-01
   1.1503449319206900E-01   1.1726709342328240E-01   1.1953859943666570E-01
   1.2184951651244477E-01   1.2420034960438954E-01   1.2659160299603023E-01
   1.2902377994121930E-01   1.3149738228859442E-01   1.3401291008948418E-01
   1.3657086118879930E-01   1.3917173079844034E-01   1.4181601105275390E-01
   1.4450419054555899E-01   1.4723675384826437E-01   1.5001418100859279E-01
   1.5283694702942213E-01   1.5570552132725674E-01   1.5862036716983136E-01
   1.6158194109235463E-01   1.6459069229189252E-01   1.6764706199939911E-01
   1.7075148282889066E-01   1.7390437810327136E-01   1.7710616115631120E-01
   1.8035723461028447E-01   1.8365798962877772E-01   1.8700880514418119E-01
   1.9041004705938316E-01   1.9386206742318871E-01   1.9736520357899739E-01
   2.0091977728627985E-01   2.0452609381440021E-01   2.0818444100834746E-01
   2.1189508832594461E-01   2.1565828584612243E-01   2.1947426324786054E-01
   2.2334322875940638E-01   2.2726536807741440E-01   2.3124084325565311E-01
   2.3526979156295924E-01   2.3935232431013856E-01   2.4348852564553369E-01
   2.4767845131901561E-01   2.5192212741417408E-01   2.5621954904852084E-01
   2.6057067904155262E-01   2.6497544655055144E-01   2.6943374567404554E-01
   2.7394543402288601E-01   2.7851033125894825E-01   2.8312821760150142E-01
   2.8779883230135050E-01   2.9252187208289404E-01   2.9729698955430667E-01
   3.0212379158610264E-01   3.0700183765840694E-01   3.1193063817731748E-01
   3.1690965276080801E-01   3.2193828849470252E-01   3.2701589815930504E-01
   3.3214177842737097E-01   3.3731516803416484E-01   3.4253524592044871E-01
   3.4780112934932333E-01   3.5311187199794125E-01   3.5846646202520749E-01
   3.6386382011667523E-01   3.6930279750795630E-01   3.7478217398806463E-01
   3.8030065588422290E-01   3.8585687402978824E-01   3.9144938171704319E-01
   3.9707665263675668E-01   4.0273707880651038E-01   4.0842896848993065E-01
   4.1415054410910851E-01   4.1989994015259602E-01   4.2567520108153656E-01
   4.3147427923661535E-01   4.3729503274865095E-01   4.4313522345582890E-01
   4.4899251483069225E-01   4.5486446992019747E-01   4.6074854930227294E-01
   4.6664210906250297E-01   4.7254239879473098E-01   4.7844655962952082E-01
   4.8435162229463619E-01   4.9025450521186964E-01   4.9615201263471376E-01
   5.0204083283164636E-01   5.0791753631992442E-01   5.1377857415505634E-01
   5.1962027628136975E-01   5.2543884994924583E-01   5.3123037820496155E-01
   5.3699081845923957E-01   5.4271600114092866E-01   5.4840162844252904E-01
   5.5404327316449709E-01   5.5963637766563989E-01   5.6517625292713392E-01
   5.7065807773801780E-01   5.7607689801032158E-01   5.8142762623222277E-01
   5.8670504106794030E-01   5.9190378711330727E-01   5.9701837481620867E-01
   6.0204318057131478E-01   6.0697244699871233E-01   6.1180028341626280E-01
   6.1652066651564319E-01   6.2112744125220765E-01   6.2561432195890265E-01
   6.2997489369459148E-01   6.3420261383722232E-01   6.3829081393233078E-01
   6.4223270180741476E-01   6.4602136396273602E-01   6.4964976824908627E-01
   6.5311076684302793E-01   6.5639709953005609E-01   6.5950139730603707E-01
   6.6241618630717491E-01   6.6513389207860030E-01   6.6764684419155051E-01
   6.6994728121889047E-01   6.7202735607858077E-01   6.7387914175446684E-01
   6.7549463740355675E-01   6.7686577485875354E-01   6.7798442553573990E-01
   6.7884240775249471E-01   6.7943149446963125E-01   6.7974342145944300E-01
   6.7976989591122827E-01   6.7950260548006558E-01   6.7893322778581833E-01
   6.7805344036865700E-01   6.7685493110688599E-01   6.7532940910226258E-01
   6.7346861603739538E-01   6.7126433800909868E-01   6.6870841784083979E-01
   6.6579276787662789E-01   6.6250938325781905E-01   6.5885035568340933E-01
   6.5480788765341602E-01   6.5037430719388856E-01   6.4554208306104000E-01
   6.4030384042080235E-01   6.3465237699888877E-01   6.2858067969520071E-01
   6.2208194165501318E-01   6.1514957978801399E-01   6.0777725272475558E-01
   5.9995887919853075E-01   5.9168865683911065E-01   5.8296108136303548E-01
   5.7377096614346190E-01   5.6411346214072333E-01   5.5398407817289930E-01
   5.4337870150374623E-01   5.3229361872334280E-01   5.2072553689476375E-01
   5.0867160493794805E-01   4.9612943521983532E-01   4.8309712531756105E-01
   4.6957327991930514E-01   4.5555703282510956E-01   4.4104806900758087E-01
   4.2604664669020081E-01   4.1055361939845653E-01   3.9457045793672074E-01
   3.7809927224145046E-01   3.6114283305881850E-01   3.4370459339269127E-01
   3.2578870966640822E-01   3.0740006253959617E-01   2.8854427731908955E-01
   2.6922774390069937E-01   2.4945763617666464E-01   2.2924193084150979E-01
   2.0858942552708443E-01   1.8750975619599483E-01   1.6601341372068623E-01
   1.4411175957420463E-01   1.2181704055722145E-01   9.9142402484645939E-02
   7.6101902754504250E-02   5.2710521720689907E-02   2.8984172790962433E-02
   4.9397111712724765E-03  -1.9405058822550003E-02  -4.4031377964161400E-02
  -6.8919527905067973E-02  -9.4048828628907469E-02  -1.1939763764718496E-01
  -1.4494335101066577E-01  -1.7066240620852233E-01  -1.9653028702544870E-01
  -2.2252153042464279E-01  -2.4860973552213558E-01  -2.7476757471571095E-01
  -3.0096680702918782E-01  -3.2717829373078788E-01  -3.5337201628233605E-01
  -3.7951709667446626E-01  -4.0558182020181577E-01  -4.3153366073137406E-01
  -4.5733930851676213E-01  -4.8296470061119662E-01  -5.0837505393223692E-01
  -5.3353490103151857E-01  -5.5840812862297462E-01  -5.8295801892220445E-01
  -6.0714729384750887E-01  -6.3093816212893539E-01  -6.5429236936377388E-01
  -6.7717125104554710E-01  -6.9953578857719290E-01  -7.2134666825833327E-01
  -7.4256434321242926E-01  -7.6314909819329213E-01  -7.8306111718480442E-01
  -8.0226055368511406E-01  -8.2070760354854100E-01  -8.3836258024703247E-01
  -8.5518599240696758E-01  -8.7113862347615301E-01  -8.8618161337750623E-01
  -9.0027654200783547E-01  -9.1338551444086491E-01  -9.2547124769112887E-01
  -9.3649715888948948E-01  -9.4642745471162826E-01  -9.5522722188846143E-01
  -9.6286251861320826E-01  -9.6930046664464020E-01  -9.7450934389093258E-01
  -9.7845867724439828E-01  -9.8111933542469520E-01  -9.8246362157723022E-01
  -9.8246536536454654E-01  -9.8110001428126725E-01  -9.7834472391752292E-01
  -9.7417844689135358E-01  -9.6858202016700756E-01  -9.6153825047316421E-01
  -9.5303199753248158E-01  -9.4305025481159255E-01  -9.3158222749844588E-01
  -9.1861940741180736E-01  -9.0415564454590525E-01  -8.8818721495146913E-01
  -8.7071288465317787E-01  -8.5173396930274947E-01  -8.3125438926660333E-01
  -8.0928071984780003E-01  -7.8582223634329040E-01  -7.6089095364018300E-01
  -7.3450166005865014E-01  -7.0667194515404186E-01  -6.7742222119795592E-01
  -6.4677573806620492E-01  -6.1475859127211496E-01  -5.8139972289626707E-01
  -5.4673091517795624E-01  -5.1078677655112359E-01  -4.7360471992651382E-01
  -4.3522493304363102E-01  -3.9569034074084025E-01  -3.5504655901825849E-01
  -3.1334184079813010E-01  -2.7062701331910749E-01  -2.2695540713541545E-01
  -1.8238277672956602E-01  -1.3696721278714527E-01  -9.0769046225987915E-02
  -4.3850744119451807E-02   3.7232022950388511E-03   5.1886397273349441E-02
   1.0057066757680826E-01   1.4970619645895622E-01   1.9922166417260564E-01
   2.4904439446596835E-01   2.9910050645982422E-01   3.4931507122898697E-01
   3.9961227235841756E-01   4.4991556972056745E-01   5.0014786574003278E-01
   5.5023167349110413E-01   6.0008928613009649E-01   6.4964294740874984E-01
   6.9881502334808665E-01   7.4752817554799611E-01   7.9570553700401592E-01
   8.4327089158964730E-01   8.9014885839728486E-01   9.3626508178315049E-01
   9.8154642718489871E-01   1.0259211816802518E+00   1.0693192570974110E+00
   1.1116723926134620E+00   1.1529143534566633E+00   1.1929811226294627E+00
   1.2318110833370337E+00   1.2693451907540012E+00   1.3055271326095308E+00
   1.3403034786526211E+00   1.3736238193408097E+00   1.4054408941389265E+00
   1.4357107097167574E+00   1.4643926481790208E+00   1.4914495653046294E+00
   1.5168478786392536E+00   1.5405576451828915E+00   1.5625526283424243E+00
   1.5828103537740303E+00   1.6013121537225059E+00   1.6180431994734137E+00
   1.6329925215694827E+00   1.6461530175041854E+00   1.6575214466879971E+00
   1.6670984125820287E+00   1.6748883320024250E+00   1.6808993917103565E+00
   1.6851434925112412E+00   1.6876361811878471E+00   1.6883965706824979E+00
   1.6874472490219508E+00   1.6848141775441889E+00   1.6805265790397885E+00
   1.6746168164626865E+00   1.6671202628970838E+00   1.6580751634903734E+00
   1.6475224900774343E+00   1.6355057892304550E+00   1.6220710244717287E+00
   1.6072664133853205E+00   1.5911422603577423E+00   1.5737507856686470E+00
   1.5551459516402855E+00   1.5353832865397499E+00   1.5145197069111589E+00
   1.4926133389963057E+00   1.4697233398824017E+00   1.4459097189943642E+00
   1.4212331605275130E+00   1.3957548473940662E+00   1.3695362872343233E+00
   1.3426391410208833E+00   1.3151250547612852E+00   1.2870554947824013E+00
   1.2584915870571971E+00   1.2294939610124718E+00   1.2001225982361179E+00
   1.1704366864721221E+00   1.1404944792784302E+00   1.1103531617119129E+00
   1.0800687223457406E+00   1.0496958319388647E+00   1.0192877290367339E+00
   9.8889611276281775E-01   9.5857104303662766E-01   9.2836084842984923E-01
   8.9831204184840618E-01   8.6846924420314253E-01   8.3887511620704747E-01
   8.0957029841096373E-01   7.8059335956245557E-01   7.5198075334401626E-01
   7.2376678351513590E-01   6.9598357744845241E-01   6.6866106801193703E-01
   6.4182698370624924E-01   6.1550684691985769E-01   5.8972398011375671E-01
   5.6449951969461798E-01   5.3985243728166199E-01   5.1579956802043514E-01
   4.9235564554958011E-01   4.6953334318644124E-01   4.4734332086690620E-01
   4.2579427735546999E-01   4.0489300723367355E-01   3.8464446217841064E-01
   3.6505181605419185E-01   3.4611653336324189E-01   3.2783844062118594E-01
   3.1021580025155820E-01   2.9324538661684524E-01   2.7692256382564301E-01
   2.6124136497366834E-01   2.4619457249053900E-01   2.3177379927486699E-01
   2.1796957030791547E-01   2.0477140444184883E-01   1.9216789606364376E-01
   1.8014679634060632E-01   1.6869509375930394E-01   1.5779909367686296E-01
   1.4744449661228859E-01   1.3761647501618346E-01   1.2829974826957125E-01
   1.1947865567664595E-01   1.1113722723198302E-01   1.0325925195955682E-01
   9.5828343639057234E-02   8.8828003753785828E-02   8.2241681513920209E-02
   7.6052830828915521E-02   7.0244964122882725E-02   6.4801702907070421E-02
   5.9706825043659525E-02   5.4944308654901658E-02   5.0498372651147309E-02
   4.6353513870162996E-02   4.2494540838439288E-02   3.8906604182689410E-02
   3.5575223736335003E-02   3.2486312401480227E-02   2.9626196841459146E-02
   2.6981635092554648E-02   2.4539831195824337E-02   2.2288446961050885E-02
   2.0215610984713011E-02   1.8309925052435731E-02   1.6560468063682693E-02
   1.4956797622474496E-02   1.3488949442666959E-02   1.2147434719843926E-02
   1.0923235624206891E-02   9.8077990699884862E-03   8.7930289169811087E-03
   7.8712767587818203E-03   7.0353314503822659E-03   6.2784075248529065E-03
   5.5941326451539519E-03   4.9765342326254670E-03   4.4200254085536824E-03
   3.9193903794498587E-03   3.4697693903955776E-03   3.0666433640917940E-03
   2.7058183361624252E-03   2.3834097899036962E-03   2.0958269860988019E-03
   1.8397573758146745E-03   1.6121511763382511E-03   1.4102061826504031E-03
   1.2313528791514431E-03   1.0732399087975393E-03   9.3371994943109978E-04
   8.1083603994998039E-04   7.0280839209164818E-04   6.0802171705350288E-04
   5.2501308995791445E-04   4.5246036932320013E-04   3.8917118324343535E-04
   3.3407248892102073E-04   2.8620070754810530E-04   2.4469243229930640E-04
   2.0877570338339956E-04   1.7776184069775929E-04   1.5103782163469352E-04
   1.2805918899185326E-04   1.0834347172838738E-04   9.1464099468251321E-05
   7.7044790165683389E-05   6.4754389194423797E-05   5.4302137280266984E-05
   4.5433344143255448E-05   3.7925444424055622E-05   3.1584412418438086E-05
   2.6241512302804892E-05   2.1750360881559875E-05   1.7984280396689794E-05
   1.4833919587663025E-05   1.2205121952635433E-05   1.0017021018263694E-05
   8.2003433549097960E-06   6.6959010579824240E-06   5.4532564377204229E-06
   4.4295427027887645E-06   3.5884254752539032E-06   2.8991910220957308E-06
   2.3359481220120196E-06   1.8769314964487433E-06   1.5038957130256000E-06
   1.2015894116479854E-06   9.5730060369155147E-07   7.6046464894648800E-07
   6.0232732083377195E-07   4.7565612607964692E-07   3.7449374953320974E-07
   2.9394814830303367E-07   2.3001442212425370E-07   1.7942414007677968E-07
   1.3951830901551481E-07   1.0814062821239394E-07   8.3548089985829559E-08
   6.4336359926453079E-08   4.9377705295386100E-08   3.7769538939062711E-08
   2.8791911340903840E-08   2.1872517893065209E-08   1.6557994798428704E-08
   1.2490457759512679E-08   9.3883952357636183E-09   7.0311649276854777E-09
   5.2464604649853254E-09   3.9002171072774944E-09   2.8885125198016521E-09
   2.1310931196754240E-09   1.5662197031475446E-09   1.1465795141059666E-09
   8.3605690517985044E-10   6.0719244477065299E-10   4.3919177818914993E-10
   3.1637167000022666E-10   2.2695225038036667E-10   1.6212225953955026E-10
   1.1531864237572332E-10   8.1673716382275691E-11   5.7592770546990462E-11
   4.0432736248842862E-11   2.8258829162241177E-11   1.9661068966093088E-11
   1.3616571601202219E-11   9.3866698134146460E-12   6.4404102864138551E-12
   4.3979321252037433E-12   2.9887591525342518E-12   2.0212255042150164E-12
   1.3601716465059204E-12   9.1075369948107831E-13   6.0674895386653220E-13
   4.0215149136636912E-13   2.6529907811578274E-13   1.8166491588809962E-13
  -1.4560417182898408E-14  -3.9361388361594871E-16   0.0000000000000000E+00
   0.0000000000000000E+00   0.0000000000000000E+00   0.0000000000000000E+00
   0.0000000000000000E+00   0.0000000000000000E+00   0.0000000000000000E+00
   0.0000000000000000E+00   0.0000000000000000E+00   0.0000000000000000E+00
   0.0000000000000000E+00   0.0000000000000000E+00   0.0000000000000000E+00
   0.0000000000000000E+00   0.0000000000000000E+00   0.0000000000000000E+00
   0.0000000000000000E+00   0.0000000000000000E+00   0.0000000000000000E+00
   0.0000000000000000E+00   0.0000000000000000E+00   0.0000000000000000E+00
   0.0000000000000000E+00   0.0000000000000000E+00   0.0000000000000000E+00
   0.0000000000000000E+00   0.0000000000000000E+00   0.0000000000000000E+00
   0.0000000000000000E+00   0.0000000000000000E+00   0.0000000000000000E+00
   0.0000000000000000E+00   0.0000000000000000E+00   0.0000000000000000E+00
   0.0000000000000000E+00   0.0000000000000000E+00   0.0000000000000000E+00
   0.0000000000000000E+00   0.0000000000000000E+00   0.0000000000000000E+00
   0.0000000000000000E+00   0.0000000000000000E+00   0.0000000000000000E+00
   0.0000000000000000E+00   0.0000000000000000E+00   0.0000000000000000E+00
   0.0000000000000000E+00   0.0000000000000000E+00   0.0000000000000000E+00
   0.0000000000000000E+00   0.0000000000000000E+00   0.0000000000000000E+00
   0.0000000000000000E+00   0.0000000000000000E+00   0.0000000000000000E+00
   0.0000000000000000E+00   0.0000000000000000E+00   0.0000000000000000E+00
   0.0000000000000000E+00   0.0000000000000000E+00   0.0000000000000000E+00
   0.0000000000000000E+00   0.0000000000000000E+00   0.0000000000000000E+00
     </PP_GIPAW_CORE_ORBITAL.8>
     <PP_GIPAW_CORE_ORBITAL.9 size="1164" index="9" label="4D" n="4" l="2">
   0.0000000000000000E+00  -4.2959597521731757E-11  -4.4346166582434915E-11
  -4.5779160649211646E-11  -4.7260157035976308E-11  -4.8790727921942029E-11
  -5.0372479762449851E-11  -5.2007072318319436E-11  -5.3696220816471236E-11
  -5.5441697751425708E-11  -5.7245334746956537E-11  -5.9109024479892718E-11
  -6.1034722668093095E-11  -6.3024450124684361E-11  -6.5080294880724658E-11
  -6.7204414378527076E-11  -6.9399037737949816E-11  -7.1666468098040108E-11
  -7.4009085036494336E-11  -7.6429347069482117E-11  -7.8929794234466157E-11
  -8.1513050758734391E-11  -8.4181827816457342E-11  -8.6938926377168096E-11
  -8.9787240148669033E-11  -9.2729758617459904E-11  -9.5769570189890211E-11
  -9.8909865437343512E-11  -1.0215394044887002E-10  -1.0550520029479925E-10
  -1.0896716260497907E-10  -1.1254346126541082E-10  -1.1623785023717387E-10
  -1.2005420750166159E-10  -1.2399653913628494E-10  -1.2806898352493767E-10
  -1.3227581570765785E-10  -1.3662145187407005E-10  -1.4111045400534008E-10
  -1.4574753466953702E-10  -1.5053756197545236E-10  -1.5548556469009907E-10
  -1.6059673752528289E-10  -1.6587644659881854E-10  -1.7133023507614635E-10
  -1.7696382899829728E-10  -1.8278314330234891E-10  -1.8879428804072065E-10
  -1.9500357480586586E-10  -2.0141752336713262E-10  -2.0804286852679438E-10
  -2.1488656720248046E-10  -2.2195580574347299E-10  -2.2925800748859182E-10
  -2.3680084057363328E-10  -2.4459222599660609E-10  -2.5264034594926508E-10
  -2.6095365242374000E-10  -2.6954087610333595E-10  -2.7841103554688812E-10
  -2.8757344667636491E-10  -2.9703773257773122E-10  -3.0681383362541366E-10
  -3.1691201794106205E-10  -3.2734289219764004E-10  -3.3811741278025553E-10
  -3.4924689731551566E-10  -3.6074303658157498E-10  -3.7261790681146436E-10
  -3.8488398240268280E-10  -3.9755414904648240E-10  -4.1064171729071642E-10
  -4.2416043655057569E-10  -4.3812450958201572E-10  -4.5254860743316691E-10
  -4.6744788488953092E-10  -4.8283799642928375E-10  -4.9873511270554391E-10
  -5.1515593757303948E-10  -5.3211772567716181E-10  -5.4963830062401063E-10
  -5.6773607375063616E-10  -5.8643006351532970E-10  -6.0573991552847344E-10
  -6.2568592324513073E-10  -6.4628904934126196E-10  -6.6757094779619387E-10
  -6.8955398670469489E-10  -7.1226127184279499E-10  -7.3571667101229709E-10
  -7.5994483918974414E-10  -7.8497124450645389E-10  -8.1082219508713805E-10
  -8.3752486677551473E-10  -8.6510733177626916E-10  -8.9359858824370874E-10
  -9.2302859084843935E-10  -9.5342828235443858E-10  -9.8482962624000214E-10
  -1.0172656403970994E-09  -1.0507704319448662E-09  -1.0853792331941328E-09
  -1.1211284388010905E-09  -1.1580556441495123E-09  -1.1961996850021916E-09
  -1.2356006784636794E-09  -1.2763000652977230E-09  -1.3183406536443359E-09
  -1.3617666641828385E-09  -1.4066237767888095E-09  -1.4529591787344558E-09
  -1.5008216144835401E-09  -1.5502614371337426E-09  -1.6013306615610641E-09
  -1.6540830193226716E-09  -1.7085740153765453E-09  -1.7648609866780986E-09
  -1.8230031627160765E-09  -1.8830617280520165E-09  -1.9450998869297342E-09
  -2.0091829300234798E-09  -2.0753783033957648E-09  -2.1437556797380983E-09
  -2.2143870319704431E-09  -2.2873467092776190E-09  -2.3627115156635691E-09
  -2.4405607911069919E-09  -2.5209764954047874E-09  -2.6040432947924008E-09
  -2.6898486514334479E-09  -2.7784829158736739E-09  -2.8700394225578683E-09
  -2.9646145885113339E-09  -3.0623080152911112E-09  -3.1632225943154425E-09
  -3.2674646156838742E-09  -3.3751438806037979E-09  -3.4863738175433955E-09
  -3.6012716022347285E-09  -3.7199582816550075E-09  -3.8425589021182301E-09
  -3.9692026416137914E-09  -4.1000229465333458E-09  -4.2351576729317951E-09
  -4.3747492324730774E-09  -4.5189447432168017E-09  -4.6678961854064487E-09
  -4.8217605624257226E-09  -4.9807000670949641E-09  -5.1448822534851878E-09
  -5.3144802144335321E-09  -5.4896727649496896E-09  -5.6706446317095386E-09
  -5.8575866488385615E-09  -6.0506959601944573E-09  -6.2501762283653248E-09
  -6.4562378506071454E-09  -6.6690981819515757E-09  -6.8889817657229867E-09
  -7.1161205717115673E-09  -7.3507542422574772E-09  -7.5931303465098404E-09
  -7.8435046431329094E-09  -8.1021413517409951E-09  -8.3693134333531823E-09
  -8.6453028801684371E-09  -8.9304010149721130E-09  -9.2249088004948415E-09
  -9.5291371590559572E-09  -9.8434073028343046E-09  -1.0168051075121341E-08
  -1.0503411302922666E-08  -1.0849842161286983E-08  -1.1207709549753624E-08
  -1.1577391481323664E-08  -1.1959278484372220E-08  -1.2353774017934574E-08
  -1.2761294900812484E-08  -1.3182271754962376E-08  -1.3617149463642626E-08
  -1.4066387644813116E-08  -1.4530461140296618E-08  -1.5009860521229025E-08
  -1.5505092610342767E-08  -1.6016681021646448E-08  -1.6545166718082289E-08
  -1.7091108587762656E-08  -1.7655084039407340E-08  -1.8237689617623749E-08
  -1.8839541638694061E-08  -1.9461276847556215E-08  -2.0103553096687199E-08
  -2.0767050047622670E-08  -2.1452469895870845E-08  -2.2160538120004025E-08
  -2.2892004255737513E-08  -2.3647642695833622E-08  -2.4428253516695647E-08
  -2.5234663332546808E-08  -2.6067726178118645E-08  -2.6928324420804888E-08
  -2.7817369703269121E-08  -2.8735803917527344E-08  -2.9684600211561843E-08
  -3.0664764029557964E-08  -3.1677334186892169E-08  -3.2723383981037842E-08
  -3.3804022339595410E-08  -3.4920395006692911E-08  -3.6073685769046602E-08
  -3.7265117723013934E-08  -3.8495954584015997E-08  -3.9767502039754601E-08
  -4.1081109148695655E-08  -4.2438169785341602E-08  -4.3840124133866649E-08
  -4.5288460231741434E-08  -4.6784715565030325E-08  -4.8330478717100108E-08
  -4.9927391072538376E-08  -5.1577148578140929E-08  -5.3281503562890918E-08
  -5.5042266618916667E-08  -5.6861308545483627E-08  -5.8740562358145961E-08
  -6.0682025365253350E-08  -6.2687761314086016E-08  -6.4759902608965941E-08
  -6.6900652603774527E-08  -6.9112287971385920E-08  -7.1397161152614402E-08
  -7.3757702887361174E-08  -7.6196424830735285E-08  -7.8715922257022351E-08
  -8.1318876854468099E-08  -8.4008059613947806E-08  -8.6786333814695450E-08
  -8.9656658110376649E-08  -9.2622089718899917E-08  -9.5685787719475710E-08
  -9.8851016460556584E-08  -1.0212114908240879E-07  -1.0549967115820206E-07
  -1.0899018445763082E-07  -1.1259641083721784E-07  -1.1632219626159740E-07
  -1.2017151496021678E-07  -1.2414847372404964E-07  -1.2825731634707211E-07
  -1.3250242821741149E-07  -1.3688834106325144E-07  -1.4141973785874400E-07
  -1.4610145789536669E-07  -1.5093850202434287E-07  -1.5593603807593701E-07
  -1.6109940646164089E-07  -1.6643412596546424E-07  -1.7194589973076317E-07
  -1.7764062144926111E-07  -1.8352438175913494E-07  -1.8960347485928888E-07
  -1.9588440534717540E-07  -2.0237389528777050E-07  -2.0907889152158657E-07
  -2.1600657321985976E-07  -2.2316435969533840E-07  -2.3055991847739144E-07
  -2.3820117366044175E-07  -2.4609631453505608E-07  -2.5425380451132946E-07
  -2.6268239034454363E-07  -2.7139111167341888E-07  -2.8038931088162823E-07
  -2.8968664329362465E-07  -2.9929308771619537E-07  -3.0921895733756231E-07
  -3.1947491099625274E-07  -3.3007196483237808E-07  -3.4102150433441096E-07
  -3.5233529679497973E-07  -3.6402550418968330E-07  -3.7610469649341551E-07
  -3.8858586544915452E-07  -4.0148243880474930E-07  -4.1480829503370228E-07
  -4.2857777855655658E-07  -4.4280571548004057E-07  -4.5750742987171354E-07
  -4.7269876058849667E-07  -4.8839607867806980E-07  -5.0461630537280765E-07
  -5.2137693069658820E-07  -5.3869603270550489E-07  -5.5659229738427577E-07
  -5.7508503922085024E-07  -5.9419422248252774E-07  -6.1394048321770235E-07
  -6.3434515200816794E-07  -6.5543027749780818E-07  -6.7721865072436749E-07
  -6.9973383028192978E-07  -7.2300016834271840E-07  -7.4704283756775556E-07
  -7.7188785893703726E-07  -7.9756213053085466E-07  -8.2409345729504557E-07
  -8.5151058182409177E-07  -8.7984321619712086E-07  -9.0912207490313473E-07
  -9.3937890889302630E-07  -9.7064654079723114E-07  -1.0029589013492724E-06
  -1.0363510670567578E-06  -1.0708592991629605E-06  -1.1065210839434827E-06
  -1.1433751743841391E-06  -1.1814616332877988E-06  -1.2208218778594874E-06
  -1.2614987258209188E-06  -1.3035364431072852E-06  -1.3469807932010031E-06
  -1.3918790881590725E-06  -1.4382802413925683E-06  -1.4862348222589625E-06
  -1.5357951125299354E-06  -1.5870151647996840E-06  -1.6399508629007711E-06
  -1.6946599843972002E-06  -1.7512022652265228E-06  -1.8096394665654915E-06
  -1.8700354439962975E-06  -1.9324562190530635E-06  -1.9969700532311843E-06
  -2.0636475245447947E-06  -2.1325616067207928E-06  -2.2037877511208505E-06
  -2.2774039714859124E-06  -2.3534909316012784E-06  -2.4321320359834898E-06
  -2.5134135236938208E-06  -2.5974245653871033E-06  -2.6842573637078950E-06
  -2.7740072571504652E-06  -2.8667728275026946E-06  -2.9626560109983731E-06
  -3.0617622133067908E-06  -3.1642004284926657E-06  -3.2700833620846138E-06
  -3.3795275583946884E-06  -3.4926535322367292E-06  -3.6095859051965076E-06
  -3.7304535466115243E-06  -3.8553897194245363E-06  -3.9845322310798831E-06
  -4.1180235896380362E-06  -4.2560111652898015E-06  -4.3986473574576344E-06
  -4.5460897676786371E-06  -4.6985013784700437E-06  -4.8560507383850864E-06
  -5.0189121534747855E-06  -5.1872658853779818E-06  -5.3612983562704587E-06
  -5.5412023609113554E-06  -5.7271772860337280E-06  -5.9194293373347513E-06
  -6.1181717743294200E-06  -6.3236251533415508E-06  -6.5360175789147979E-06
  -6.7555849639362831E-06  -6.9825712987761191E-06  -7.2172289297555825E-06
  -7.4598188472689300E-06  -7.7106109838938417E-06  -7.9698845228378554E-06
  -8.2379282170800426E-06  -8.5150407195792916E-06  -8.8015309249339583E-06
  -9.0977183228906572E-06  -9.4039333641135636E-06  -9.7205178386404340E-06
  -1.0047825267465341E-05  -1.0386221307704521E-05  -1.0736084171816400E-05
  -1.1097805061363696E-05  -1.1471788615822460E-05  -1.1858453376959824E-05
  -1.2258232269320627E-05  -1.2671573097381696E-05  -1.3098939059951453E-05
  -1.3540809282413052E-05  -1.3997679367428968E-05  -1.4470061964746875E-05
  -1.4958487360768781E-05  -1.5463504088567225E-05  -1.5985679559056698E-05
  -1.6525600714052722E-05  -1.7083874701974736E-05  -1.7661129576977646E-05
  -1.8258015022320448E-05  -1.8875203098810557E-05  -1.9513389019190207E-05
  -2.0173291949359814E-05  -2.0855655837366727E-05  -2.1561250271115226E-05
  -2.2290871365790637E-05  -2.3045342682020798E-05  -2.3825516175834375E-05
  -2.4632273181512328E-05  -2.5466525428463881E-05  -2.6329216093298937E-05
  -2.7221320888307875E-05  -2.8143849187598804E-05  -2.9097845192189070E-05
  -3.0084389135386574E-05  -3.1104598529845016E-05  -3.2159629457723319E-05
  -3.3250677905425197E-05  -3.4378981144449020E-05  -3.5545819159925390E-05
  -3.6752516128474666E-05  -3.8000441947073063E-05  -3.9291013814667103E-05
  -4.0625697868342824E-05  -4.2006010875907431E-05  -4.3433521986811192E-05
  -4.4909854543395938E-05  -4.6436687954524383E-05  -4.8015759633715590E-05
  -4.9648867003978041E-05  -5.1337869571607279E-05  -5.3084691071290113E-05
  -5.4891321684932598E-05  -5.6759820336713228E-05  -5.8692317066939910E-05
  -6.0691015487378218E-05  -6.2758195320806537E-05  -6.4896215027636874E-05
  -6.7107514522546835E-05  -6.9394617984149781E-05  -7.1760136760839541E-05
  -7.4206772376045080E-05  -7.6737319636231092E-05  -7.9354669845100733E-05
  -8.2061814127554243E-05  -8.4861846867084379E-05  -8.7757969260402943E-05
  -9.0753492993212351E-05  -9.3851844041171244E-05  -9.7056566600224123E-05
  -1.0037132715060255E-04  -1.0379991865894560E-04  -1.0734626492312243E-04
  -1.1101442506449564E-04  -1.1480859817250426E-04  -1.1873312810660822E-04
  -1.2279250846079263E-04  -1.2699138769598907E-04  -1.3133457444595306E-04
  -1.3582704300229678E-04  -1.4047393898456174E-04  -1.4528058520140265E-04
  -1.5025248770913084E-04  -1.5539534207407879E-04  -1.6071503984543009E-04
  -1.6621767524537377E-04  -1.7190955208365238E-04  -1.7779719090378599E-04
  -1.8388733636848478E-04  -1.9018696489198837E-04  -1.9670329252729943E-04
  -2.0344378311653978E-04  -2.1041615671287767E-04  -2.1762839828276087E-04
  -2.2508876669743007E-04  -2.3280580402296080E-04  -2.4078834511837160E-04
  -2.4904552755159311E-04  -2.5758680184341352E-04  -2.6642194204979139E-04
  -2.7556105669323757E-04  -2.8501460005429921E-04  -2.9479338383445517E-04
  -3.0490858920212524E-04  -3.1537177923377332E-04  -3.2619491176246346E-04
  -3.3739035264657787E-04  -3.4897088947174711E-04  -3.6094974569944881E-04
  -3.7334059527607827E-04  -3.8615757771669169E-04  -3.9941531367804119E-04
  -4.1312892103587882E-04  -4.2731403148197830E-04  -4.4198680765670384E-04
  -4.5716396083339908E-04  -4.7286276917133676E-04  -4.8910109655436274E-04
  -5.0589741203290719E-04  -5.2327080988743007E-04  -5.4124103033189100E-04
  -5.5982848087632060E-04  -5.7905425836803429E-04  -5.9894017173157846E-04
  -6.1950876542799058E-04  -6.4078334365448011E-04  -6.6278799530617956E-04
  -6.8554761972215196E-04  -7.0908795323838163E-04  -7.3343559657107699E-04
  -7.5861804305411634E-04  -7.8466370775511678E-04  -8.1160195749511435E-04
  -8.3946314179751485E-04  -8.6827862479252793E-04  -8.9808081810387869E-04
  -9.2890321474530305E-04  -9.6078042405482484E-04  -9.9374820769555219E-04
  -1.0278435167522947E-03  -1.0631045299539605E-03  -1.0995706930523427E-03
  -1.1372827593885309E-03  -1.1762828316788511E-03  -1.2166144050528903E-03
  -1.2583224113767789E-03  -1.3014532648956286E-03  -1.3460549092295820E-03
  -1.3921768657586865E-03  -1.4398702834323837E-03  -1.4891879900400828E-03
  -1.5401845449799479E-03  -1.5929162935636055E-03  -1.6474414228952001E-03
  -1.7038200193638161E-03  -1.7621141277888326E-03  -1.8223878122585356E-03
  -1.8847072187027148E-03  -1.9491406392407548E-03  -2.0157585783471001E-03
  -2.0846338208766950E-03  -2.1558415019933704E-03  -2.2294591790447413E-03
  -2.3055669054276784E-03  -2.3842473064887800E-03  -2.4655856575047808E-03
  -2.5496699637881466E-03  -2.6365910429635348E-03  -2.7264426094610402E-03
  -2.8193213612725345E-03  -2.9153270690174776E-03  -3.0145626673649282E-03
  -3.1171343488584813E-03  -3.2231516601910161E-03  -3.3327276009761718E-03
  -3.4459787250632804E-03  -3.5630252444426285E-03  -3.6839911357873880E-03
  -3.8090042496786822E-03  -3.9381964225595582E-03  -4.0717035914634636E-03
  -4.2096659115621136E-03  -4.3522278765771149E-03  -4.4995384420990249E-03
  -4.6517511518565195E-03  -4.8090242669775853E-03  -4.9715208982833853E-03
  -5.1394091416544323E-03  -5.3128622165071514E-03  -5.4920586074176598E-03
  -5.6771822089276662E-03  -5.8684224735659008E-03  -6.0659745631162203E-03
  -6.2700395031615001E-03  -6.4808243409302984E-03  -6.6985423064703422E-03
  -6.9234129771704230E-03  -7.1556624456492477E-03  -7.3955234910267438E-03
  -7.6432357535895831E-03  -7.8990459128594846E-03  -8.1632078690685051E-03
  -8.4359829280415671E-03  -8.7176399894820459E-03  -9.0084557386513296E-03
  -9.3087148414283689E-03  -9.6187101427295668E-03  -9.9387428682639906E-03
  -1.0269122829592652E-02  -1.0610168632454179E-02  -1.0962207888312458E-02
  -1.1325577429074602E-02  -1.1700623524919978E-02  -1.2087702105173438E-02
  -1.2487178982146602E-02  -1.2899430077863311E-02  -1.3324841653574952E-02
  -1.3763810541962216E-02  -1.4216744381909568E-02  -1.4684061855727100E-02
  -1.5166192928684390E-02  -1.5663579090707841E-02  -1.6176673600081046E-02
  -1.6705941728975191E-02  -1.7251861010621709E-02  -1.7814921487926596E-02
  -1.8395625963309223E-02  -1.8994490249534781E-02  -1.9612043421291823E-02
  -2.0248828067250514E-02  -2.0905400542318854E-02  -2.1582331219796708E-02
  -2.2280204743107084E-02  -2.2999620276766601E-02  -2.3741191756233841E-02
  -2.4505548136255224E-02  -2.5293333637305120E-02  -2.6105207989692764E-02
  -2.6941846674888061E-02  -2.7803941163589401E-02  -2.8692199150035784E-02
  -2.9607344782035395E-02  -3.0550118886157777E-02  -3.1521279187508668E-02
  -3.2521600523476170E-02  -3.3551875050809185E-02  -3.4612912445355769E-02
  -3.5705540093759341E-02  -3.6830603276377924E-02  -3.7988965340655233E-02
  -3.9181507864142567E-02  -4.0409130806329643E-02  -4.1672752648408813E-02
  -4.2973310520060426E-02  -4.4311760312303827E-02  -4.5689076775423942E-02
  -4.7106253600939132E-02  -4.8564303486533567E-02  -5.0064258182837981E-02
  -5.1607168520893108E-02  -5.3194104419089665E-02  -5.4826154868329001E-02
  -5.6504427894100220E-02  -5.8230050494129222E-02  -6.0004168550189724E-02
  -6.1827946712633058E-02  -6.3702568256136100E-02  -6.5629234905104819E-02
  -6.7609166627144432E-02  -6.9643601392926455E-02  -7.1733794900751893E-02
  -7.3881020264059724E-02  -7.6086567660059612E-02  -7.8351743937652013E-02
  -8.0677872182724791E-02  -8.3066291238884482E-02  -8.5518355181650491E-02
  -8.8035432744073411E-02  -9.0618906691739207E-02  -9.3270173145065499E-02
  -9.5990640846774597E-02  -9.8781730372420370E-02  -1.0164487328179450E-01
  -1.0458151120905355E-01  -1.0759309488937460E-01  -1.1068108311993634E-01
  -1.1384694165302926E-01  -1.1709214201906995E-01  -1.2041816027731128E-01
  -1.2382647569201949E-01  -1.2731856933190552E-01  -1.3089592259058880E-01
  -1.3456001562588038E-01  -1.3831232571567981E-01  -1.4215432552829463E-01
  -1.4608748130499491E-01  -1.5011325095264838E-01  -1.5423308204428479E-01
  -1.5844840972548371E-01  -1.6276065452448121E-01  -1.6717122006394694E-01
  -1.7168149067240387E-01  -1.7629282889328982E-01  -1.8100657288974265E-01
  -1.8582403374317544E-01  -1.9074649264382659E-01  -1.9577519797150039E-01
  -2.0091136226477715E-01  -2.0615615907711848E-01  -2.1151071971831775E-01
  -2.1697612987993464E-01  -2.2255342614346596E-01  -2.2824359237013106E-01
  -2.3404755597139115E-01  -2.3996618405943065E-01  -2.4600027947708886E-01
  -2.5215057670695107E-01  -2.5841773765948428E-01  -2.6480234734044006E-01
  -2.7130490939793495E-01  -2.7792584154992933E-01  -2.8466547089314975E-01
  -2.9152402909473285E-01  -2.9850164746828117E-01  -3.0559835193631391E-01
  -3.1281405788145938E-01  -3.2014856488916632E-01  -3.2760155138503350E-01
  -3.3517256917035787E-01  -3.4286103785988997E-01  -3.5066623922625734E-01
  -3.5858731145602268E-01  -3.6662324332279655E-01  -3.7477286828338829E-01
  -3.8303485850349911E-01  -3.9140771881999387E-01  -3.9988978064742281E-01
  -4.0847919583698483E-01  -4.1717393049679041E-01  -4.2597175878286692E-01
  -4.3487025667100565E-01  -4.4386679572020415E-01  -4.5295853683909282E-01
  -4.6214242406745959E-01  -4.7141517838559244E-01  -4.8077329156492848E-01
  -4.9021302007413159E-01  -4.9973037905542533E-01  -5.0932113638674781E-01
  -5.1898080684589487E-01  -5.2870464639359716E-01  -5.3848764659309167E-01
  -5.4832452918441821E-01  -5.5820974083235964E-01  -5.6813744806749056E-01
  -5.7810153244049034E-01  -5.8809558591040823E-01  -5.9811290648808435E-01
  -6.0814649415652788E-01  -6.1818904709041422E-01  -6.2823295819735925E-01
  -6.3827031200400952E-01  -6.4829288191021106E-01  -6.5829212783490276E-01
  -6.6825919427746971E-01  -6.7818490881841986E-01  -6.8805978108336630E-01
  -6.9787400219408580E-01  -7.0761744473045074E-01  -7.1727966322667625E-01
  -7.2684989522502297E-01  -7.3631706290972831E-01  -7.4566977534331746E-01
  -7.5489633132696943E-01  -7.6398472290592867E-01  -7.7292263954026741E-01
  -7.8169747296074088E-01  -7.9029632272879469E-01  -7.9870600251937651E-01
  -8.0691304714488343E-01  -8.1490372033846947E-01  -8.2266402331519772E-01
  -8.3017970413001985E-01  -8.3743626785248715E-01  -8.4441898757936207E-01
  -8.5111291630795571E-01  -8.5750289969497928E-01  -8.6357358972796494E-01
  -8.6930945933869908E-01  -8.7469481799061655E-01  -8.7971382827441891E-01
  -8.8435052354801591E-01  -8.8858882665803918E-01  -8.9241256977982686E-01
  -8.9580551541051923E-01  -8.9875137854502307E-01  -9.0123385005628975E-01
  -9.0323662128960569E-01  -9.0474340986531054E-01  -9.0573798666660332E-01
  -9.0620420397036583E-01  -9.0612602466135073E-01  -9.0548755245589396E-01
  -9.0427306305236610E-01  -9.0246703612285428E-01  -9.0005418806383075E-01
  -8.9701950543158959E-01  -8.9334827899884772E-01  -8.8902613837974209E-01
  -8.8403908717948887E-01  -8.7837353863055867E-01  -8.7201635167884484E-01
  -8.6495486748094630E-01  -8.5717694626801411E-01  -8.4867100452372024E-01
  -8.3942605241475221E-01  -8.2943173140295534E-01  -8.1867835195961947E-01
  -8.0715693129490196E-01  -7.9485923100942946E-01  -7.8177779457060115E-01
  -7.6790598451299474E-01  -7.5323801926018452E-01  -7.3776900946398127E-01
  -7.2149499375619131E-01  -7.0441297380717782E-01  -6.8652094858466428E-01
  -6.6781794770494995E-01  -6.4830406376729099E-01  -6.2798048356027047E-01
  -6.0684951802671550E-01  -5.8491463087137230E-01  -5.6218046569270930E-01
  -5.3865287151762442E-01  -5.1433892661513758E-01  -4.8924696046246324E-01
  -4.6338657373484077E-01  -4.3676865618833405E-01  -4.0940540230355410E-01
  -3.8131032455749153E-01  -3.5249826419023955E-01  -3.2298539933451198E-01
  -2.9278925037709086E-01  -2.6192868242410328E-01  -2.3042390474596802E-01
  -1.9829646708236093E-01  -1.6556925269430459E-01  -1.3226646805772846E-01
  -9.8413629101828937E-02  -6.4037543906347430E-02  -2.9166291783246499E-02
   6.1708013178046134E-03   4.1943191125958505E-02   7.8119147116868584E-02
   1.1466578834169122E-01   1.5154912300701318E-01   1.8873409177153172E-01
   2.2618461469850601E-01   2.6386364177272059E-01   3.0173320685525057E-01
   3.3975448491015425E-01   3.7788785229285227E-01   4.1609294984248918E-01
   4.5432874847240184E-01   4.9255361690728316E-01   5.3072539118008943E-01
   5.6880144548341738E-01   6.0673876398052129E-01   6.4449401323230482E-01
   6.8202361500204445E-01   7.1928381937196417E-01   7.5623077835176467E-01
   7.9282062047387192E-01   8.2900952722350774E-01   8.6475381247948691E-01
   9.0001000633976269E-01   9.3473494464669471E-01   9.6888586510630881E-01
   1.0024205100972856E+00   1.0352972352165430E+00   1.0674751215747280E+00
   1.0989140891482914E+00   1.1295750083368785E+00   1.1594198072856456E+00
   1.1884115733318070E+00   1.2165146478403488E+00   1.2436947144515533E+00
   1.2699188812388162E+00   1.2951557574600183E+00   1.3193755255536497E+00
   1.3425500088799438E+00   1.3646527355165272E+00   1.3856589982375593E+00
   1.4055459106543147E+00   1.4242924593771458E+00   1.4418795519710375E+00
   1.4582900604144307E+00   1.4735088597329509E+00   1.4875228614650933E+00
   1.5003210416252541E+00   1.5118944628601609E+00   1.5222362905434783E+00
   1.5313418026162908E+00   1.5392083930524618E+00   1.5458355689017560E+00
   1.5512249409358512E+00   1.5553802079886734E+00   1.5583071351408502E+00
   1.5600135259472294E+00   1.5605091889460130E+00   1.5598058987188534E+00
   1.5579173517938278E+00   1.5548591176989561E+00   1.5506485854836543E+00
   1.5453049060304860E+00   1.5388489304805753E+00   1.5313031450938364E+00
   1.5226916028604975E+00   1.5130398521736166E+00   1.5023748628640436E+00
   1.4907249498897204E+00   1.4781196949609225E+00   1.4645898663720167E+00
   1.4501673372991450E+00   1.4348850028118882E+00   1.4187766958358459E+00
   1.4018771022923826E+00   1.3842216756315955E+00   1.3658465509651556E+00
   1.3467884589973274E+00   1.3270846399446845E+00   1.3067727576289954E+00
   1.2858908139221161E+00   1.2644770637176401E+00   1.2425699306009330E+00
   1.2202079233868235E+00   1.1974295536931137E+00   1.1742732547174684E+00
   1.1507773013852038E+00   1.1269797320371586E+00   1.1029182718249888E+00
   1.0786302579880149E+00   1.0541525671837928E+00   1.0295215450473336E+00
   1.0047729381583383E+00   9.7994182859750434E-01   9.5506257127629313E-01
   9.3016873422695123E-01   9.0529304204086936E-01   8.8046732264316796E-01
   8.5572245758763243E-01   8.3108833604863996E-01   8.0659381267363806E-01
   7.8226666943985246E-01   7.5813358163224331E-01   7.3422008802520422E-01
   7.1055056530959126E-01   6.8714820676071098E-01   6.6403500509407365E-01
   6.4123173940782308E-01   6.1875796606656586E-01   5.9663201334463012E-01
   5.7487097962016476E-01   5.5349073489645939E-01   5.3250592542411834E-01
   5.1192998120588673E-01   4.9177512618323221E-01   4.7205239092690748E-01
   4.5277162767973539E-01   4.3394152762532712E-01   4.1556964027902404E-01
   3.9766239491507910E-01   3.8022512395606950E-01   3.6326208825674072E-01
   3.4677650421531858E-01   3.3077057264174087E-01   3.1524550930562484E-01
   3.0020157707787237E-01   2.8563811957012847E-01   2.7155359616648700E-01
   2.5794561833240887E-01   2.4481098707766211E-01   2.3214573144293404E-01
   2.1994514787406680E-01   2.0820384034367087E-01   1.9691576107669925E-01
   1.8607425173498238E-01   1.7567208491500413E-01   1.6570150581363594E-01
   1.5615427391801140E-01   1.4702170457785477E-01   1.3829471032174537E-01
   1.2996384178258366E-01   1.2201932810198246E-01   1.1445111668856867E-01
   1.0724891221082697E-01   1.0040221471146916E-01   9.3900356737103632E-02
   8.7732539384137664E-02   8.1887867169513517E-02   7.6355381642714118E-02
   7.1124093663645443E-02   6.6183014279348765E-02   6.1521184140896572E-02
   5.7127701410377318E-02   5.2991748116338853E-02   4.9102614924509069E-02
   4.5449724298938413E-02   4.2022652036853014E-02   3.8811147168450570E-02
   3.5805150220605902E-02   3.2994809850815869E-02   3.0370497864835665E-02
   2.7922822638209308E-02   2.5642640968275485E-02   2.3521068389229259E-02
   2.1549487988414152E-02   1.9719557767183468E-02   1.8023216594414776E-02
   1.6452688805055370E-02   1.5000487499909893E-02   1.3659416606274594E-02
   1.2422571761920215E-02   1.1283340087385079E-02   1.0235398913511481E-02
   9.2727135326701963E-03   8.3895340431883111E-03   7.5803913571027594E-03
   6.8400924415636189E-03   6.1637148640032689E-03   5.5466007105920163E-03
   4.9843499465701399E-03   4.4728132857714369E-03   4.0080846350890433E-03
   3.5864931777962548E-03   3.2045951575366514E-03   2.8591654224799957E-03
   2.5471887866037376E-03   2.2658512623313942E-03   2.0125312158592681E-03
   1.7847904934417641E-03   1.5803655637161578E-03   1.3971587178449514E-03
   1.2332293658700679E-03   1.0867854642402596E-03   9.5617510601580516E-04
   8.3987830181420195E-04   7.3649897616244941E-04   6.4475720059881884E-04
   5.6348168164851553E-04   4.9160251870190733E-04   4.2814424387897359E-04
   3.7221915317678757E-04   3.2302093558563835E-04   2.7981860442964369E-04
   2.4195073294432502E-04   2.0881999404893294E-04   1.7988800240481448E-04
   1.5467045517050194E-04   1.3273256636580789E-04   1.1368478843602163E-04
   9.7178813456229497E-05   8.2903845430280988E-05   7.0583134308638441E-05
   5.9970761668019796E-05   5.0848667454259720E-05   4.3023906779295834E-05
   3.6326125474336227E-05   3.0605242925013014E-05   2.5729330640924986E-05
   2.1582675032035502E-05   1.8064012968687802E-05   1.5084928880478845E-05
   1.2568402393935078E-05   1.0447495809905327E-05   8.6641710707493195E-06
   7.1682262567388370E-06   5.9163420725633901E-06   4.8712292313917052E-06
   4.0008681087516435E-06   3.2778325153253675E-06   2.6786899209772949E-06
   2.1834709467895010E-06   1.7752014229164291E-06   1.4394907838325022E-06
   1.1641710354324610E-06   9.3898097742251449E-07   7.5529079719300447E-07
   6.0586256577348099E-07   4.8464256100982876E-07   3.8658171660326225E-07
   3.0748084733124663E-07   2.4385763017603430E-07   1.9283262807787403E-07
   1.5203192771496544E-07   1.1950422543945481E-07   9.3650436879033814E-08
   7.3164126352526218E-08   5.6981253118316696E-08   4.4237913473683625E-08
   3.4234921916899421E-08   2.6408222070331143E-08   2.0304249973499633E-08
   1.5559489834519850E-08   1.1883566515034990E-08   9.0453110364758468E-09
   6.8613163081869176E-09   5.1865711569807469E-09   3.9068225355788798E-09
   2.9323694706267152E-09   2.1930387349498174E-09   1.6341322101559146E-09
   1.2131701921389491E-09   8.9728416930966442E-10   6.6113749588724981E-10
   4.8527345542661003E-10   3.5480797192666158E-10   2.5839912972512975E-10
   1.8743811783485622E-10   1.3541657047855591E-10   9.7433852357289247E-11
   6.9903303354001326E-11   5.3535607892567903E-11  -2.2546535408273307E-12
  -3.8766929939959827E-14  -0.0000000000000000E+00  -0.0000000000000000E+00
  -0.0000000000000000E+00  -0.0000000000000000E+00  -0.0000000000000000E+00
  -0.0000000000000000E+00  -0.0000000000000000E+00  -0.0000000000000000E+00
  -0.0000000000000000E+00  -0.0000000000000000E+00  -0.0000000000000000E+00
  -0.0000000000000000E+00  -0.0000000000000000E+00  -0.0000000000000000E+00
  -0.0000000000000000E+00  -0.0000000000000000E+00  -0.0000000000000000E+00
  -0.0000000000000000E+00  -0.0000000000000000E+00  -0.0000000000000000E+00
  -0.0000000000000000E+00  -0.0000000000000000E+00  -0.0000000000000000E+00
  -0.0000000000000000E+00  -0.0000000000000000E+00  -0.0000000000000000E+00
  -0.0000000000000000E+00  -0.0000000000000000E+00  -0.0000000000000000E+00
  -0.0000000000000000E+00  -0.0000000000000000E+00  -0.0000000000000000E+00
  -0.0000000000000000E+00  -0.0000000000000000E+00  -0.0000000000000000E+00
  -0.0000000000000000E+00  -0.0000000000000000E+00  -0.0000000000000000E+00
  -0.0000000000000000E+00  -0.0000000000000000E+00  -0.0000000000000000E+00
  -0.0000000000000000E+00  -0.0000000000000000E+00  -0.0000000000000000E+00
  -0.0000000000000000E+00  -0.0000000000000000E+00  -0.0000000000000000E+00
  -0.0000000000000000E+00  -0.0000000000000000E+00  -0.0000000000000000E+00
  -0.0000000000000000E+00  -0.0000000000000000E+00  -0.0000000000000000E+00
  -0.0000000000000000E+00  -0.0000000000000000E+00  -0.0000000000000000E+00
  -0.0000000000000000E+00  -0.0000000000000000E+00  -0.0000000000000000E+00
     </PP_GIPAW_CORE_ORBITAL.9>
     <PP_GIPAW_CORE_ORBITAL.10 size="1164" index="10" label="4F" n="4" l="3">
   0.0000000000000000E+00   2.7867001442383502E-16   2.9124133449952079E-16
   3.0439081364895585E-16   3.1814507154001885E-16   3.3253156596663122E-16
   3.4757889515905336E-16   3.6331696841431953E-16   3.7977706831892589E-16
   3.9699191296301606E-16   4.1499572101010801E-16   4.3382427975232902E-16
   4.5351501628662418E-16   4.7410707195361981E-16   4.9564138018733598E-16
   5.1816074793073007E-16   5.4170994077915002E-16   5.6633577202122762E-16
   5.9208719575446621E-16   6.1901540426093504E-16   6.4717392983695695E-16
   6.7661875127952072E-16   7.0740840524150807E-16   7.3960410267740898E-16
   7.7326985061146864E-16   8.0847257947071696E-16   8.4528227623648394E-16
   8.8377212367956761E-16   9.2401864595636252E-16   9.6610186085593215E-16
   1.0101054390012516E-15   1.0561168703217431E-15   1.1042276381286863E-15
   1.1545334011402582E-15   1.2071341838188064E-15   1.2621345753995421E-15
   1.3196439380071259E-15   1.3797766242748238E-15   1.4426522048997432E-15
   1.5083957065875972E-15   1.5771378608610581E-15   1.6490153642275150E-15
   1.7241711502246192E-15   1.8027546738857773E-15   1.8849222091924706E-15
   1.9708371601061953E-15   2.0606703857999128E-15   2.1546005407372547E-15
   2.2528144302772830E-15   2.3555073825136559E-15   2.4628836370893798E-15
   2.5751567517622814E-15   2.6925500275316329E-15   2.8152969531735779E-15
   2.9436416700715275E-15   3.0778394582684519E-15   3.2181572447100888E-15
   3.3648741346926269E-15   3.5182819675745904E-15   3.6786858978611060E-15
   3.8464050028195343E-15   4.0217729178381828E-15   4.2051385007954422E-15
   4.3968665267644774E-15   4.5973384144392652E-15   4.8069529857310753E-15
   5.0261272600507561E-15   5.2552972848614939E-15   5.4949190041592107E-15
   5.7454691666133633E-15   6.0074462751803424E-15   6.2813715800845007E-15
   6.5677901171483469E-15   6.8672717935442942E-15   7.1804125231348676E-15
   7.5078354136677072E-15   7.8501920081950211E-15   8.2081635831957321E-15
   8.5824625059919395E-15   8.9738336541697368E-15   9.3830558998385334E-15
   9.8109436616924571E-15   1.0258348527973449E-14   1.0726160953576958E-14
   1.1215312034689772E-14   1.1726775364504375E-14   1.2261568973716849E-14
   1.2820757359684350E-14   1.3405453608295938E-14   1.4016821612796305E-14
   1.4656078393995390E-14   1.5324496526500141E-14   1.6023406675817030E-14
   1.6754200251395429E-14   1.7518332180914477E-14   1.8317323811358717E-14
   1.9152765942681455E-14   2.0026322000120418E-14   2.0939731351508519E-14
   2.1894812776211641E-14   2.2893468092630712E-14   2.3937685951521793E-14
   2.5029545802720527E-14   2.6171222043205134E-14   2.7364988354794882E-14
   2.8613222240161531E-14   2.9918409766228653E-14   3.1283150524449240E-14
   3.2710162817887272E-14   3.4202289085483385E-14   3.5762501574360425E-14
   3.7393908271522133E-14   3.9099759106818953E-14   4.0883452439598598E-14
   4.2748541842027806E-14   4.4698743192669078E-14   4.6737942094515302E-14
   4.8870201632340072E-14   5.1099770484899989E-14   5.3431091408239354E-14
   5.5868810107090543E-14   5.8417784512146347E-14   6.1083094481791145E-14
   6.3870051947734684E-14   6.6784211524880114E-14   6.9831381606695253E-14
   7.3017635968324682E-14   7.6349325900710286E-14   7.9833092900043981E-14
   8.3475881938004745E-14   8.7284955339387266E-14   9.1267907294962833E-14
   9.5432679038680116E-14   9.9787574719659721E-14   1.0434127800082316E-13
   1.0910286941747056E-13   1.1408184453064045E-13   1.1928813291169165E-13
   1.2473211799621576E-13   1.3042465784714364E-13   1.3637710686873495E-13
   1.4260133851505725E-13   1.4910976903856562E-13   1.5591538232648768E-13
   1.6303175587490630E-13   1.7047308795273769E-13   1.7825422601018214E-13
   1.8639069638875035E-13   1.9489873539258484E-13   2.0379532178353838E-13
   2.1309821076535048E-13   2.2282596952525932E-13   2.3299801440453280E-13
   2.4363464977269118E-13   2.5475710868362712E-13   2.6638759539542664E-13
   2.7854932983946589E-13   2.9126659412827971E-13   3.0456478119583239E-13
   3.1847044566811669E-13   3.3301135706651429E-13   3.4821655545107655E-13
   3.6411640961579959E-13   3.8074267795314276E-13   3.9812857211042146E-13
   4.1630882356636771E-13   4.3531975326204325E-13   4.5519934442648727E-13
   4.7598731874392210E-13   4.9772521601612961E-13   5.2045647748067242E-13
   5.4422653295303282E-13   5.6908289196850448E-13   5.9507523910774912E-13
   6.2225553369843812E-13   6.5067811409423819E-13   6.8039980674169879E-13
   7.1148004025530190E-13   7.4398096473107663E-13   7.7796757653983405E-13
   8.1350784885217553E-13   8.5067286815906244E-13   8.8953697706390987E-13
   9.3017792363488905E-13   9.7267701761947669E-13   1.0171192938371773E-12
   1.0635936830809740E-12   1.1121931908733091E-12   1.1630150844383404E-12
   1.2161610882689516E-12   1.2717375886844968E-12   1.3298558477934660E-12
   1.3906322272944665E-12   1.4541884225689545E-12   1.5206517075400342E-12
   1.5901551907935828E-12   1.6628380834809904E-12   1.7388459795466509E-12
   1.8183311488486177E-12   1.9014528437670004E-12   1.9883776199222540E-12
   2.0792796716542727E-12   2.1743411829432935E-12   2.2737526944851618E-12
   2.3777134876665133E-12   2.4864319862198587E-12   2.6001261763747245E-12
   2.7190240463588420E-12   2.8433640461427958E-12   2.9733955683631096E-12
   3.1093794514019002E-12   3.2515885056466328E-12   3.4003080640009917E-12
   3.5558365577674024E-12   3.7184861190738814E-12   3.8885832110720696E-12
   4.0664692871903062E-12   4.2525014807852369E-12   4.4470533265976444E-12
   4.6505155154835012E-12   4.8632966839594975E-12   5.0858242401738337E-12
   5.3185452279877524E-12   5.5619272309315707E-12   5.8164593178811751E-12
   6.0826530323861952E-12   6.3610434276713516E-12   6.6521901494260839E-12
   6.9566785685961218E-12   7.2751209664934434E-12   7.6081577746487638E-12
   7.9564588719439145E-12   8.3207249416787118E-12   8.7016888913513570E-12
   9.1001173380602483E-12   9.5168121625704438E-12   9.9526121352301352E-12
   1.0408394617070387E-11   1.0885077339577254E-11   1.1383620266787255E-11
   1.1905027543528247E-11   1.2450349533804942E-11   1.3020684953515815E-11
   1.3617183101882753E-11   1.4241046196179105E-11   1.4893531814556611E-11
   1.5575955451994719E-11   1.6289693194630952E-11   1.7036184517976710E-11
   1.7816935214778888E-11   1.8633520458558508E-11   1.9487588009137592E-11
   2.0380861566761939E-11   2.1315144281735625E-11   2.2292322426806130E-11
   2.3314369239878923E-11   2.4383348944992901E-11   2.5501420959860950E-11
   2.6670844298668290E-11   2.7893982179226485E-11   2.9173306844009670E-11
   3.0511404605044292E-11   3.1910981123089632E-11   3.3374866932039127E-11
   3.4906023219980106E-11   3.6507547878889467E-11   3.8182681835503491E-11
   3.9934815676486340E-11   4.1767496581640704E-11   4.3684435579545949E-11
   4.5689515140686378E-11   4.7786797123839410E-11   4.9980531092231473E-11
   5.2275163016749476E-11   5.4675344384303356E-11   5.7185941730288457E-11
   5.9812046614986985E-11   6.2558986064678801E-11   6.5432333499212466E-11
   6.8437920168805733E-11   7.1581847123920108E-11   7.4870497743177402E-11
   7.8310550845453051E-11   8.1908994413527239E-11   8.5673139957947524E-11
   8.9610637551119695E-11   9.3729491563052711E-11   9.8038077131662777E-11
   1.0254515740210313E-10   1.0725990157119622E-10   1.1219190377476387E-10
   1.1735120285742205E-10   1.2274830306627849E-10   1.2839419571193389E-10
   1.3430038184222540E-10   1.4047889597630833E-10   1.4694233094891730E-10
   1.5370386391699848E-10   1.6077728358338552E-10   1.6817701869475994E-10
   1.7591816787385922E-10   1.8401653084872810E-10   1.9248864114477138E-10
   2.0135180030849997E-10   2.1062411373510224E-10   2.2032452817540238E-10
   2.3047287100134923E-10   2.4108989131291318E-10   2.5219730297322087E-10
   2.6381782966285822E-10   2.7597525204858077E-10   2.8869445716621754E-10
   3.0200149012224066E-10   3.1592360822349060E-10   3.3048933764968754E-10
   3.4572853278884975E-10   3.6167243836142062E-10   3.7835375446487693E-10
   3.9580670467688935E-10   4.1406710736162606E-10   4.3317245033069184E-10
   4.5316196901740347E-10   4.7407672833062006E-10   4.9595970836231263E-10
   5.1885589413128088E-10   5.4281236955418452E-10   5.6787841584405849E-10
   5.9410561454615158E-10   6.2154795543079719E-10   6.5026194947356818E-10
   6.8030674716394261E-10   7.1174426239514263E-10   7.4463930219998322E-10
   7.7905970261004228E-10   8.1507647092884787E-10   8.5276393472355925E-10
   8.9219989785414175E-10   9.3346580387435929E-10   9.7664690715480911E-10
   1.0218324520948801E-09   1.0691158608082943E-09   1.1185949296849052E-09
   1.1703720352510549E-09   1.2245543497707107E-09   1.2812540670508501E-09
   1.3405886389367999E-09   1.4026810230062727E-09   1.4676599419954566E-09
   1.5356601555158245E-09   1.6068227446471406E-09   1.6812954100202866E-09
   1.7592327840326437E-09   1.8407967578699395E-09   1.9261568240403912E-09
   2.0154904351610219E-09   2.1089833797714658E-09   2.2068301759875482E-09
   2.3092344838462319E-09   2.4164095372340796E-09   2.5285785963341063E-09
   2.6459754215712042E-09   2.7688447700826817E-09   2.8974429157903935E-09
   3.0320381942020996E-09   3.1729115731240417E-09   3.3203572505236201E-09
   3.4746832808400408E-09   3.6362122311038386E-09   3.8052818682910078E-09
   3.9822458794060535E-09   4.1674746258605157E-09   4.3613559337878823E-09
   4.5642959220159253E-09   4.7767198694989693E-09   4.9990731241001561E-09
   5.2318220547042213E-09   5.4754550487365351E-09   5.7304835572641944E-09
   5.9974431899595168E-09   6.2768948623156863E-09   6.5694259976199459E-09
   6.8756517863092564E-09   7.1962165054608585E-09   7.5317949013015207E-09
   7.8830936377586131E-09   8.2508528142217162E-09   8.6358475558355332E-09
   9.0388896798050937E-09   9.4608294413618097E-09   9.9025573632142034E-09
   1.0365006152491892E-08   1.0849152709383496E-08   1.1356020231872244E-08
   1.1886680421184757E-08   1.2442255792790551E-08   1.3023922098022876E-08
   1.3632910861636311E-08   1.4270512040870462E-08   1.4938076811860836E-08
   1.5637020489515106E-08   1.6368825587271126E-08   1.7135045023460085E-08
   1.7937305481321749E-08   1.8777310930060612E-08   1.9656846314683363E-08
   2.0577781422735576E-08   2.1542074936442505E-08   2.2551778679170043E-08
   2.3609042065552366E-08   2.4716116765079629E-08   2.5875361589413740E-08
   2.7089247614193527E-08   2.8360363546606091E-08   2.9691421350549429E-08
   3.1085262141774854E-08   3.2544862365996849E-08   3.4073340273584441E-08
   3.5673962705097317E-08   3.7350152202624630E-08   3.9105494462596645E-08
   4.0943746146496391E-08   4.2868843066690356E-08   4.4884908765418376E-08
   4.6996263505860888E-08   4.9207433695099735E-08   5.1523161759751303E-08
   5.3948416496042420E-08   5.6488403917146902E-08   5.9148578621701464E-08
   6.1934655708562381E-08   6.4852623264070820E-08   6.7908755449357967E-08
   7.1109626216536230E-08   7.4462123684017385E-08   7.7973465202639476E-08
   8.1651213145809151E-08   8.5503291458463655E-08   8.9538003001308469E-08
   9.3764047728561033E-08   9.8190541739236158E-08   1.0282703724394483E-07
   1.0768354349118507E-07   1.1277054869919682E-07   1.1809904304168464E-07
   1.2368054273799375E-07   1.2952711530076876E-07   1.3565140599664884E-07
   1.4206666557820854E-07   1.4878677934814501E-07   1.5582629761961900E-07
   1.6320046763970748E-07   1.7092526704613666E-07   1.7901743893078962E-07
   1.8749452858701867E-07   1.9637492202143779E-07   2.0567788631473601E-07
   2.1542361192007710E-07   2.2563325699185302E-07   2.3632899384200911E-07
   2.4753405762575395E-07   2.5927279736332081E-07   2.7157072940953454E-07
   2.8445459348820948E-07   2.9795241141401997E-07   3.1209354863025238E-07
   3.2690877869697833E-07   3.4243035087055328E-07   3.5869206092202480E-07
   3.7572932534903695E-07   3.9357925914313482E-07   4.1228075728201356E-07
   4.3187458012432925E-07   4.5240344289300597E-07   4.7391210944184686E-07
   4.9644749050938934E-07   5.2005874667357952E-07   5.4479739623096094E-07
   5.7071742823452617E-07   5.9787542093550121E-07   6.2633066588581763E-07
   6.5614529797010106E-07   6.8738443164870837E-07   7.2011630370643114E-07
   7.5441242281549292E-07   7.9034772623578029E-07   8.2800074399046294E-07
   8.6745377087099653E-07   9.0879304664199842E-07   9.5210894483390796E-07
   9.9749617052938443E-07   1.0450539675683516E-06   1.0948863356164987E-06
   1.1471022575626173E-06   1.2018159377319963E-06   1.2591470514256593E-06
   1.3192210063188719E-06   1.3821692162773226E-06   1.4481293881749577E-06
   1.5172458223248884E-06   1.5896697271627862E-06   1.6655595488519068E-06
   1.7450813165098306E-06   1.8284090037891847E-06   1.9157249075785192E-06
   2.0072200446247523E-06   2.1030945669154273E-06   2.2035581966976574E-06
   2.3088306820507575E-06   2.4191422739717278E-06   2.5347342259767162E-06
   2.6558593172672698E-06   2.7827824005584763E-06   2.9157809757157130E-06
   3.0551457903994688E-06   3.2011814689720165E-06   3.3542071709766705E-06
   3.5145572805602994E-06   3.6825821282713179E-06   3.8586487467308372E-06
   4.0431416617420056E-06   4.2364637204733937E-06   4.4390369584260455E-06
   4.6513035069708239E-06   4.8737265433229642E-06   5.1067912849047296E-06
   5.3510060301342447E-06   5.6069032477702342E-06   5.8750407170370491E-06
   6.1560027208540961E-06   6.4504012945971895E-06   6.7588775329270022E-06
   7.0821029573329644E-06   7.4207809471575411E-06   7.7756482369889395E-06
   8.1474764834375313E-06   8.5370739044437794E-06   8.9452869944049696E-06
   9.3730023185512042E-06   9.8211483901528076E-06   1.0290697634296670E-05
   1.0782668442133633E-05   1.1298127319667829E-05   1.1838191135336549E-05
   1.2404029470813836E-05   1.2996867079662246E-05   1.3617986458657784E-05
   1.4268730536820249E-05   1.4950505487398632E-05   1.5664783668285542E-05
   1.6413106696570074E-05   1.7197088663181274E-05   1.8018419493829036E-05
   1.8878868462712190E-05   1.9780287865738544E-05   2.0724616860286904E-05
   2.1713885478836573E-05   2.2750218824099941E-05   2.3835841453611522E-05
   2.4973081962062560E-05   2.6164377770013204E-05   2.7412280127975735E-05
   2.8719459345233871E-05   3.0088710253150416E-05   3.1522957913119520E-05
   3.3025263579734261E-05   3.4598830930175960E-05   3.6247012571279060E-05
   3.7973316836193705E-05   3.9781414883048859E-05   4.1675148108524214E-05
   4.3658535889754346E-05   4.5735783668532155E-05   4.7911291392332703E-05
   5.0189662327260281E-05   5.2575712258620523E-05   5.5074479095438745E-05
   5.7691232895888820E-05   6.0431486331262985E-05   6.3301005606801884E-05
   6.6305821858413704E-05   6.9452243045052168E-05   7.2746866357281743E-05
   7.6196591163346614E-05   7.9808632514877042E-05   8.3590535235204144E-05
   8.7550188614125553E-05   9.1695841733859570E-05   9.6036119451853858E-05
   1.0058003906707008E-04   1.0533702769735085E-04   1.1031694039649434E-04
   1.1553007904070935E-04   1.2098721201520170E-04   1.2669959473276651E-04
   1.3267899101739104E-04   1.3893769538707136E-04   1.4548855627124642E-04
   1.5234500019951067E-04   1.5952105699955390E-04   1.6703138604358397E-04
   1.7489130358386865E-04   1.8311681121940145E-04   1.9172462553714020E-04
   2.0073220897274182E-04   2.1015780193719865E-04   2.2002045625735286E-04
   2.3034006997981751E-04   2.4113742358947211E-04   2.5243421769534607E-04
   2.6425311223839668E-04   2.7661776727741711E-04   2.8955288541108472E-04
   3.0308425589594117E-04   3.1723880052197511E-04   3.3204462130929973E-04
   3.4753105009137228E-04   3.6372870005212929E-04   3.8066951928635354E-04
   3.9838684645467163E-04   4.1691546860651477E-04   4.3629168124654502E-04
   4.5655335072205112E-04   4.7773997901097881E-04   4.9989277099240701E-04
   5.2305470428338596E-04   5.4727060172829825E-04   5.7258720662902059E-04
   5.9905326080640371E-04   6.2671958558581451E-04   6.5563916580160244E-04
   6.8586723691768312E-04   7.1746137536352690E-04   7.5048159218704766E-04
   7.8499043012814822E-04   8.2105306421866270E-04   8.5873740601669134E-04
   8.9811421158533702E-04   9.3925719332782736E-04   9.8224313579312397E-04
   1.0271520155678109E-03   1.0740671253721011E-03   1.1230752024793658E-03
   1.1742665615802634E-03   1.2277352322142649E-03   1.2835791008923569E-03
   1.3419000580364067E-03   1.4028041498616822E-03   1.4664017353295832E-03
   1.5328076482992359E-03   1.6021413650063098E-03   1.6745271769984507E-03
   1.7500943696569285E-03   1.8289774064334876E-03   1.9113161189321685E-03
   1.9972559029645446E-03   2.0869479207065405E-03   2.1805493090845613E-03
   2.2782233945163920E-03   2.3801399141323478E-03   2.4864752435994706E-03
   2.5974126316700209E-03   2.7131424415738114E-03   2.8338623993703536E-03
   2.9597778493751122E-03   3.0911020167702498E-03   3.2280562775066335E-03
   3.3708704356004491E-03   3.5197830079222981E-03   3.6750415165724788E-03
   3.8369027889297450E-03   4.0056332654552973E-03   4.1815093153263466E-03
   4.3648175599662288E-03   4.5558552045297865E-03   4.7549303773937457E-03
   4.9623624776916411E-03   5.1784825309228715E-03   5.4036335526529682E-03
   5.6381709203108263E-03   5.8824627530737663E-03   6.1368902998179160E-03
   6.4018483350950714E-03   6.6777455630794222E-03   6.9650050294116483E-03
   7.2640645408445304E-03   7.5753770925769725E-03   7.8994113031389934E-03
   8.2366518566659094E-03   8.5875999523785194E-03   8.9527737610549385E-03
   9.3327088882567983E-03   9.7279588440423899E-03   1.0139095518867568E-02
   1.0566709665349068E-02   1.1011411385526930E-02   1.1473830623233107E-02
   1.1954617661138410E-02   1.2454443622008963E-02   1.2974000973672016E-02
   1.3514004037145455E-02   1.4075189497346471E-02   1.4658316915754527E-02
   1.5264169244352518E-02   1.5893553340131889E-02   1.6547300479393946E-02
   1.7226266871031660E-02   1.7931334167929167E-02   1.8663409975556908E-02
   1.9423428356794031E-02   2.0212350331950145E-02   2.1031164372902492E-02
   2.1880886890210952E-02   2.2762562712008525E-02   2.3677265553410515E-02
   2.4626098475123089E-02   2.5610194329867126E-02   2.6630716195177258E-02
   2.7688857791066321E-02   2.8785843880985224E-02   2.9922930654443243E-02
   3.1101406089587703E-02   3.2322590293980200E-02   3.3587835821736266E-02
   3.4898527965138836E-02   3.6256085018759578E-02   3.7661958514069949E-02
   3.9117633422451364E-02   4.0624628324452253E-02   4.2184495543084233E-02
   4.3798821238873895E-02   4.5469225464341623E-02   4.7197362175510134E-02
   4.8984919197986601E-02   5.0833618145115007E-02   5.2745214285624523E-02
   5.4721496358160038E-02   5.6764286330023464E-02   5.8875439097394115E-02
   6.1056842124265626E-02   6.3310415017267502E-02   6.5638109033502784E-02
   6.8041906518493345E-02   7.0523820271251425E-02   7.3085892833484586E-02
   7.5730195699862168E-02   7.8458828446235293E-02   8.1273917772663101E-02
   8.4177616458007171E-02   8.7172102222837528E-02   9.0259576497296781E-02
   9.3442263090504463E-02   9.6722406758015383E-02   1.0010227166373054E-01
   1.0358413973258579E-01   1.0717030889023246E-01   1.1086309118580218E-01
   1.1466481079377648E-01   1.1857780189085082E-01   1.2260440640363066E-01
   1.2674697162294915E-01   1.3100784768058632E-01   1.3538938488426744E-01
   1.3989393090694710E-01   1.4452382782667075E-01   1.4928140901368994E-01
   1.5416899586204946E-01   1.5918889436359038E-01   1.6434339152320479E-01
   1.6963475161528296E-01   1.7506521228259875E-01   1.8063698048041305E-01
   1.8635222827020928E-01   1.9221308846933471E-01   1.9822165016459140E-01
   2.0437995409948478E-01   2.1068998794620092E-01   2.1715368147401046E-01
   2.2377290162573216E-01   2.3054944751270107E-01   2.3748504533644699E-01
   2.4458134324224448E-01   2.5183990610602175E-01   2.5926221025255730E-01
   2.6684963810004797E-01   2.7460347272434904E-01   2.8252489233620870E-01
   2.9061496466621245E-01   2.9887464125507657E-01   3.0730475165072074E-01
   3.1590599751754650E-01   3.2467894666730296E-01   3.3362402702403154E-01
   3.4274152053790069E-01   3.5203155706406464E-01   3.6149410822304678E-01
   3.7112898125888882E-01   3.8093581291055550E-01   3.9091406331111339E-01
   4.0106300992833960E-01   4.1138174155971519E-01   4.2186915239446332E-01
   4.3252393615542228E-01   4.4334458033410823E-01   4.5432936053331496E-01
   4.6547633493289409E-01   4.7678333889597269E-01   4.8824797973453932E-01
   4.9986763165523346E-01   5.1163943090789665E-01   5.2356027116125292E-01
   5.3562679913173838E-01   5.4783541049292017E-01   5.6018224609438672E-01
   5.7266318852000997E-01   5.8527385901642281E-01   5.9800961482328541E-01
   6.1086554693719808E-01   6.2383647834140443E-01   6.3691696273318121E-01
   6.5010128378031562E-01   6.6338345493736717E-01   6.7675721985104953E-01
   6.9021605338263914E-01   7.0375316327331816E-01   7.1736149247587622E-01
   7.3103372217361395E-01   7.4476227550385943E-01   7.5853932200003082E-01
   7.7235678276211472E-01   7.8620633636075821E-01   8.0007942547533828E-01
   8.1396726426048749E-01   8.2786084642917690E-01   8.4175095403292932E-01
   8.5562816691071941E-01   8.6948287276749758E-01   8.8330527783019852E-01
   8.9708541801333153E-01   9.1081317050753829E-01   9.2447826568238745E-01
   9.3807029917025853E-01   9.5157874397213205E-01   9.6499296240105659E-01
   9.7830221765871717E-01   9.9149568482958916E-01   1.0045624610825923E+00
   1.0174915748993334E+00   1.0302719942101324E+00   1.0428926334229507E+00
   1.0553423594846059E+00   1.0676099973235222E+00   1.0796843352863454E+00
   1.0915541314793238E+00   1.1032081222165206E+00   1.1146350339851561E+00
   1.1258236003584876E+00   1.1367625850103125E+00   1.1474408113522545E+00
   1.1578471983752023E+00   1.1679708012214525E+00   1.1778008541405149E+00
   1.1873268130741153E+00   1.1965383953136275E+00   1.2054256143940763E+00
   1.2139788093744848E+00   1.2221886685973646E+00   1.2300462486953949E+00
   1.2375429899410104E+00   1.2446707290604415E+00   1.2514217104671621E+00
   1.2577885966222351E+00   1.2637644779794384E+00   1.2693428827616597E+00
   1.2745177866523383E+00   1.2792836223670894E+00   1.2836352889872182E+00
   1.2875681608805083E+00   1.2910780960011214E+00   1.2941614433469284E+00
   1.2968150493573407E+00   1.2990362630555259E+00   1.3008229397722821E+00
   1.3021734433309069E+00   1.3030866466184825E+00   1.3035619305150759E+00
   1.3035991811950487E+00   1.3031987858516254E+00   1.3023616269258680E+00
   1.3010890749438830E+00   1.2993829800817622E+00   1.2972456625872806E+00
   1.2946799021916022E+00   1.2916889266443374E+00   1.2882763995020496E+00
   1.2844464072947561E+00   1.2802034461875056E+00   1.2755524082455707E+00
   1.2704985674023428E+00   1.2650475652190536E+00   1.2592053965152392E+00
   1.2529783949384796E+00   1.2463732185316405E+00   1.2393968353456244E+00
   1.2320565091357345E+00   1.2243597851701544E+00   1.2163144761699123E+00
   1.2079286483911811E+00   1.1992106078527882E+00   1.1901688867046942E+00
   1.1808122297268930E+00   1.1711495809426722E+00   1.1611900703259066E+00
   1.1509430005784853E+00   1.1404178339516855E+00   1.1296241790840620E+00
   1.1185717778280764E+00   1.1072704920386953E+00   1.0957302902990309E+00
   1.0839612345609466E+00   1.0719734666828731E+00   1.0597771948519255E+00
   1.0473826798840808E+00   1.0348002214037171E+00   1.0220401439129341E+00
   1.0091127827719910E+00   9.9602847012436369E-01   9.8279752081365179E-01
   9.6943021835575260E-01   9.5593680104501944E-01   9.4232744829007564E-01
   9.2861226729010438E-01   9.1480128017541629E-01   9.0090441174484970E-01
   8.8693147793515825E-01   8.7289217515281980E-01   8.5879607058482899E-01
   8.4465259358203248E-01   8.3047102817673146E-01   8.1626050675707051E-01
   8.0203000487721376E-01   7.8778833713760288E-01   7.7354415402795229E-01
   7.5930593959087644E-01   7.4508200973927619E-01   7.3088051104815654E-01
   7.1670941984183301E-01   7.0257654140988468E-01   6.8848950920745711E-01
   6.7445578392476246E-01   6.6048265234332559E-01   6.4657722592956290E-01
   6.3274643914675910E-01   6.1899704749247808E-01   6.0533562528887430E-01
   5.9176856326779881E-01   5.7830206600142309E-01   5.6494214923324015E-01
   5.5169463716442291E-01   5.3856515974810870E-01   5.2555915003995057E-01
   5.1268184164800956E-01   4.9993826631971144E-01   4.8733325169817898E-01
   4.7487141927525328E-01   4.6255718256422795E-01   4.5039474551117992E-01
   4.3838810116055688E-01   4.2654103058754023E-01   4.1485710210704119E-01
   4.0333967076685773E-01   3.9199187813015712E-01   3.8081665235049467E-01
   3.6981670854058946E-01   3.5899454943418779E-01   3.4835246633874084E-01
   3.3789254037490779E-01   3.2761664399750035E-01   3.1752644279120329E-01
   3.0762339753318946E-01   2.9790876651391829E-01   2.8838360810656288E-01
   2.7904878357497626E-01   2.6990496010977505E-01   2.6095261408183051E-01
   2.5219203450251731E-01   2.4362332668009656E-01   2.3524641606185756E-01
   2.2706105225194814E-01   2.1906681319517557E-01   2.1126310951737501E-01
   2.0364918901356355E-01   1.9622414127522875E-01   1.8898690244859304E-01
   1.8193626011601224E-01   1.7507085829291527E-01   1.6838920253294373E-01
   1.6188966513416325E-01   1.5557049043937649E-01   1.4942980022375540E-01
   1.4346559916317339E-01   1.3767578037673708E-01   1.3205813103720301E-01
   1.2661033804298966E-01   1.2132999374556544E-01   1.1621460172585907E-01
   1.1126158261303526E-01   1.0646827993850411E-01   1.0183196601717667E-01
   9.7349847846892296E-02   9.3019073015516540E-02   8.8836735603444364E-02
   8.4799882067366675E-02   8.0905517089083195E-02   7.7150609371170742E-02
   7.3532097359581577E-02   7.0046894871842222E-02   6.6691896608761875E-02
   6.3463983527437762E-02   6.0360028053985576E-02   5.7376899115899480E-02
   5.4511466976055828E-02   5.1760607853185189E-02   4.9121208316836841E-02
   4.6590169448311111E-02   4.4164410762591935E-02   4.1840873889661699E-02
   3.9616526016691800E-02   3.7488363095265695E-02   3.5453412819962761E-02
   3.3508737386305318E-02   3.1651436037204377E-02   2.9878647407724470E-02
   2.8187551678258656E-02   2.6575372546143339E-02   2.5039379025436650E-02
   2.3576887084094771E-02   2.2185261127185309E-02   2.0861915334126926E-02
   1.9604314857281806E-02   1.8409976888592954E-02   1.7276471600357921E-02
   1.6201422965694590E-02   1.5182509463769828E-02   1.4217464674448817E-02
   1.3304077766659544E-02   1.2440193884458354E-02   1.1623714434526993E-02
   1.0852597278603229E-02   1.0124856834167865E-02   9.4385640865516287E-03
   8.7918465154914176E-03   8.1828879390641977E-03   7.6099282778319581E-03
   7.0712632419718483E-03   6.5652439441230039E-03   6.0902764406602066E-03
   5.6448212041234694E-03   5.2273925295685574E-03   4.8365578776844468E-03
   4.4709371576400264E-03   4.1292019527692653E-03   3.8100746923980591E-03
   3.5123277733298372E-03   3.2347826347459015E-03   2.9763087905313079E-03
   2.7358228232571558E-03   2.5122873442786926E-03   2.3047099245489802E-03
   2.1121420008344597E-03   1.9336777620095533E-03   1.7684530199912393E-03
   1.6156440696517356E-03   1.4744665417193788E-03   1.3441742522577770E-03
   1.2240580518299716E-03   1.1134446769291550E-03   1.0116956057321519E-03
   9.1820591973378822E-04   8.3240317238145287E-04   7.5374626547403708E-04
   6.8172433383012574E-04   6.1585563857561264E-04   5.5568646934567930E-04
   5.0079005573069988E-04   4.5076548840354064E-04   4.0523665052709357E-04
   3.6385116023473178E-04   3.2627932518239849E-04   2.9221311037088755E-04
   2.6136512061537083E-04   2.3346759918489536E-04   2.0827144424011735E-04
   1.8554524475783109E-04   1.6507433764601943E-04   1.4665988772369638E-04
   1.3011799216950041E-04   1.1527881093696675E-04   1.0198572449722146E-04
   9.0094520108893205E-05   7.9472607635065393E-05   6.9998265734557747E-05
   6.1559919055210311E-05   5.4055446854489571E-05   4.7391523272460566E-05
   4.1482989287371417E-05   3.6252256197886607E-05   3.1640239903132619E-05
   2.8489963936031033E-05  -2.2668205219967992E-06  -6.3110733274909082E-08
   0.0000000000000000E+00   0.0000000000000000E+00   0.0000000000000000E+00
   0.0000000000000000E+00   0.0000000000000000E+00   0.0000000000000000E+00
   0.0000000000000000E+00   0.0000000000000000E+00   0.0000000000000000E+00
   0.0000000000000000E+00   0.0000000000000000E+00   0.0000000000000000E+00
   0.0000000000000000E+00   0.0000000000000000E+00   0.0000000000000000E+00
   0.0000000000000000E+00   0.0000000000000000E+00   0.0000000000000000E+00
   0.0000000000000000E+00   0.0000000000000000E+00   0.0000000000000000E+00
   0.0000000000000000E+00   0.0000000000000000E+00   0.0000000000000000E+00
   0.0000000000000000E+00   0.0000000000000000E+00   0.0000000000000000E+00
   0.0000000000000000E+00   0.0000000000000000E+00   0.0000000000000000E+00
   0.0000000000000000E+00   0.0000000000000000E+00   0.0000000000000000E+00
   0.0000000000000000E+00   0.0000000000000000E+00   0.0000000000000000E+00
   0.0000000000000000E+00   0.0000000000000000E+00   0.0000000000000000E+00
   0.0000000000000000E+00   0.0000000000000000E+00   0.0000000000000000E+00
   0.0000000000000000E+00   0.0000000000000000E+00   0.0000000000000000E+00
   0.0000000000000000E+00   0.0000000000000000E+00   0.0000000000000000E+00
   0.0000000000000000E+00   0.0000000000000000E+00   0.0000000000000000E+00
   0.0000000000000000E+00   0.0000000000000000E+00   0.0000000000000000E+00
     </PP_GIPAW_CORE_ORBITAL.10>
   </PP_GIPAW_CORE_ORBITALS>
   <PP_GIPAW_ORBITALS number_of_valence_orbitals="4">
     <PP_GIPAW_ORBITAL.1 index="1" label="5S" l="0" cutoff_radius="  2.35088378331419" ultrasoft_cutoff_radius="  2.35088378331419">
       <PP_GIPAW_WFS_AE size="1164">
   0.0000000000000000E+00   1.0650352167881926E-03   1.0762993343820804E-03
   1.0876823363620150E-03   1.0991854656070145E-03   1.1108099864096809E-03
   1.1225571789926607E-03   1.1344283370697717E-03   1.1464247679236579E-03
   1.1585477925469187E-03   1.1707987457846901E-03   1.1831789764786709E-03
   1.1956898476126198E-03   1.2083327364593192E-03   1.2211090347290343E-03
   1.2340201487194753E-03   1.2470674994672839E-03   1.2602525229010481E-03
   1.2735766699958667E-03   1.2870414069294808E-03   1.3006482152399829E-03
   1.3143985919851118E-03   1.3282940499031708E-03   1.3423361175755539E-03
   1.3565263395909247E-03   1.3708662767110392E-03   1.3853575060382456E-03
   1.4000016211846680E-03   1.4148002324430918E-03   1.4297549669595694E-03
   1.4448674689077549E-03   1.4601393996649930E-03   1.4755724379901763E-03
   1.4911682802033815E-03   1.5069286403673005E-03   1.5228552504705077E-03
   1.5389498606125335E-03   1.5552142391908085E-03   1.5716501730894659E-03
   1.5882594678700321E-03   1.6050439479640144E-03   1.6220054568674119E-03
   1.6391458573371644E-03   1.6564670315895504E-03   1.6739708815005606E-03
   1.6916593288082650E-03   1.7095343153171810E-03   1.7275978031046730E-03
   1.7458517747293964E-03   1.7642982334418026E-03   1.7829392033967297E-03
   1.8017767298680856E-03   1.8208128794656602E-03   1.8400497403540702E-03
   1.8594894224738595E-03   1.8791340577647801E-03   1.8989858003912630E-03
   1.9190468269701111E-03   1.9393193368004186E-03   1.9598055520957513E-03
   1.9805077182185899E-03   2.0014281039170828E-03   2.0225690015640918E-03
   2.0439327273985945E-03   2.0655216217694158E-03   2.0873380493813469E-03
   2.1093843995436653E-03   2.1316630864210424E-03   2.1541765492869187E-03
   2.1769272527793122E-03   2.1999176871591057E-03   2.2231503685708428E-03
   2.2466278393060298E-03   2.2703526680689806E-03   2.2943274502452253E-03
   2.3185548081724916E-03   2.3430373914143012E-03   2.3677778770361769E-03
   2.3927789698845021E-03   2.4180434028680526E-03   2.4435739372422058E-03
   2.4693733628958622E-03   2.4954444986411113E-03   2.5217901925056341E-03
   2.5484133220278985E-03   2.5753167945551268E-03   2.6025035475441202E-03
   2.6299765488648941E-03   2.6577387971071856E-03   2.6857933218898560E-03
   2.7141431841731893E-03   2.7427914765741353E-03   2.7717413236844875E-03
   2.8009958823920550E-03   2.8305583422048195E-03   2.8604319255781155E-03
   2.8906198882448623E-03   2.9211255195488372E-03   2.9519521427810711E-03
   2.9831031155193167E-03   3.0145818299706804E-03   3.0463917133173885E-03
   3.0785362280657375E-03   3.1110188723982488E-03   3.1438431805290417E-03
   3.1770127230624436E-03   3.2105311073548806E-03   3.2444019778800478E-03
   3.2786290165973996E-03   3.3132159433239580E-03   3.3481665161095011E-03
   3.3834845316151061E-03   3.4191738254951073E-03   3.4552382727824700E-03
   3.4916817882776089E-03   3.5285083269406873E-03   3.5657218842873682E-03
   3.6033264967881141E-03   3.6413262422709987E-03   3.6797252403280700E-03
   3.7185276527252880E-03   3.7577376838160642E-03   3.7973595809584152E-03
   3.8373976349357383E-03   3.8778561803812601E-03   3.9187395962061644E-03
   3.9600523060314054E-03   4.0017987786232431E-03   4.0439835283325202E-03
   4.0866111155377048E-03   4.1296861470916796E-03   4.1732132767723692E-03
   4.2171972057371537E-03   4.2616426829811182E-03   4.3065545057991645E-03
   4.3519375202520040E-03   4.3977966216360029E-03   4.4441367549569698E-03
   4.4909629154078435E-03   4.5382801488503448E-03   4.5860935523005580E-03
   4.6344082744184997E-03   4.6832295160016812E-03   4.7325625304826622E-03
   4.7824126244306389E-03   4.8327851580570553E-03   4.8836855457252693E-03
   4.9351192564642665E-03   4.9870918144864808E-03   5.0396087997096667E-03
   5.0926758482829045E-03   5.1462986531166923E-03   5.2004829644171722E-03
   5.2552345902245005E-03   5.3105593969553526E-03   5.3664633099495774E-03
   5.4229523140210366E-03   5.4800324540125699E-03   5.5377098353552121E-03
   5.5959906246315283E-03   5.6548810501431731E-03   5.7143874024826570E-03
   5.7745160351092917E-03   5.8352733649293465E-03   5.8966658728804586E-03
   5.9587001045201832E-03   6.0213826706188283E-03   6.0847202477564508E-03
   6.1487195789241243E-03   6.2133874741293459E-03   6.2787308110057519E-03
   6.3447565354269346E-03   6.4114716621245897E-03   6.4788832753107286E-03
   6.5469985293041995E-03   6.6158246491613273E-03   6.6853689313107574E-03
   6.7556387441924659E-03   6.8266415289009339E-03   6.8983847998324412E-03
   6.9708761453365223E-03   7.0441232283715242E-03   7.1181337871642656E-03
   7.1929156358737688E-03   7.2684766652590842E-03   7.3448248433511058E-03
   7.4219682161284599E-03   7.4999149081973618E-03   7.5786731234754098E-03
   7.6582511458793620E-03   7.7386573400168215E-03   7.8199001518817653E-03
   7.9019881095539340E-03   7.9849298239020143E-03   8.0687339892906249E-03
   8.1534093842909727E-03   8.2389648723952425E-03   8.3254094027345842E-03
   8.4127520108007101E-03   8.5010018191710359E-03   8.5901680382372680E-03
   8.6802599669374581E-03   8.7712869934914103E-03   8.8632585961393867E-03
   8.9561843438840539E-03   9.0500738972356005E-03   9.1449370089599843E-03
   9.2407835248301158E-03   9.3376233843800900E-03   9.4354666216621991E-03
   9.5343233660067656E-03   9.6342038427846329E-03   9.7351183741722375E-03
   9.8370773799191860E-03   9.9400913781182137E-03   1.0044170985977445E-02
   1.0149326920594746E-02   1.0255569999734201E-02   1.0362911142604476E-02
   1.0471361370639004E-02   1.0580931808277804E-02   1.0691633683750862E-02
   1.0803478329862897E-02   1.0916477184779337E-02   1.1030641792813404E-02
   1.1145983805214138E-02   1.1262514980955145E-02   1.1380247187523944E-02
   1.1499192401711749E-02   1.1619362710403468E-02   1.1740770311367671E-02
   1.1863427514046515E-02   1.1987346740345191E-02   1.2112540525420828E-02
   1.2239021518470637E-02   1.2366802483518966E-02   1.2495896300203138E-02
   1.2626315964557738E-02   1.2758074589797257E-02   1.2891185407096561E-02
   1.3025661766369264E-02   1.3161517137043431E-02   1.3298765108834470E-02
   1.3437419392514987E-02   1.3577493820681111E-02   1.3719002348515169E-02
   1.3861959054544279E-02   1.4006378141394570E-02   1.4152273936540746E-02
   1.4299660893050519E-02   1.4448553590323704E-02   1.4598966734825478E-02
   1.4750915160813565E-02   1.4904413831058812E-02   1.5059477837558868E-02
   1.5216122402244550E-02   1.5374362877678398E-02   1.5534214747745086E-02
   1.5695693628333205E-02   1.5858815268007996E-02   1.6023595548674396E-02
   1.6190050486230352E-02   1.6358196231209335E-02   1.6528049069412007E-02
   1.6699625422526416E-02   1.6872941848735969E-02   1.7048015043315060E-02
   1.7224861839211320E-02   1.7403499207614401E-02   1.7583944258510276E-02
   1.7766214241220810E-02   1.7950326544927783E-02   1.8136298699180785E-02
   1.8324148374388415E-02   1.8513893382292059E-02   1.8705551676421496E-02
   1.8899141352531939E-02   1.9094680649021343E-02   1.9292187947327767E-02
   1.9491681772305612E-02   1.9693180792580214E-02   1.9896703820880095E-02
   2.0102269814345632E-02   2.0309897874814024E-02   2.0519607249079027E-02
   2.0731417329125021E-02   2.0945347652334523E-02   2.1161417901667867E-02
   2.1379647905814730E-02   2.1600057639316023E-02   2.1822667222655412E-02
   2.2047496922319575E-02   2.2274567150825937E-02   2.2503898466717048E-02
   2.2735511574520438E-02   2.2969427324672904E-02   2.3205666713408082E-02
   2.3444250882606193E-02   2.3685201119604746E-02   2.3928538856969064E-02
   2.4174285672221348E-02   2.4422463287527087E-02   2.4673093569337348E-02
   2.4926198527985974E-02   2.5181800317240009E-02   2.5439921233802024E-02
   2.5700583716763203E-02   2.5963810347005352E-02   2.6229623846550563E-02
   2.6498047077857158E-02   2.6769103043059912E-02   2.7042814883153556E-02
   2.7319205877117333E-02   2.7598299440979447E-02   2.7880119126819484E-02
   2.8164688621706874E-02   2.8452031746574197E-02   2.8742172455022683E-02
   2.9035134832058829E-02   2.9330943092759777E-02   2.9629621580865632E-02
   2.9931194767296752E-02   3.0235687248593785E-02   3.0543123745278861E-02
   3.0853529100135033E-02   3.1166928276402769E-02   3.1483346355890118E-02
   3.1802808536995540E-02   3.2125340132639901E-02   3.2450966568106206E-02
   3.2779713378784027E-02   3.3111606207816328E-02   3.3446670803646356E-02
   3.3784933017461743E-02   3.4126418800533222E-02   3.4471154201445649E-02
   3.4819165363217761E-02   3.5170478520308732E-02   3.5525119995508260E-02
   3.5883116196706956E-02   3.6244493613544926E-02   3.6609278813934255E-02
   3.6977498440453546E-02   3.7349179206610468E-02   3.7724347892969294E-02
   3.8103031343140470E-02   3.8485256459628144E-02   3.8871050199532887E-02
   3.9260439570105818E-02   3.9653451624150196E-02   4.0050113455267974E-02
   4.0450452192945692E-02   4.0854494997477855E-02   4.1262269054722737E-02
   4.1673801570687063E-02   4.2089119765935573E-02   4.2508250869820872E-02
   4.2931222114530328E-02   4.3358060728944922E-02   4.3788793932305843E-02
   4.4223448927685025E-02   4.4662052895254087E-02   4.5104632985348073E-02
   4.5551216311318810E-02   4.6001829942172973E-02   4.6456500894990670E-02
   4.6915256127118783E-02   4.7378122528134572E-02   4.7845126911574547E-02
   4.8316296006422746E-02   4.8791656448354023E-02   4.9271234770725904E-02
   4.9755057395314634E-02   5.0243150622788890E-02   5.0735540622916284E-02
   5.1232253424496201E-02   5.1733314905013553E-02   5.2238750780007226E-02
   5.2748586592147567E-02   5.3262847700016054E-02   5.3781559266581708E-02
   5.4304746247367121E-02   5.4832433378298316E-02   5.5364645163231252E-02
   5.5901405861148834E-02   5.6442739473021440E-02   5.6988669728323858E-02
   5.7539220071202136E-02   5.8094413646282900E-02   5.8654273284118028E-02
   5.9218821486257719E-02   5.9788080409943864E-02   6.0362071852416911E-02
   6.0940817234828401E-02   6.1524337585751168E-02   6.2112653524279887E-02
   6.2705785242713974E-02   6.3303752488813952E-02   6.3906574547624787E-02
   6.4514270222856301E-02   6.5126857817813827E-02   6.5744355115869277E-02
   6.6366779360465047E-02   6.6994147234642268E-02   6.7626474840083384E-02
   6.8263777675661927E-02   6.8906070615489728E-02   6.9553367886451875E-02
   7.0205683045222178E-02   7.0863028954747803E-02   7.1525417760195470E-02
   7.2192860864349298E-02   7.2865368902450031E-02   7.3542951716467797E-02
   7.4225618328797302E-02   7.4913376915366370E-02   7.5606234778148859E-02
   7.6304198317070013E-02   7.7007273001296853E-02   7.7715463339902063E-02
   7.8428772851891954E-02   7.9147204035588711E-02   7.9870758337355588E-02
   8.0599436119657114E-02   8.1333236628441594E-02   8.2072157959838160E-02
   8.2816197026156335E-02   8.3565349521178584E-02   8.4319609884735636E-02
   8.5078971266554490E-02   8.5843425489368463E-02   8.6612963011279201E-02
   8.7387572887360279E-02   8.8167242730493103E-02   8.8951958671423401E-02
   8.9741705318029580E-02   9.0536465713792799E-02   9.1336221295457112E-02
   9.2140951849872560E-02   9.2950635470009008E-02   9.3765248510132154E-02
   9.4584765540132565E-02   9.5409159298996127E-02   9.6238400647409933E-02
   9.7072458519491284E-02   9.7911299873632660E-02   9.8754889642453783E-02
   9.9603190681850667E-02   1.0045616371913531E-01   1.0131376730025692E-01
   1.0217595773609579E-01   1.0304268904782464E-01   1.0391391291132741E-01
   1.0478957860067049E-01   1.0566963293061883E-01   1.0655402019819062E-01
   1.0744268212324519E-01   1.0833555778809741E-01   1.0923258357615481E-01
   1.1013369310957231E-01   1.1103881718591972E-01   1.1194788371385991E-01
   1.1286081764783215E-01   1.1377754092174093E-01   1.1469797238164585E-01
   1.1562202771745288E-01   1.1654961939360550E-01   1.1748065657877589E-01
   1.1841504507455738E-01   1.1935268724315908E-01   1.2029348193410538E-01
   1.2123732440994428E-01   1.2218410627096615E-01   1.2313371537894151E-01
   1.2408603577988070E-01   1.2504094762582413E-01   1.2599832709567141E-01
   1.2695804631505597E-01   1.2791997327527960E-01   1.2888397175131502E-01
   1.2984990121889037E-01   1.3081761677067111E-01   1.3178696903155140E-01
   1.3275780407307652E-01   1.3372996332701031E-01   1.3470328349807018E-01
   1.3567759647585079E-01   1.3665272924595842E-01   1.3762850380038244E-01
   1.3860473704713006E-01   1.3958124071915204E-01   1.4055782128259164E-01
   1.4153427984438804E-01   1.4251041205926790E-01   1.4348600803616574E-01
   1.4446085224410629E-01   1.4543472341759620E-01   1.4640739446156309E-01
   1.4737863235589330E-01   1.4834819805961291E-01   1.4931584641476614E-01
   1.5028132605004380E-01   1.5124437928421938E-01   1.5220474202945192E-01
   1.5316214369452008E-01   1.5411630708805132E-01   1.5506694832181750E-01
   1.5601377671416713E-01   1.5695649469367240E-01   1.5789479770306947E-01
   1.5882837410357434E-01   1.5975690507966281E-01   1.6068006454440331E-01
   1.6159751904543873E-01   1.6250892767171521E-01   1.6341394196106032E-01
   1.6431220580871853E-01   1.6520335537695557E-01   1.6608701900584655E-01
   1.6696281712536978E-01   1.6783036216893218E-01   1.6868925848845420E-01
   1.6953910227115285E-01   1.7037948145816090E-01   1.7120997566512966E-01
   1.7203015610496572E-01   1.7283958551285811E-01   1.7363781807375972E-01
   1.7442439935248880E-01   1.7519886622662748E-01   1.7596074682239402E-01
   1.7670956045367905E-01   1.7744481756443345E-01   1.7816601967461182E-01
   1.7887265932987295E-01   1.7956422005525180E-01   1.8024017631302122E-01
   1.8089999346496788E-01   1.8154312773931769E-01   1.8216902620254843E-01
   1.8277712673633784E-01   1.8336685801990088E-01   1.8393763951797915E-01
   1.8448888147475048E-01   1.8501998491393729E-01   1.8553034164539803E-01
   1.8601933427849321E-01   1.8648633624252856E-01   1.8693071181458304E-01
   1.8735181615503729E-01   1.8774899535112893E-01   1.8812158646886684E-01
   1.8846891761364512E-01   1.8879030799990601E-01   1.8908506803021094E-01
   1.8935249938408275E-01   1.8959189511699653E-01   1.8980253976989789E-01
   1.8998370948964236E-01   1.9013467216075339E-01   1.9025468754890490E-01
   1.9034300745654678E-01   1.9039887589109206E-01   1.9042152924609979E-01
   1.9041019649589258E-01   1.9036409940405252E-01   1.9028245274625222E-01
   1.9016446454788130E-01   1.9000933633693523E-01   1.8981626341264454E-01
   1.8958443513032402E-01   1.8931303520293058E-01   1.8900124201982524E-01
   1.8864822898323780E-01   1.8825316486294030E-01   1.8781521416963939E-01
   1.8733353754760282E-01   1.8680729218703829E-01   1.8623563225674811E-01
   1.8561770935758451E-01   1.8495267299723422E-01   1.8423967108686137E-01
   1.8347785046014115E-01   1.8266635741521478E-01   1.8180433828009782E-01
   1.8089094000207190E-01   1.7992531076158866E-01   1.7890660061121158E-01
   1.7783396214011879E-01   1.7670655116468229E-01   1.7552352744563759E-01
   1.7428405543234790E-01   1.7298730503466023E-01   1.7163245242284053E-01
   1.7021868085606706E-01   1.6874518153994553E-01   1.6721115451350088E-01
   1.6561580956608229E-01   1.6395836718460297E-01   1.6223805953151987E-01
   1.6045413145393761E-01   1.5860584152419832E-01   1.5669246311230151E-01
   1.5471328549046579E-01   1.5266761497012288E-01   1.5055477607160428E-01
   1.4837411272674902E-01   1.4612498951462771E-01   1.4380679293054463E-01
   1.4141893268843886E-01   1.3896084305676870E-01   1.3643198422791716E-01
   1.3383184372111592E-01   1.3115993781883009E-01   1.2841581303650512E-01
   1.2559904762551385E-01   1.2270925310908969E-01   1.1974607585097938E-01
   1.1670919865646873E-01   1.1359834240539166E-01   1.1041326771664239E-01
   1.0715377664365645E-01   1.0381971440024063E-01   1.0041097111605322E-01
   9.6927483620962485E-02   9.3369237257413071E-02   8.9736267719853088E-02
   8.6028662920174595E-02   8.2246564878022468E-02   7.8390171634737826E-02
   7.4459739189582333E-02   7.0455583456798615E-02   6.6378082241944927E-02
   6.2227677235822031E-02   5.8004876024208583E-02   5.3710254111487325E-02
   4.9344456956125569E-02   4.4908202015855062E-02   4.0402280800248797E-02
   3.5827560928284811E-02   3.1184988188327930E-02   2.6475588597842745E-02
   2.1700470460006661E-02   1.6860826414231925E-02   1.1957935477503488E-02
   6.9931650732474237E-03   1.9679730443130281E-03  -3.1160903534709818E-03
  -8.2573804809278773E-03  -1.3454156372194510E-02  -1.8704578822471569E-02
  -2.4006708511085138E-02  -2.9358504164204813E-02  -3.4757820761816806E-02
  -4.0202407793665476E-02  -4.5689907569095294E-02  -5.1217853585947132E-02
  -5.6783668963791674E-02  -6.2384664947076729E-02  -6.8018039483912621E-02
  -7.3680875886458871E-02  -7.9370141579119202E-02  -8.5082686940914337E-02
  -9.0815244248684507E-02  -9.6564426727951805E-02  -1.0232672771848651E-01
  -1.0809851996185568E-01  -1.1387605501838645E-01  -1.1965546282120290E-01
  -1.2543275137513643E-01  -1.3120380660850012E-01  -1.3696439238584265E-01
  -1.4271015068994111E-01  -1.4843660198140754E-01  -1.5413914574438764E-01
  -1.5981306122690347E-01  -1.6545350838447920E-01  -1.7105552903570759E-01
  -1.7661404823847479E-01  -1.8212387589552725E-01  -1.8757970859808157E-01
  -1.9297613171611655E-01  -1.9830762174390812E-01  -2.0356854890933043E-01
  -2.0875318005524979E-01  -2.1385568180128950E-01  -2.1887012399403891E-01
  -2.2379048345360539E-01  -2.2861064802426923E-01  -2.3332442093671615E-01
  -2.3792552548916501E-01  -2.4240761005443359E-01  -2.4676425341969602E-01
  -2.5098897046544866E-01  -2.5507521818981221E-01  -2.5901640208399296E-01
  -2.6280588286432988E-01  -2.6643698356589796E-01  -2.6990299700222509E-01
  -2.7319719359513128E-01  -2.7631282957817399E-01  -2.7924315557660861E-01
  -2.8198142556610317E-01  -2.8452090621181941E-01  -2.8685488658872038E-01
  -2.8897668828321560E-01  -2.9087967587545671E-01  -2.9255726780072111E-01
  -2.9400294758744483E-01  -2.9521027546851042E-01  -2.9617290036139449E-01
  -2.9688457221175635E-01  -2.9733915469393590E-01  -2.9753063826070936E-01
  -2.9745315353344892E-01  -2.9710098502260279E-01  -2.9646858516712093E-01
  -2.9555058868012224E-01  -2.9434182718671492E-01  -2.9283734413845180E-01
  -2.9103240998743996E-01  -2.8892253760159387E-01  -2.8650349790098151E-01
  -2.8377133569360091E-01  -2.8072238568730773E-01  -2.7735328865293890E-01
  -2.7366100771198432E-01  -2.6964284472044692E-01  -2.6529645671876423E-01
  -2.6061987241593632E-01  -2.5561150867420251E-01  -2.5027018695884085E-01
  -2.4459514971589288E-01  -2.3858607663881118E-01  -2.3224310078330807E-01
  -2.2556682448790111E-01  -2.1855833505594538E-01  -2.1121922015329939E-01
  -2.0355158287407044E-01  -1.9555805642538027E-01  -1.8724181838053378E-01
  -1.7860660444851448E-01  -1.6965672170645996E-01  -1.6039706124039121E-01
  -1.5083311013842110E-01  -1.4097096277959295E-01  -1.3081733136054474E-01
  -1.2037955560156664E-01  -1.0966561157286422E-01  -9.8684119581520721E-02
  -8.7444351059372469E-02  -7.5956234391915553E-02  -6.4230359628617797E-02
  -5.2277982015308318E-02  -4.0111024289958580E-02  -2.7742077684073742E-02
  -1.5184401572886416E-02  -2.4519217189896267E-03   1.0440772944507275E-02
   2.3478435043456793E-02   3.6645165055009636E-02   4.9924419211082524E-02
   6.3299019059042699E-02   7.6751162723605937E-02   9.0262437911779930E-02
   1.0381383670061799E-01   1.1738577214558137E-01   1.3095809674543432E-01
   1.4451012279787515E-01   1.5802064467849486E-01   1.7146796307419906E-01
   1.8482991120060832E-01   1.9808388303146168E-01   2.1120686356598659E-01
   2.2417546115758868E-01   2.3696594192366560E-01   2.4955426625105892E-01
   2.6191612740472625E-01   2.7402699223785154E-01   2.8586214398996362E-01
   2.9739672714618259E-01   3.0860579431577628E-01   3.1946435507321591E-01
   3.2994742669090993E-01   3.4003008668053247E-01   3.4968752705057088E-01
   3.5889511018077164E-01   3.6762842620977942E-01   3.7586335182923430E-01
   3.8357611037496847E-01   3.9074333310304044E-01   3.9734212153411447E-01
   4.0335011074412030E-01   4.0874553347197728E-01   4.1350728490670619E-01
   4.1761498800697666E-01   4.2104905919642122E-01   4.2379077426840644E-01
   4.2582233432481753E-01   4.2712693156501058E-01   4.2768881473365777E-01
   4.2749335402979449E-01   4.2652710527392762E-01   4.2477787312551540E-01
   4.2223477313934110E-01   4.1888829244612336E-01   4.1473034884004328E-01
   4.0975434805359123E-01   4.0395523899821040E-01   3.9732956674761144E-01
   3.8987552303931672E-01   3.8159299406909369E-01   3.7248360535236102E-01
   3.6255076342661952E-01   3.5179969416947526E-01   3.4023747750788341E-01
   3.2787307829621359E-01   3.1471737314330833E-01   3.0078317297236362E-01
   2.8608524110210531E-01   2.7064030664330085E-01   2.5446707301177962E-01
   2.3758622136715529E-01   2.2002040879610241E-01   2.0179426107020434E-01
   1.8293435982073780E-01   1.6346922398723363E-01   1.4342928541228103E-01
   1.2284685847251668E-01   1.0175610365510272E-01   8.0192985009479870E-02
   5.8195221426929629E-02   3.5802231724399690E-02   1.3055073534710668E-02
  -1.0003623967187670E-02  -3.3329733443332760E-02  -5.6877708787514969E-02
  -8.0600670412829131E-02  -1.0445049627388452E-01  -1.2837791842723523E-01
  -1.5233262489332577E-01  -1.7626336654021055E-01  -2.0011806866501405E-01
  -2.2384394690512852E-01  -2.4738762706971482E-01  -2.7069526844779040E-01
  -2.9371269012645296E-01  -3.1638549984850445E-01  -3.3865922495972728E-01
  -3.6047944504974938E-01  -3.8179192598322631E-01  -4.0254275515228338E-01
  -4.2267847795202362E-01  -4.4214623566881189E-01  -4.6089390513750811E-01
  -4.7887024060876598E-01  -4.9602501820061540E-01  -5.1230918303598760E-01
  -5.2767499868917145E-01  -5.4207619796079043E-01  -5.5546813342857859E-01
  -5.6780792585459605E-01  -5.7905460848443435E-01  -5.8916926554898508E-01
  -5.9811516376203966E-01  -6.0585787613356035E-01  -6.1236539784871713E-01
  -6.1760825422758914E-01  -6.2155960088156248E-01  -6.2419531616608448E-01
  -6.2549408595202804E-01  -6.2543748064424054E-01  -6.2401002429258345E-01
  -6.2119925557841438E-01  -6.1699578041966330E-01  -6.1139331591824719E-01
  -6.0438872537222987E-01  -5.9598204409013844E-01  -5.8617649577492470E-01
  -5.7497849928887335E-01  -5.6239766566571092E-01  -5.4844678529961810E-01
  -5.3314180530883859E-01  -5.1650179714045963E-01  -4.9854891454978123E-01
  -4.7930834214921525E-01  -4.5880823477690663E-01  -4.3707964798282162E-01
  -4.1415645996984485E-01  -3.9007528536011710E-01  -3.6487538118250840E-01
  -3.3859854549716961E-01  -3.1128900908799551E-01  -2.8299332066452271E-01
  -2.5376022602214787E-01  -2.2364054161394142E-01  -1.9268702298963680E-01
  -1.6095422855792466E-01  -1.2849837912725190E-01  -9.5377213678717612E-02
  -6.1649841822087520E-02  -2.7376593383322573E-02   7.3811344310023294E-03
   4.2561031849802172E-02   7.8100032894051874E-02   1.1393447283619819E-01
   1.5000024632632508E-01   1.8623296575064152E-01   2.2256811938867338E-01
   2.5894122893602373E-01   2.9528800596032762E-01   3.3154450685781039E-01
   3.6764728587882023E-01   4.0353354579134093E-01   4.3914128575296196E-01
   4.7440944596459705E-01   5.0927804868262916E-01   5.4368833517183457E-01
   5.7758289818875175E-01   6.1090580959443941E-01   6.4360274270841578E-01
   6.7562108903048135E-01   7.0691006897640540E-01   7.3742083629668487E-01
   7.6710657587497721E-01   7.9592259463634241E-01   8.2382640533376983E-01
   8.5077780302626937E-01   8.7673893411266379E-01   9.0167435784090666E-01
   9.2555110027346021E-01   9.4833870075167226E-01   9.7000925096422119E-01
   9.9053742678300372E-01   1.0099005130796577E+00   1.0280784217739967E+00
   1.0450537033875631E+00   1.0608115523789330E+00   1.0753398065216964E+00
   1.0886289405516332E+00   1.1006720542607633E+00   1.1114648551574180E+00
   1.1210056357504521E+00   1.1292952454594074E+00   1.1363370571075411E+00
   1.1421369279265481E+00   1.1467031549933751E+00   1.1500464250314426E+00
   1.1521797585387841E+00   1.1531184482505070E+00   1.1528799919975805E+00
   1.1514840200831757E+00   1.1489522173568882E+00   1.1453082402222388E+00
   1.1405776288614087E+00   1.1347877150015862E+00   1.1279675255794666E+00
   1.1201476826845160E+00   1.1113603001787768E+00   1.1016388774022827E+00
   1.0910181903797735E+00   1.0795341809475794E+00   1.0672238442198994E+00
   1.0541251148120805E+00   1.0402767522353042E+00   1.0257182258722610E+00
   1.0104895999375729E+00   9.9463141881928374E-01   9.7818459318913709E-01
   9.6119028725943145E-01   9.4368980755267073E-01   9.2572449353756492E-01
   9.0733561047074263E-01   8.8856424476804374E-01   8.6945120221286354E-01
   8.5003690929130293E-01   8.3036131792549106E-01   8.1046381385756383E-01
   7.9038312891753681E-01   7.7015725738534946E-01   7.4982337664329857E-01
   7.2941777228873572E-01   7.0897576785979644E-01   6.8853165930596794E-01
   6.6811865431551876E-01   6.4776881659191698E-01   6.2751301515189206E-01
   6.0738087869851110E-01   5.8740075510361012E-01   5.6759967601490180E-01
   5.4800332658516426E-01   5.2863602030196166E-01   5.0952067887872809E-01
   4.9067881715039680E-01   4.7213053289940504E-01   4.5389450152112193E-01
   4.3598797542146739E-01   4.1842678802376038E-01   4.0122536224690131E-01
   3.8439672330280272E-01   3.6795251564752418E-01   3.5190302390818873E-01
   3.3625719759590406E-01   3.2102267940417334E-01   3.0620583688206160E-01
   2.9181179726179229E-01   2.7784448521159477E-01   2.6430666327593239E-01
   2.5119997475728439E-01   2.3852498878613115E-01   2.2628124731882512E-01
   2.1446731379731201E-01   2.0308082319995743E-01   1.9211853320990033E-01
   1.8157637622674319E-01   1.7144951194913127E-01   1.6173238026063791E-01
   1.5241875415914433E-01   1.4350179248070188E-01   1.3497409218267895E-01
   1.2682773996699254E-01   1.1905436304239854E-01   1.1164517884408809E-01
   1.0459104354869687E-01   9.7882499242765958E-02   9.1509819621778746E-02
   8.5463054115054046E-02   7.9732070348424569E-02   7.4306594871713497E-02
   6.9176252091559601E-02   6.4330601362074830E-02   5.9759172196437511E-02
   5.5451497571947415E-02   5.1397145309542945E-02   4.7585747516521448E-02
   4.4007028088377212E-02   4.0650828272442131E-02   3.7507130302492517E-02
   3.4566079119736470E-02   3.1818002201685201E-02   2.9253427526311663E-02
   2.6863099704650392E-02   2.4637994320516454E-02   2.2569330521343529E-02
   2.0648581909170741E-02   1.8867485785537944E-02   1.7218050808446770E-02
   1.5692563123539983E-02   1.4283591035274917E-02   1.2983988287044841E-02
   1.1786896021942191E-02   1.0685743498165957E-02   9.6742476349024782E-03
   8.7464114659090327E-03   7.8965215789702468E-03   7.1191446198944483E-03
   6.4091229398077938E-03   5.7615694641588618E-03   5.1718618611232081E-03
   4.6356360859925970E-03   4.1487793766568862E-03   3.7074227734839793E-03
   3.3079332347573892E-03   2.9469054163825371E-03   2.6211531818405472E-03
   2.3277009053370413E-03   2.0637746278508256E-03   1.8267931222840973E-03
   1.6143589202394283E-03   1.4242493491134658E-03   1.2544076242472235E-03
   1.1029340368632038E-03   9.6807727449817898E-04   8.4822590666001267E-04
   7.4190006455288992E-04   6.4774333996451064E-04   5.6451492483795991E-04
   4.9108200967829907E-04   4.2641245579044953E-04   3.6956775341566325E-04
   3.1969627512357470E-04   2.7602683131825172E-04   2.3786253241400273E-04
   2.0457496011544658E-04   1.7559864828131668E-04   1.5042587205022580E-04
   1.2860174224838829E-04   1.0971960058068658E-04   9.3416709720421906E-05
   7.9370231162139310E-05   6.7293482585278658E-05   5.6932465496360984E-05
   4.8062653074956901E-05   4.0486027444999722E-05   3.4028355026963835E-05
   2.8536688195839247E-05   2.3877081171007997E-05   1.9932507889712676E-05
   1.6600969561080436E-05   1.3793779650487855E-05   1.1434014197011384E-05
   9.4551156079853381E-06   7.7996383932846307E-06   6.4181256866553932E-06
   5.2681058409137034E-06   4.3131988672150073E-06   3.5223230055813717E-06
   2.8689922517955434E-06   2.3306962429701069E-06   1.8883543751251334E-06
   1.5258368056130171E-06   1.2295452275820418E-06   9.8804713905605337E-07
   7.9175769282530659E-07   6.3266376611383144E-07   5.0408536652903807E-07
   4.0046994672375313E-07   3.1721562992066118E-07   2.5051975052641434E-07
   1.9724948804270025E-07   1.5483171858933662E-07   1.2115952687612864E-07
   9.4513113215558378E-08   7.3493096128392128E-08   5.6964452395201941E-08
   4.4009554351178065E-08   3.3888960193625472E-08   2.6008788512593906E-08
   1.9893664633830421E-08   1.5164365152843608E-08   1.1519409678630841E-08
   8.7199567244845485E-09   6.5774552318120440E-09   4.9435856873900275E-09
   3.7020964381697964E-09   2.7622027650693455E-09   2.0532696279750802E-09
   1.5205447328919551E-09   1.1217476128101837E-09   8.2435359015615021E-10
   6.0343955666647293E-10   4.3998214616822129E-10   3.1951869658368456E-10
   2.3109794248147541E-10   1.6646112457404338E-10   1.1940557216156371E-10
   8.5292174240822118E-11   6.0665824944986346E-11   4.2964184840114103E-11
   3.0295178123294059E-11   2.1267749020752082E-11   1.4863700175259943E-11
   1.0341076264264457E-11   7.1616588289809195E-12   4.9368049257686577E-12
   3.3871763250928494E-12   2.3129373389094153E-12   1.5718045881808707E-12
   1.0629575942853468E-12   7.0905374022399273E-13   4.0838440351427369E-14
   3.4599848213296616E-17   0.0000000000000000E+00   0.0000000000000000E+00
       </PP_GIPAW_WFS_AE>
       <PP_GIPAW_WFS_PS size="1164">
   0.0000000000000000E+00   1.3142152953265202E-05   1.3307460887323923E-05
   1.3474848139222479E-05   1.3644340863557239E-05   1.3815965543911164E-05
   1.3989748996989701E-05   1.4165718376810940E-05   1.4343901178948476E-05
   1.4524325244827630E-05   1.4707018766075755E-05   1.4892010288927190E-05
   1.5079328718683745E-05   1.5269003324231135E-05   1.5461063742612354E-05
   1.5655539983658484E-05   1.5852462434677817E-05   1.6051861865203947E-05
   1.6253769431803538E-05   1.6458216682944618E-05   1.6665235563926106E-05
   1.6874858421869267E-05   1.7087118010772138E-05   1.7302047496627252E-05
   1.7519680462604042E-05   1.7740050914296165E-05   1.7963193285034984E-05
   1.8189142441269888E-05   1.8417933688016164E-05   1.8649602774371568E-05
   1.8884185899102119E-05   1.9121719716298249E-05   1.9362241341102104E-05
   1.9605788355506869E-05   1.9852398814228951E-05   2.0102111250654215E-05
   2.0354964682858832E-05   2.0610998619705924E-05   2.0870253067018979E-05
   2.1132768533832765E-05   2.1398586038722982E-05   2.1667747116215503E-05
   2.1940293823276202E-05   2.2216268745882490E-05   2.2495715005677391E-05
   2.2778676266707436E-05   2.3065196742245278E-05   2.3355321201698020E-05
   2.3649094977602633E-05   2.3946563972709151E-05   2.4247774667153162E-05
   2.4552774125718384E-05   2.4861610005190614E-05   2.5174330561804210E-05
   2.5490984658782246E-05   2.5811621773971473E-05   2.6136292007573366E-05
   2.6465046089972267E-05   2.6797935389662310E-05   2.7135011921273647E-05
   2.7476328353699942E-05   2.7821938018328037E-05   2.8171894917370970E-05
   2.8526253732306037E-05   2.8885069832418821E-05   2.9248399283454771E-05
   2.9616298856379601E-05   2.9988826036249867E-05   3.0366039031195112E-05
   3.0747996781512991E-05   3.1134758968878858E-05   3.1526386025671094E-05
   3.1922939144413824E-05   3.2324480287338381E-05   3.2731072196065006E-05
   3.3142778401406342E-05   3.3559663233294309E-05   3.3981791830831703E-05
   3.4409230152470401E-05   3.4842044986317456E-05   3.5280303960570826E-05
   3.5724075554086546E-05   3.6173429107078545E-05   3.6628434831953304E-05
   3.7089163824280683E-05   3.7555688073902572E-05   3.8028080476181717E-05
   3.8506414843391606E-05   3.8990765916249800E-05   3.9481209375596325E-05
   3.9977821854219039E-05   4.0480680948827529E-05   4.0989865232177805E-05
   4.1505454265349535E-05   4.2027528610177511E-05   4.2556169841839625E-05
   4.3091460561603230E-05   4.3633484409731634E-05   4.4182326078553154E-05
   4.4738071325694507E-05   4.5300806987480336E-05   4.5870620992501988E-05
   4.6447602375356204E-05   4.7031841290557046E-05   4.7623429026622796E-05
   4.8222458020339890E-05   4.8829021871206346E-05   4.9443215356056942E-05
   5.0065134443872284E-05   5.0694876310773992E-05   5.1332539355208915E-05
   5.1978223213323939E-05   5.2632028774534317E-05   5.3294058197287953E-05
   5.3964414925027720E-05   5.4643203702354875E-05   5.5330530591395473E-05
   5.6026502988372844E-05   5.6731229640388481E-05   5.7444820662413982E-05
   5.8167387554496688E-05   5.8899043219181929E-05   5.9639901979154123E-05
   6.0390079595099984E-05   6.1149693283796264E-05   6.1918861736425448E-05
   6.2697705137121042E-05   6.3486345181746910E-05   6.4284905096912250E-05
   6.5093509659226302E-05   6.5912285214794587E-05   6.6741359698961063E-05
   6.7580862656298134E-05   6.8430925260848171E-05   6.9291680336619829E-05
   7.0163262378342156E-05   7.1045807572479383E-05   7.1939453818510579E-05
   7.2844340750476659E-05   7.3760609758798397E-05   7.4688404012369052E-05
   7.5627868480924844E-05   7.6579149957696529E-05   7.7542397082346547E-05
   7.8517760364193640E-05   7.9505392205731033E-05   8.0505446926438975E-05
   8.1518080786897586E-05   8.2543452013203274E-05   8.3581720821691342E-05
   8.4633049443970620E-05   8.5697602152272031E-05   8.6775545285116643E-05
   8.7867047273306408E-05   8.8972278666241857E-05   9.0091412158570784E-05
   9.1224622617171910E-05   9.2372087108478365E-05   9.3533984926144780E-05
   9.4710497619061930E-05   9.5901809019724506E-05   9.7108105272955005E-05
   9.8329574864989229E-05   9.9566408652928054E-05   1.0081879989455860E-04
   1.0208694427855171E-04   1.0337103995503805E-04   1.0467128756657032E-04
   1.0598789027947328E-04   1.0732105381558926E-04   1.0867098648442235E-04
   1.1003789921568761E-04   1.1142200559226883E-04   1.1282352188359144E-04
   1.1424266707941507E-04   1.1567966292405100E-04   1.1713473395101019E-04
   1.1860810751808711E-04   1.2010001384288508E-04   1.2161068603878760E-04
   1.2314036015138323E-04   1.2468927519534832E-04   1.2625767319179304E-04
   1.2784579920607805E-04   1.2945390138610602E-04   1.3108223100109572E-04
   1.3273104248084287E-04   1.3440059345547572E-04   1.3609114479571019E-04
   1.3780296065361034E-04   1.3953630850386465E-04   1.4129145918557784E-04
   1.4306868694459045E-04   1.4486826947633026E-04   1.4669048796920329E-04
   1.4853562714852914E-04   1.5040397532103034E-04   1.5229582441988077E-04
   1.5421147005032076E-04   1.5615121153584590E-04   1.5811535196497690E-04
   1.6010419823861804E-04   1.6211806111801077E-04   1.6415725527329014E-04
   1.6622209933265394E-04   1.6831291593214772E-04   1.7043003176607811E-04
   1.7257377763805888E-04   1.7474448851269962E-04   1.7694250356794510E-04
   1.7916816624807184E-04   1.8142182431735233E-04   1.8370382991439378E-04
   1.8601453960715992E-04   1.8835431444868617E-04   1.9072352003349420E-04
   1.9312252655471731E-04   1.9555170886194326E-04   1.9801144651978542E-04
   2.0050212386719040E-04   2.0302413007749161E-04   2.0557785921921862E-04
   2.0816371031767063E-04   2.1078208741726509E-04   2.1343339964467040E-04
   2.1611806127273250E-04   2.1883649178520620E-04   2.2158911594229909E-04
   2.2437636384704278E-04   2.2719867101249572E-04   2.3005647842979350E-04
   2.3295023263705496E-04   2.3588038578915331E-04   2.3884739572836708E-04
   2.4185172605591858E-04   2.4489384620441192E-04   2.4797423151118363E-04
   2.5109336329257335E-04   2.5425172891913164E-04   2.5744982189177196E-04
   2.6068814191888118E-04   2.6396719499439979E-04   2.6728749347688317E-04
   2.7064955616956063E-04   2.7405390840139714E-04   2.7750108210917833E-04
   2.8099161592062545E-04   2.8452605523855668E-04   2.8810495232610878E-04
   2.9172886639302665E-04   2.9539836368304293E-04   2.9911401756235284E-04
   3.0287640860920441E-04   3.0668612470461396E-04   3.1054376112422467E-04
   3.1444992063131712E-04   3.1840521357099451E-04   3.2241025796554733E-04
   3.2646567961102269E-04   3.3057211217500394E-04   3.3473019729562270E-04
   3.3894058468181656E-04   3.4320393221484491E-04   3.4752090605108613E-04
   3.5189218072612436E-04   3.5631843926014491E-04   3.6080037326466054E-04
   3.6533868305057356E-04   3.6993407773760188E-04   3.7458727536507879E-04
   3.7929900300414824E-04   3.8406999687137062E-04   3.8890100244375655E-04
   3.9379277457524928E-04   3.9874607761467115E-04   4.0376168552515426E-04
   4.0884038200507264E-04   4.1398296061049525E-04   4.1919022487918169E-04
   4.2446298845613413E-04   4.2980207522073070E-04   4.3520831941545835E-04
   4.4068256577626077E-04   4.4622566966453418E-04   4.5183849720077294E-04
   4.5752192539990553E-04   4.6327684230832730E-04   4.6910414714265719E-04
   4.7500475043024334E-04   4.8097957415143178E-04   4.8702955188362689E-04
   4.9315562894716475E-04   4.9935876255301692E-04   5.0563992195235897E-04
   5.1200008858801277E-04   5.1844025624780043E-04   5.2496143121982212E-04
   5.3156463244968919E-04   5.3825089169973563E-04   5.4502125371023091E-04
   5.5187677636261946E-04   5.5881853084481753E-04   5.6584760181858397E-04
   5.7296508758899968E-04   5.8017210027607878E-04   5.8746976598853451E-04
   5.9485922499973802E-04   6.0234163192588125E-04   6.0991815590638913E-04
   6.1758998078659570E-04   6.2535830530271845E-04   6.3322434326916455E-04
   6.4118932376818340E-04   6.4925449134191522E-04   6.5742110618684560E-04
   6.6569044435071381E-04   6.7406379793189441E-04   6.8254247528128304E-04
   6.9112780120672958E-04   6.9982111718003553E-04   7.0862378154655796E-04
   7.1753716973745204E-04   7.2656267448457663E-04   7.3570170603811042E-04
   7.4495569238689884E-04   7.5432607948157978E-04   7.6381433146050664E-04
   7.7342193087851961E-04   7.8315037893859245E-04   7.9300119572639288E-04
   8.0297592044779517E-04   8.1307611166937343E-04   8.2330334756193025E-04
   8.3365922614707768E-04   8.4414536554692663E-04   8.5476340423691686E-04
   8.6551500130182038E-04   8.7640183669497184E-04   8.8742561150076003E-04
   8.9858804820040761E-04   9.0989089094111874E-04   9.2133590580858148E-04
   9.3292488110292295E-04   9.4465962761812298E-04   9.5654197892494218E-04
   9.6857379165741803E-04   9.8075694580294632E-04   9.9309334499602915E-04
   1.0055849168157118E-03   1.0182336130867490E-03   1.0310414101845867E-03
   1.0440103093441425E-03   1.0571423369725031E-03   1.0704395449655348E-03
   1.0839040110284814E-03   1.0975378390006014E-03   1.1113431591838745E-03
   1.1253221286758517E-03   1.1394769317066933E-03   1.1538097799804355E-03
   1.1683229130205637E-03   1.1830185985199156E-03   1.1978991326949990E-03
   1.2129668406447604E-03   1.2282240767138605E-03   1.2436732248605330E-03
   1.2593166990290498E-03   1.2751569435268870E-03   1.2911964334066297E-03
   1.3074376748526755E-03   1.3238832055728117E-03   1.3405355951946996E-03
   1.3573974456673641E-03   1.3744713916677214E-03   1.3917601010122213E-03
   1.4092662750736734E-03   1.4269926492033022E-03   1.4449419931581199E-03
   1.4631171115336724E-03   1.4815208442022253E-03   1.5001560667564679E-03
   1.5190256909587768E-03   1.5381326651961586E-03   1.5574799749408918E-03
   1.5770706432169696E-03   1.5969077310724080E-03   1.6169943380574968E-03
   1.6373336027090517E-03   1.6579287030407794E-03   1.6787828570397833E-03
   1.6998993231693324E-03   1.7212814008779466E-03   1.7429324311148740E-03
   1.7648557968520714E-03   1.7870549236127257E-03   1.8095332800064350E-03
   1.8322943782711283E-03   1.8553417748217694E-03   1.8786790708059939E-03
   1.9023099126667081E-03   1.9262379927117797E-03   1.9504670496908914E-03
   1.9750008693796188E-03   1.9998432851709032E-03   2.0249981786739169E-03
   2.0504694803204762E-03   2.0762611699790901E-03   2.1023772775767059E-03
   2.1288218837282893E-03   2.1555991203743210E-03   2.1827131714262961E-03
   2.2101682734203599E-03   2.2379687161791307E-03   2.2661188434818808E-03
   2.2946230537431141E-03   2.3234858006996855E-03   2.3527115941065781E-03
   2.3823050004413830E-03   2.4122706436176828E-03   2.4426132057073762E-03
   2.4733374276720852E-03   2.5044481101037853E-03   2.5359501139746955E-03
   2.5678483613966554E-03   2.6001478363899834E-03   2.6328535856620645E-03
   2.6659707193956886E-03   2.6995044120472927E-03   2.7334599031552651E-03
   2.7678424981583925E-03   2.8026575692245920E-03   2.8379105560900858E-03
   2.8736069669090692E-03   2.9097523791141314E-03   2.9463524402874347E-03
   2.9834128690428533E-03   3.0209394559192462E-03   3.0589380642848697E-03
   3.0974146312532438E-03   3.1363751686104739E-03   3.1758257637542462E-03
   3.2157725806446417E-03   3.2562218607668481E-03   3.2971799241060295E-03
   3.3386531701344009E-03   3.3806480788107344E-03   3.4231712115924138E-03
   3.4662292124602069E-03   3.5098288089559153E-03   3.5539768132330607E-03
   3.5986801231207787E-03   3.6439457232010806E-03   3.6897806858996233E-03
   3.7361921725902196E-03   3.7831874347132206E-03   3.8307738149079063E-03
   3.8789587481591744E-03   3.9277497629585430E-03   3.9771544824798192E-03
   4.0271806257694944E-03   4.0778360089520956E-03   4.1291285464506887E-03
   4.1810662522226965E-03   4.2336572410112353E-03   4.2869097296121912E-03
   4.3408320381571764E-03   4.3954325914126345E-03   4.4507199200952184E-03
   4.5067026622037090E-03   4.5633895643676578E-03   4.6207894832129438E-03
   4.6789113867445236E-03   4.7377643557464603E-03   4.7973575851995949E-03
   4.8577003857170143E-03   4.9188021849974756E-03   4.9806725292971584E-03
   5.0433210849198089E-03   5.1067576397256544E-03   5.1709921046591990E-03
   5.2360345152962203E-03   5.3018950334102139E-03   5.3685839485583930E-03
   5.4361116796876868E-03   5.5044887767608380E-03   5.5737259224029109E-03
   5.6438339335684691E-03   5.7148237632296322E-03   5.7867065020853186E-03
   5.8594933802919606E-03   5.9331957692158590E-03   6.0078251832075859E-03
   6.0833932813985549E-03   6.1599118695201769E-03   6.2373929017458295E-03
   6.3158484825558397E-03   6.3952908686259581E-03   6.4757324707393760E-03
   6.5571858557228234E-03   6.6396637484068405E-03   6.7231790336106543E-03
   6.8077447581519259E-03   6.8933741328816647E-03   6.9800805347445989E-03
   7.0678775088654205E-03   7.1567787706611017E-03   7.2467982079797103E-03
   7.3379498832659533E-03   7.4302480357538447E-03   7.5237070836868701E-03
   7.6183416265658563E-03   7.7141664474250724E-03   7.8111965151367053E-03
   7.9094469867442268E-03   8.0089332098250039E-03   8.1096707248823029E-03
   8.2116752677674001E-03   8.3149627721318068E-03   8.4195493719102892E-03
   8.5254514038348318E-03   8.6326854099800926E-03   8.7412681403406158E-03
   8.8512165554402774E-03   8.9625478289742863E-03   9.0752793504842583E-03
   9.1894287280666308E-03   9.3050137911149106E-03   9.4220525930961922E-03
   9.5405634143622391E-03   9.6605647649957768E-03   9.7820753876921279E-03
   9.9051142606769883E-03   1.0029700600660409E-02   1.0155853865827701E-02
   1.0283593758867608E-02   1.0412940230038217E-02   1.0543913480271078E-02
   1.0676533964313926E-02   1.0810822393912647E-02   1.0946799741032744E-02
   1.1084487241120999E-02   1.1223906396407687E-02   1.1365078979249812E-02
   1.1508027035515992E-02   1.1652772888013392E-02   1.1799339139957295E-02
   1.1947748678483725E-02   1.2098024678205714E-02   1.2250190604813763E-02
   1.2404270218720944E-02   1.2560287578753297E-02   1.2718267045885946E-02
   1.2878233287025583E-02   1.3040211278839803E-02   1.3204226311633944E-02
   1.3370303993275833E-02   1.3538470253169316E-02   1.3708751346276766E-02
   1.3881173857191467E-02   1.4055764704260319E-02   1.4232551143757545E-02
   1.4411560774109915E-02   1.4592821540174118E-02   1.4776361737567060E-02
   1.4962210017049388E-02   1.5150395388963326E-02   1.5340947227724935E-02
   1.5533895276371926E-02   1.5729269651167294E-02   1.5927100846259735E-02
   1.6127419738401302E-02   1.6330257591723098E-02   1.6535646062569534E-02
   1.6743617204392013E-02   1.6954203472702642E-02   1.7167437730088692E-02
   1.7383353251288383E-02   1.7601983728328958E-02   1.7823363275727564E-02
   1.8047526435755648E-02   1.8274508183767819E-02   1.8504343933595648E-02
   1.8737069543007263E-02   1.8972721319233544E-02   1.9211336024561602E-02
   1.9452950881996296E-02   1.9697603580990635E-02   1.9945332283245673E-02
   2.0196175628580948E-02   2.0450172740875933E-02   2.0707363234083603E-02
   2.0967787218316693E-02   2.1231485306007464E-02   2.1498498618142049E-02
   2.1768868790569711E-02   2.2042637980388462E-02   2.2319848872407271E-02
   2.2600544685686032E-02   2.2884769180154155E-02   2.3172566663308365E-02
   2.3463981996990933E-02   2.3759060604248795E-02   2.4057848476274644E-02
   2.4360392179430937E-02   2.4666738862357419E-02   2.4976936263163409E-02
   2.5291032716705280E-02   2.5609077161950326E-02   2.5931119149427900E-02
   2.6257208848768553E-02   2.6587397056332136E-02   2.6921735202925963E-02
   2.7260275361613327E-02   2.7603070255614190E-02   2.7950173266298086E-02
   2.8301638441270514E-02   2.8657520502554150E-02   2.9017874854864605E-02
   2.9382757593983178E-02   2.9752225515226022E-02   3.0126336122011849E-02
   3.0505147634528301E-02   3.0888718998498106E-02   3.1277109894046196E-02
   3.1670380744668256E-02   3.2068592726301956E-02   3.2471807776501535E-02
   3.2880088603716655E-02   3.3293498696676742E-02   3.3712102333881076E-02
   3.4135964593196191E-02   3.4565151361561020E-02   3.4999729344800549E-02
   3.5439766077549506E-02   3.5885329933286032E-02   3.6336490134476929E-02
   3.6793316762835038E-02   3.7255880769689116E-02   3.7724253986468101E-02
   3.8198509135299256E-02   3.8678719839722153E-02   3.9164960635518428E-02
   3.9657306981658105E-02   4.0155835271364453E-02   4.0660622843295906E-02
   4.1171747992847244E-02   4.1689289983571493E-02   4.2213329058719953E-02
   4.2743946452905517E-02   4.3281224403885703E-02   4.3825246164467972E-02
   4.4376096014539020E-02   4.4933859273214832E-02   4.5498622311116642E-02
   4.6070472562769506E-02   4.6649498539124944E-02   4.7235789840210256E-02
   4.7829437167900467E-02   4.8430532338817507E-02   4.9039168297354448E-02
   4.9655439128824599E-02   5.0279440072738310E-02   5.0911267536204133E-02
   5.1551019107456790E-02   5.2198793569511327E-02   5.2854690913942043E-02
   5.3518812354788899E-02   5.4191260342587651E-02   5.4872138578526589E-02
   5.5561552028727021E-02   5.6259606938648822E-02   5.6966410847619671E-02
   5.7682072603487185E-02   5.8406702377393836E-02   5.9140411678673795E-02
   5.9883313369869746E-02   6.0635521681870322E-02   6.1397152229165412E-02
   6.2168322025219901E-02   6.2949149497962265E-02   6.3739754505388435E-02
   6.4540258351278995E-02   6.5350783801025977E-02   6.6171455097571608E-02
   6.7002397977451805E-02   6.7843739686946056E-02   6.8695608998330673E-02
   6.9558136226230097E-02   7.0431453244068784E-02   7.1315693500615396E-02
   7.2210992036618848E-02   7.3117485501535184E-02   7.4035312170335058E-02
   7.4964611960397082E-02   7.5905526448475133E-02   7.6858198887739371E-02
   7.7822774224888189E-02   7.8799399117320909E-02   7.9788221950372509E-02
   8.0789392854601280E-02   8.1803063723123570E-02   8.2829388228994841E-02
   8.3868521842623125E-02   8.4920621849215963E-02   8.5985847366249674E-02
   8.7064359360953553E-02   8.8156320667806473E-02   8.9261896006030503E-02
   9.0381251997079873E-02   9.1514557182113807E-02   9.2661982039442523E-02
   9.3823699001941513E-02   9.4999882474418609E-02   9.6190708850927453E-02
   9.7396356532015338E-02   9.8617005941891323E-02   9.9852839545506999E-02
   1.0110404186553383E-01   1.0237079949922515E-01   1.0365330113514898E-01
   1.0495173756977691E-01   1.0626630172391420E-01   1.0759718865895440E-01
   1.0894459559294474E-01   1.1030872191644052E-01   1.1168976920813463E-01
   1.1308794125024153E-01   1.1450344404361455E-01   1.1593648582258172E-01
   1.1738727706946980E-01   1.1885603052880216E-01   1.2034296122114409E-01
   1.2184828645656909E-01   1.2337222584772700E-01   1.2491500132247932E-01
   1.2647683713608066E-01   1.2805795988287691E-01   1.2965859850748507E-01
   1.3127898431543208E-01   1.3291935098321203E-01   1.3457993456773204E-01
   1.3626097351511457E-01   1.3796270866881061E-01   1.3968538327699700E-01
   1.4142924299920961E-01   1.4319453591217246E-01   1.4498151251478747E-01
   1.4679042573222761E-01   1.4862153091909819E-01   1.5047508586161282E-01
   1.5235135077873302E-01   1.5425058832222374E-01   1.5617306357556582E-01
   1.5811904405167146E-01   1.6008879968934583E-01   1.6208260284842818E-01
   1.6410072830355688E-01   1.6614345323648660E-01   1.6821105722689225E-01
   1.7030382224158991E-01   1.7242203262209635E-01   1.7456597507045732E-01
   1.7673593863326065E-01   1.7893221468375389E-01   1.8115509690198042E-01
   1.8340488125284560E-01   1.8568186596202091E-01   1.8798635148959164E-01
   1.9031864050134875E-01   1.9267903783761844E-01   1.9506785047953429E-01
   1.9748538751262479E-01   1.9993196008761752E-01   2.0240788137833435E-01
   2.0491346653655085E-01   2.0744903264370401E-01   2.1001489865930481E-01
   2.1261138536592300E-01   2.1523881531060973E-01   2.1789751274259464E-01
   2.2058780354712512E-01   2.2331001517527713E-01   2.2606447656957523E-01
   2.2885151808526638E-01   2.3167147140705116E-01   2.3452466946111672E-01
   2.3741144632226485E-01   2.4033213711594867E-01   2.4328707791502757E-01
   2.4627660563101533E-01   2.4930105789962664E-01   2.5236077296038834E-01
   2.5545608953009058E-01   2.5858734666984873E-01   2.6175488364552252E-01
   2.6495903978124696E-01   2.6820015430581567E-01   2.7147856619164423E-01
   2.7479461398604105E-01   2.7814863563449915E-01   2.8154096829571179E-01
   2.8497194814801152E-01   2.8844191018691473E-01   2.9195118801345488E-01
   2.9550011361296458E-01   2.9908901712397035E-01   3.0271822659683473E-01
   3.0638806774179894E-01   3.1009886366603523E-01   3.1385093459932989E-01
   3.1764459760800562E-01   3.2148016629665754E-01   3.2535795049730476E-01
   3.2927825594551102E-01   3.3324138394303215E-01   3.3724763100654687E-01
   3.4129728850198349E-01   3.4539064226398214E-01   3.4952797219999154E-01
   3.5370955187848568E-01   3.5793564810081147E-01   3.6220652045610352E-01
   3.6652242085874420E-01   3.7088359306781865E-01   3.7529027218796945E-01
   3.7974268415111012E-01   3.8424104517836849E-01   3.8878556122167174E-01
   3.9337642738436723E-01   3.9801382732021778E-01   4.0269793261016906E-01
   4.0742890211620564E-01   4.1220688131164585E-01   4.1703200158720927E-01
   4.2190437953215232E-01   4.2682411618980071E-01   4.3179129628676116E-01
   4.3680598743510080E-01   4.4186823930679703E-01   4.4697808277969930E-01
   4.5213552905430460E-01   4.5734056874059281E-01   4.6259317091418412E-01
   4.6789328214109399E-01   4.7324082547032115E-01   4.7863569939355072E-01
   4.8407777677122044E-01   4.8956690372422235E-01   4.9510289849051670E-01
   5.0068555024593597E-01   5.0631461788847676E-01   5.1198982878538146E-01
   5.1771087748233824E-01   5.2347742437414846E-01   5.2928909433621085E-01
   5.3514547531623646E-01   5.4104611688559812E-01   5.4699052874978416E-01
   5.5297817921744685E-01   5.5900849362757277E-01   5.6508085273439168E-01
   5.7119459104961667E-01   5.7734899514175353E-01   5.8354330189222459E-01
   5.8977669670812560E-01   5.9604831169156425E-01   6.0235722376552814E-01
   6.0870245275640522E-01   6.1508295943333779E-01   6.2149764350468306E-01
   6.2794534157204085E-01   6.3442482504234432E-01   6.4093479799871733E-01
   6.4747389503094210E-01   6.5404067902648333E-01   6.6063363892327576E-01
   6.6725118742558798E-01   6.7389165868450052E-01   6.8055330594478591E-01
   6.8723429916011491E-01   6.9393272257884475E-01   7.0064657230284466E-01
   7.0737375382208412E-01   7.1411207952806399E-01   7.2085926620936214E-01
   7.2761293253301518E-01   7.3437059651570580E-01   7.4112967298913568E-01
   7.4788747106435471E-01   7.5464119160017296E-01   7.6138792468127525E-01
   7.6812464711205586E-01   7.7484821993268138E-01   7.8155538596440222E-01
   7.8824276739161492E-01   7.9490686338875616E-01   8.0154404780067201E-01
   8.0815056688566334E-01   8.1472253713109555E-01   8.2125594315202799E-01
   8.2774663568405160E-01   8.3419032968216722E-01   8.4058260253828898E-01
   8.4691889243068330E-01   8.5319449681940840E-01   8.5940457110264457E-01
   8.6554412744955234E-01   8.7160803382617869E-01   8.7759101323175603E-01
   8.8348764316355943E-01   8.8929235532945039E-01   8.9499943562800810E-01
   9.0060302441712192E-01   9.0609711709278518E-01   9.1147556500068871E-01
   9.1673207670416235E-01   9.2186021963282150E-01   9.2685342213716682E-01
   9.3170497597523538E-01   9.3640803925813498E-01   9.4095563988215059E-01
   9.4534067947573885E-01   9.4955593789043258E-01   9.5359407826527864E-01
   9.5744765269488163E-01   9.6110910853161713E-01   9.6457079535284196E-01
   9.6782497262414346E-01   9.7086381808973143E-01   9.7367943692098080E-01
   9.7626387165386674E-01   9.7860911294561415E-01   9.8070711118019083E-01
   9.8254978895143830E-01   9.8412905445146703E-01   9.8543681579056230E-01
   9.8646499627314466E-01   9.8720555065231297E-01   9.8765048238312625E-01
   9.8779186189205925E-01   9.8762184587690971E-01   9.8713269764790801E-01
   9.8631680851673298E-01   9.8516672023565532E-01   9.8367514848406035E-01
   9.8183500739401797E-01   9.7963943510052953E-01   9.7708182029539492E-01
   9.7415582975636916E-01   9.7085543681542685E-01   9.6717495072138904E-01
   9.6310904684307563E-01   9.5865279764926492E-01   9.5380170439134315E-01
   9.4855172940340771E-01   9.4289932892284389E-01   9.3684148632209596E-01
   9.3037574562939973E-01   9.2350024520282847E-01   9.1621375140808525E-01
   9.0851569213610617E-01   9.0040618998193078E-01   8.9188609489138093E-01
   8.8295701606705446E-01   8.7362135291025844E-01   8.6388232476057147E-01
   8.5374399918040023E-01   8.4321131851790054E-01   8.3229012446852013E-01
   8.2098718034334528E-01   8.0931019074150945E-01   7.9726781831469862E-01
   7.8486969730442602E-01   7.7212644352747062E-01   7.5904966048245148E-01
   7.4565194125072343E-01   7.3194686586858648E-01   7.1794899385525812E-01
   7.0367385159260298E-01   6.8913791426892523E-01   6.7435858212015864E-01
   6.5935415072833270E-01   6.4414377516944965E-01   6.2874742784098026E-01
   6.1318584984385183E-01   5.9748049584463070E-01   5.8165347240122978E-01
   5.6572746979958521E-01   5.4972568751926509E-01   5.3367175352280560E-01
   5.1758963764598442E-01   5.0150355945382019E-01   4.8543789101885348E-01
   4.6941705517309285E-01   4.5346541988161482E-01   4.3760718948233329E-01
   4.2186629363110234E-01   4.0626627488154221E-01   3.9083017591230051E-01
   3.7558042748779075E-01   3.6053873829824434E-01   3.4572598786795788E-01
   3.3116212374226189E-01   3.1686606416044072E-01   3.0285560738865375E-01
   2.8914734881957493E-01   2.7575660683951136E-01   2.6269735831455970E-01
   2.4998218435118694E-01   2.3762222673966554E-01   2.2562715518826870E-01
   2.1400514510035862E-01   2.0276286523468640E-01   1.9190547412248429E-01
   1.8143662359644261E-01   1.7135846722135692E-01   1.6167167081247510E-01
   1.5237542161165707E-01   1.4346743300455059E-01   1.3494394151309777E-01
   1.2679968283623616E-01   1.1902784496497092E-01   1.1162012116314711E-01
   1.0456738522438154E-01   9.7860181155295919E-02   9.1488784068774379E-02
   8.5443244823071945E-02   7.9713432487698979E-02   7.4289075068705343E-02
   6.9159798439305697E-02   6.4315163428326549E-02   5.9744701029577116E-02
   5.5437945704673142E-02   5.1384466760316223E-02   4.7573897788775743E-02
   4.3995964167493136E-02   4.0640508620501274E-02   3.7497514850829312E-02
   3.4557129259315866E-02   3.1809680771342212E-02   2.9245698798897105E-02
   2.6855929371135127E-02   2.4631349472115434E-02   2.2563179629728286E-02
   2.0642894804846990E-02   1.8862233634472338E-02   1.7213206087033427E-02
   1.5688099592004266E-02   1.4279483709617307E-02   1.2980213409633330E-02
   1.1783431030865984E-02   1.0682566995467081E-02   9.6713393538053645E-03
   8.7437522371700185E-03   7.8940932964710019E-03   7.1169302056038851E-03
   6.4071063082372041E-03   5.7597354864341666E-03   5.1701963287968198E-03
   4.6341256747150479E-03   4.1474116098254464E-03   3.7061859859818351E-03
   3.3068165368926998E-03   2.9458986581317797E-03   2.6202469174952865E-03
   2.3268863586474024E-03   2.0630436577527981E-03   1.8261381892913542E-03
   1.6137730535736717E-03   1.4237261146404765E-03   1.2539410932789308E-03
   1.1025187558791781E-03   9.6770823583308783E-04   8.4789852019683128E-04
   7.4161013045499465E-04   6.4748702247331669E-04   5.6428872715646636E-04
   4.9088274995482187E-04   4.2623724421096660E-04   3.6941397040759572E-04
   3.1956155066849566E-04   2.7590902536596699E-04   2.3775971638571541E-04
   2.0448539947930431E-04   1.7552078617957486E-04   1.5035831395355343E-04
   1.2854324160950441E-04   1.0966904545656283E-04   9.3373110329716787E-05
   7.9332708342352539E-05   6.7261257112320765E-05   5.6904848227821806E-05
   4.8039035877314749E-05   4.0465874864325413E-05   3.4011196662324592E-05
   2.8522111734574927E-05   2.3864726045312088E-05   1.9922059514479147E-05
   1.6592154113747368E-05   1.3786359354592083E-05   1.1427783072337360E-05
   9.4498956515181804E-06   7.7952761566343549E-06   6.4144892171799364E-06
   5.2650819554076537E-06   4.3106907287250216E-06   3.5202479756350365E-06
   2.8672799920716127E-06   2.3292870421657780E-06   1.8871976785138921E-06
   1.5248899263900543E-06   1.2287722208373493E-06   9.8741782067986646E-07
   7.9124678721425194E-07   6.3225016796162310E-07   5.0375150334504458E-07
   4.0020122999979942E-07   3.1699998406215384E-07   2.5034720977759906E-07
   1.9711185266801319E-07   1.5472226252474456E-07   1.2107274993817727E-07
   9.4444531754267860E-08   7.3439066736352477E-08   5.6922023942814006E-08
   4.3976344210808190E-08   3.3863051047537074E-08   2.5988642615028820E-08
   1.9878052820715142E-08   1.5152308267438654E-08   1.1510130412100870E-08
   8.7128401607883753E-09   6.5720166402921252E-09   4.9394443275937871E-09
   3.6989543331661256E-09   2.7598275650253880E-09   2.0514808279951721E-09
   1.5192026308274499E-09   1.1207444964305064E-09   8.2360673100713182E-10
   6.0288566219138919E-10   4.3957298408049773E-10   3.1921765770894791E-10
   2.3087735179448972E-10   1.6630014623552384E-10   1.1928858414166853E-10
   8.5207512586699079E-11   6.0604817763091161E-11   4.2920412355658839E-11
   3.0263908378917229E-11   2.1245509420530306E-11   1.4847953622413244E-11
   1.0329977463429514E-11   7.1538717466285797E-12   4.9313666912608351E-12
   3.3833962305060915E-12   2.3103222392774523E-12   1.5700040636272690E-12
   1.0617238311916915E-12   7.1446118083269772E-13   4.7838258167585060E-13
   3.1869463174287724E-13   2.1122702005729256E-13   1.3927457451951274E-13
       </PP_GIPAW_WFS_PS>
     </PP_GIPAW_ORBITAL.1>
     <PP_GIPAW_ORBITAL.2 index="2" label="5P" l="1" cutoff_radius="  2.49580682139600" ultrasoft_cutoff_radius="  2.49580682139600">
       <PP_GIPAW_WFS_AE size="1164">
   0.0000000000000000E+00  -4.6561286832857475E-07  -4.7480982229103289E-07
  -4.8420676903785533E-07  -4.9380850192475623E-07  -5.0361928831348585E-07
  -5.1364328810416827E-07  -5.2388474693054363E-07  -5.3434800256530955E-07
  -5.4503748675975351E-07  -5.5595772712313627E-07  -5.6711334904277524E-07
  -5.7850907764564107E-07  -5.9014973980230196E-07  -6.0204026617406524E-07
  -6.1418569330419713E-07  -6.2659116575409532E-07  -6.3926193828534196E-07
  -6.5220337808854613E-07  -6.6542096705994044E-07  -6.7892030412669531E-07
  -6.9270710762193066E-07  -7.0678721771046218E-07  -7.2116659886627990E-07
  -7.3585134240284687E-07  -7.5084766905727350E-07  -7.6616193162947586E-07
  -7.8180061767744296E-07  -7.9777035226976150E-07  -8.1407790079656265E-07
  -8.3073017184010000E-07  -8.4773422010616943E-07  -8.6509724941763262E-07
  -8.8282661577130865E-07  -9.0092983045953986E-07  -9.1941456325776762E-07
  -9.3828864567946397E-07  -9.5756007429982421E-07  -9.7723701414961752E-07
  -9.9732780218065859E-07  -1.0178409508043661E-06  -1.0387851515049275E-06
  -1.0601692785285977E-06  -1.0820023926507163E-06  -1.1042937450220489E-06
  -1.1270527810960812E-06  -1.1502891446389557E-06  -1.1740126818237544E-06
  -1.1982334454108759E-06  -1.2229616990162862E-06  -1.2482079214694739E-06
  -1.2739828112629582E-06  -1.3002972910952578E-06  -1.3271625125092616E-06
  -1.3545898606279574E-06  -1.3825909589895868E-06  -1.4111776744842384E-06
  -1.4403621223940249E-06  -1.4701566715389816E-06  -1.5005739495308802E-06
  -1.5316268481372192E-06  -1.5633285287576619E-06  -1.5956924280152717E-06
  -1.6287322634649362E-06  -1.6624620394214199E-06  -1.6968960529095231E-06
  -1.7320488997389072E-06  -1.7679354807061745E-06  -1.8045710079268616E-06
  -1.8419710113000361E-06  -1.8801513451082805E-06  -1.9191281947558850E-06
  -1.9589180836481111E-06  -1.9995378802145008E-06  -2.0410048050791980E-06
  -2.0833364383813908E-06  -2.1265507272489779E-06  -2.1706659934286665E-06
  -2.2157009410757766E-06  -2.2616746647070738E-06  -2.3086066573200503E-06
  -2.3565168186821076E-06  -2.4054254637932222E-06  -2.4553533315256949E-06
  -2.5063215934447020E-06  -2.5583518628134019E-06  -2.6114662037865038E-06
  -2.6656871407961848E-06  -2.7210376681344035E-06  -2.7775412597357425E-06
  -2.8352218791649277E-06  -2.8941039898133362E-06  -2.9542125653088678E-06
  -3.0155731001436312E-06  -3.0782116205240193E-06  -3.1421546954478185E-06
  -3.2074294480131138E-06  -3.2740635669638340E-06  -3.3420853184769160E-06
  -3.4115235581961228E-06  -3.4824077435176952E-06  -3.5547679461331254E-06
  -3.6286348648344089E-06  -3.7040398385873376E-06  -3.7810148598783538E-06
  -3.8595925883408292E-06  -3.9398063646664910E-06  -4.0216902248081102E-06
  -4.1052789144794408E-06  -4.1906079039587224E-06  -4.2777134032020997E-06
  -4.3666323772734467E-06  -4.4574025620972204E-06  -4.5500624805411991E-06
  -4.6446514588359255E-06  -4.7412096433380076E-06  -4.8397780176444549E-06
  -4.9403984200654282E-06  -5.0431135614629387E-06  -5.1479670434631928E-06
  -5.2550033770503836E-06  -5.3642680015500140E-06  -5.4758073040098743E-06
  -5.5896686389870856E-06  -5.7059003487496587E-06  -5.8245517839014305E-06
  -5.9456733244390806E-06  -6.0693164012505254E-06  -6.1955335180637494E-06
  -6.3243782738557907E-06  -6.4559053857313230E-06  -6.5901707122808817E-06
  -6.7272312774287346E-06  -6.8671452947807815E-06  -7.0099721924828729E-06
  -7.1557726386004441E-06  -7.3046085670303362E-06  -7.4565432039560577E-06
  -7.6116410948578456E-06  -7.7699681320893748E-06  -7.9315915830328785E-06
  -8.0965801188449262E-06  -8.2650038438053311E-06  -8.4369343252818785E-06
  -8.6124446243237987E-06  -8.7916093268973314E-06  -8.9745045757767779E-06
  -9.1612081031050295E-06  -9.3517992636375494E-06  -9.5463590686841976E-06
  -9.7449702207638270E-06  -9.9477171489863779E-06  -1.0154686045178045E-05
  -1.0365964900765104E-05  -1.0581643544432414E-05  -1.0801813680572910E-05
  -1.1026568928544826E-05  -1.1256004862753661E-05  -1.1490219053576298E-05
  -1.1729311109145128E-05  -1.1973382718010128E-05  -1.2222537692697694E-05
  -1.2476882014184983E-05  -1.2736523877309175E-05  -1.3001573737131348E-05
  -1.3272144356275209E-05  -1.3548350853261184E-05  -1.3830310751857028E-05
  -1.4118144031466242E-05  -1.4411973178576410E-05  -1.4711923239289832E-05
  -1.5018121872959193E-05  -1.5330699406951876E-05  -1.5649788892566448E-05
  -1.5975526162126129E-05  -1.6308049887273624E-05  -1.6647501638493252E-05
  -1.6994025945885963E-05  -1.7347770361223866E-05  -1.7708885521311399E-05
  -1.8077525212680818E-05  -1.8453846437650135E-05  -1.8838009481772414E-05
  -1.9230177982705943E-05  -1.9630519000535311E-05  -2.0039203089574172E-05
  -2.0456404371681002E-05  -2.0882300611120070E-05  -2.1317073291000245E-05
  -2.1760907691324974E-05  -2.2213992968688101E-05  -2.2676522237649780E-05
  -2.3148692653828373E-05  -2.3630705498745045E-05  -2.4122766266457858E-05
  -2.4625084752023388E-05  -2.5137875141824795E-05  -2.5661356105806020E-05
  -2.6195750891652380E-05  -2.6741287420959097E-05  -2.7298198387429848E-05
  -2.7866721357148718E-05  -2.8447098870969257E-05  -2.9039578549066017E-05
  -2.9644413197694365E-05  -3.0261860918205690E-05  -3.0892185218365698E-05
  -3.1535655126025256E-05  -3.2192545305193347E-05  -3.2863136174563894E-05
  -3.3547714028548157E-05  -3.4246571160866355E-05  -3.4960005990753131E-05
  -3.5688323191832205E-05  -3.6431833823717785E-05  -3.7190855466400207E-05
  -3.7965712357475457E-05  -3.8756735532279404E-05  -3.9564262966988736E-05
  -4.0388639724751613E-05  -4.1230218104913019E-05  -4.2089357795401017E-05
  -4.2966426028341072E-05  -4.3861797738967683E-05  -4.4775855727904055E-05
  -4.5708990826881130E-05  -4.6661602067970314E-05  -4.7634096856404351E-05
  -4.8626891147063943E-05  -4.9640409624707796E-05  -5.0675085888026412E-05
  -5.1731362637602215E-05  -5.2809691867858281E-05  -5.3910535063082630E-05
  -5.5034363397614106E-05  -5.6181657940280081E-05  -5.7352909863176252E-05
  -5.8548620654881800E-05  -5.9769302338205791E-05  -6.1015477692560493E-05
  -6.2287680481062471E-05  -6.3586455682460987E-05  -6.4912359727999129E-05
  -6.6265960743312505E-05  -6.7647838795472843E-05  -6.9058586145288680E-05
  -7.0498807504974049E-05  -7.1969120301301515E-05  -7.3470154944357068E-05
  -7.5002555102016217E-05  -7.6566977980265007E-05  -7.8164094609490902E-05
  -7.9794590136871515E-05  -8.1459164124992155E-05  -8.3158530856825626E-05
  -8.4893419647211229E-05  -8.6664575160971431E-05  -8.8472757737808889E-05
  -9.0318743724130632E-05  -9.2203325811944777E-05  -9.4127313384984536E-05
  -9.6091532872212961E-05  -9.8096828108865989E-05  -1.0014406070519706E-04
  -1.0223411042308674E-04  -1.0436787556068594E-04  -1.0654627334526624E-04
  -1.0877024033445118E-04  -1.1104073282600869E-04  -1.1335872727638852E-04
  -1.1572522072819048E-04  -1.1814123124675610E-04  -1.2060779836607657E-04
  -1.2312598354421935E-04  -1.2569687062847384E-04  -1.2832156633042554E-04
  -1.3100120071117099E-04  -1.3373692767688805E-04  -1.3652992548498642E-04
  -1.3938139726106015E-04  -1.4229257152687476E-04  -1.4526470273962638E-04
  -1.4829907184270730E-04  -1.5139698682823153E-04  -1.5455978331156331E-04
  -1.5778882511810973E-04  -1.6108550488263670E-04  -1.6445124466137328E-04
  -1.6788749655718171E-04  -1.7139574335806447E-04  -1.7497749918929785E-04
  -1.7863431017947935E-04  -1.8236775514078338E-04  -1.8617944626373044E-04
  -1.9007102982677594E-04  -1.9404418692103265E-04  -1.9810063419045066E-04
  -2.0224212458777954E-04  -2.0647044814665037E-04  -2.1078743277011709E-04
  -2.1519494503600628E-04  -2.1969489101943300E-04  -2.2428921713284238E-04
  -2.2897991098395220E-04  -2.3376900225197076E-04  -2.3865856358247717E-04
  -2.4365071150136242E-04  -2.4874760734822489E-04  -2.5395145822963797E-04
  -2.5926451799270720E-04  -2.6468908821933865E-04  -2.7022751924166383E-04
  -2.7588221117905566E-04  -2.8165561499719950E-04  -2.8755023358967134E-04
  -2.9356862288250552E-04  -2.9971339296222895E-04  -3.0598720922784905E-04
  -3.1239279356730582E-04  -3.1893292555889517E-04  -3.2561044369817802E-04
  -3.3242824665092338E-04  -3.3938929453260544E-04  -3.4649661021503222E-04
  -3.5375328066064826E-04  -3.6116245828510414E-04  -3.6872736234865966E-04
  -3.7645128037703943E-04  -3.8433756961233620E-04  -3.9238965849458578E-04
  -4.0061104817465241E-04  -4.0900531405905919E-04  -4.1757610738743528E-04
  -4.2632715684323615E-04  -4.3526227019843021E-04  -4.4438533599284791E-04
  -4.5370032524888834E-04  -4.6321129322232841E-04  -4.7292238118995571E-04
  -4.8283781827476979E-04  -4.9296192330954133E-04  -5.0329910673947351E-04
  -5.1385387256478528E-04  -5.2463082032401000E-04  -5.3563464711883150E-04
  -5.4687014968130530E-04  -5.5834222648429277E-04  -5.7005587989600499E-04
  -5.8201621837951898E-04  -5.9422845873816467E-04  -6.0669792840771541E-04
  -6.1943006779627741E-04  -6.3243043267286446E-04  -6.4570469660559253E-04
  -6.5925865345047995E-04  -6.7309821989186309E-04  -6.8722943803541082E-04
  -7.0165847805480101E-04  -7.1639164089309156E-04  -7.3143536101983263E-04
  -7.4679620924504695E-04  -7.6248089559112281E-04  -7.7849627222378837E-04
  -7.9484933644326944E-04  -8.1154723373679297E-04  -8.2859726089362673E-04
  -8.4600686918380442E-04  -8.6378366760178898E-04  -8.8193542617628093E-04
  -9.0047007934740614E-04  -9.1939572941258094E-04  -9.3872065004228864E-04
  -9.5845328986712646E-04  -9.7860227613739341E-04  -9.9917641845658997E-04
  -1.0201847125901789E-03  -1.0416363443509727E-03  -1.0635406935625626E-03
  -1.0859073381021939E-03  -1.1087460580245126E-03  -1.1320668397676635E-03
  -1.1558798804431618E-03  -1.1801955922110857E-03  -1.2050246067420471E-03
  -1.2303777797674877E-03  -1.2562661957198531E-03  -1.2827011724641775E-03
  -1.3096942661226789E-03  -1.3372572759939585E-03  -1.3654022495683982E-03
  -1.3941414876414216E-03  -1.4234875495262147E-03  -1.4534532583675970E-03
  -1.4840517065587320E-03  -1.5152962612623329E-03  -1.5472005700380828E-03
  -1.5797785665780221E-03  -1.6130444765515531E-03  -1.6470128235619183E-03
  -1.6816984352158041E-03  -1.7171164493079117E-03  -1.7532823201222574E-03
  -1.7902118248519340E-03  -1.8279210701392531E-03  -1.8664264987379258E-03
  -1.9057448962992286E-03  -1.9458933982838935E-03  -1.9868894970015453E-03
  -2.0287510487795846E-03  -2.0714962812632535E-03  -2.1151438008487726E-03
  -2.1597126002514031E-03  -2.2052220662101534E-03  -2.2516919873311002E-03
  -2.2991425620710465E-03  -2.3475944068633487E-03  -2.3970685643877770E-03
  -2.4475865119860944E-03  -2.4991701702252590E-03  -2.5518419116099416E-03
  -2.6056245694461304E-03  -2.6605414468576028E-03  -2.7166163259568711E-03
  -2.7738734771724310E-03  -2.8323376687338507E-03  -2.8920341763164349E-03
  -2.9529887928470217E-03  -3.0152278384724431E-03  -3.0787781706922675E-03
  -3.1436671946572714E-03  -3.2099228736350359E-03  -3.2775737396441964E-03
  -3.3466489042584973E-03  -3.4171780695821620E-03  -3.4891915393976381E-03
  -3.5627202304869309E-03  -3.6377956841277368E-03  -3.7144500777651318E-03
  -3.7927162368600904E-03  -3.8726276469154557E-03  -3.9542184656802277E-03
  -4.0375235355328953E-03  -4.1225783960442512E-03  -4.2094192967203608E-03
  -4.2980832099258860E-03  -4.3886078439881121E-03  -4.4810316564818081E-03
  -4.5753938676948089E-03  -4.6717344742743310E-03  -4.7700942630536369E-03
  -4.8705148250586215E-03  -4.9730385696937808E-03  -5.0777087391067083E-03
  -5.1845694227302614E-03  -5.2936655720012210E-03  -5.4050430152541400E-03
  -5.5187484727888866E-03  -5.6348295721099957E-03  -5.7533348633361167E-03
  -5.8743138347771544E-03  -5.9978169286767210E-03  -6.1238955571172940E-03
  -6.2526021180848764E-03  -6.3839900116902364E-03  -6.5181136565429457E-03
  -6.6550285062744663E-03  -6.7947910662061687E-03  -6.9374589101576685E-03
  -7.0830906973907920E-03  -7.2317461896839273E-03  -7.3834862685311043E-03
  -7.5383729524600689E-03  -7.6964694144626656E-03  -7.8578399995311177E-03
  -8.0225502422926996E-03  -8.1906668847352287E-03  -8.3622578940153007E-03
  -8.5373924803404180E-03  -8.7161411149161670E-03  -8.8985755479484320E-03
  -9.0847688266906413E-03  -9.2747953135252966E-03  -9.4687307040679305E-03
  -9.6666520452821977E-03  -9.8686377535928457E-03  -1.0074767632983529E-02
  -1.0285122893065582E-02  -1.0499786167102676E-02  -1.0718841529976365E-02
  -1.0942374516076166E-02  -1.1170472137097003E-02  -1.1403222899726699E-02
  -1.1640716823204408E-02  -1.1883045456730834E-02  -1.2130301896709886E-02
  -1.2382580803800065E-02  -1.2639978419754063E-02  -1.2902592584022425E-02
  -1.3170522750097922E-02  -1.3443870001574714E-02  -1.3722737067896174E-02
  -1.4007228339763974E-02  -1.4297449884179490E-02  -1.4593509459088031E-02
  -1.4895516527594651E-02  -1.5203582271719352E-02  -1.5517819605658055E-02
  -1.5838343188514469E-02  -1.6165269436466317E-02  -1.6498716534328835E-02
  -1.6838804446475633E-02  -1.7185654927077135E-02  -1.7539391529613594E-02
  -1.7900139615619710E-02  -1.8268026362615271E-02  -1.8643180771174543E-02
  -1.9025733671086460E-02  -1.9415817726554412E-02  -1.9813567440384212E-02
  -2.0219119157105725E-02  -2.0632611064972620E-02  -2.1054183196782327E-02
  -2.1483977429456548E-02  -2.1922137482320549E-02  -2.2368808914017730E-02
  -2.2824139117993199E-02  -2.3288277316478916E-02  -2.3761374552909713E-02
  -2.4243583682698158E-02  -2.4735059362293747E-02  -2.5235958036448982E-02
  -2.5746437923613762E-02  -2.6266658999375664E-02  -2.6796782977862334E-02
  -2.7336973291019775E-02  -2.7887395065676557E-02  -2.8448215098303108E-02
  -2.9019601827371080E-02  -2.9601725303216593E-02  -3.0194757155307131E-02
  -3.0798870556810465E-02  -3.1414240186359785E-02  -3.2041042186907932E-02
  -3.2679454121559794E-02  -3.3329654926269665E-02  -3.3991824859287111E-02
  -3.4666145447232247E-02  -3.5352799427678550E-02  -3.6051970688118079E-02
  -3.6763844201181416E-02  -3.7488605955981621E-02  -3.8226442885448422E-02
  -3.8977542789515783E-02  -3.9742094254023669E-02  -4.0520286565191570E-02
  -4.1312309619518026E-02  -4.2118353828958330E-02  -4.2938610021228757E-02
  -4.3773269335084138E-02  -4.4622523110411302E-02  -4.5486562772979251E-02
  -4.6365579713683970E-02  -4.7259765162122457E-02  -4.8169310054329485E-02
  -4.9094404894506276E-02  -5.0035239610569444E-02  -5.0992003403344810E-02
  -5.1964884589230126E-02  -5.2954070436146458E-02  -5.3959746992598777E-02
  -5.4982098909661221E-02  -5.6021309255704289E-02  -5.7077559323675635E-02
  -5.8151028430749013E-02  -5.9241893710151587E-02  -6.0350329894980036E-02
  -6.1476509093815114E-02  -6.2620600557943329E-02  -6.3782770439994932E-02
  -6.4963181543805940E-02  -6.6161993065313868E-02  -6.7379360324296089E-02
  -6.8615434486760468E-02  -6.9870362277800316E-02  -7.1144285684726694E-02
  -7.2437341650291809E-02  -7.3749661755820900E-02  -7.5081371894072893E-02
  -7.6432591931651792E-02  -7.7803435360795911E-02  -7.9194008940375302E-02
  -8.0604412325932170E-02  -8.2034737688604753E-02  -8.3485069322781297E-02
  -8.4955483242334609E-02  -8.6446046765298892E-02  -8.7956818086853197E-02
  -8.9487845840487204E-02  -9.1039168647234880E-02  -9.2610814652865553E-02
  -9.4202801052941376E-02  -9.5815133605651942E-02  -9.7447806132355680E-02
  -9.9100800005767653E-02  -1.0077408362574704E-01  -1.0246761188265431E-01
  -1.0418132560826054E-01  -1.0591515101421112E-01  -1.0766899911806270E-01
  -1.0944276515693016E-01  -1.1123632798880052E-01  -1.1304954948159475E-01
  -1.1488227389007322E-01  -1.1673432722071421E-01  -1.1860551658470937E-01
  -1.2049562953925254E-01  -1.2240443341732460E-01  -1.2433167464619981E-01
  -1.2627707805493971E-01  -1.2824034617115895E-01  -1.3022115850739244E-01
  -1.3221917083741738E-01  -1.3423401446292405E-01  -1.3626529547096775E-01
  -1.3831259398266593E-01  -1.4037546339365362E-01  -1.4245342960684235E-01
  -1.4454599025807691E-01  -1.4665261393532783E-01  -1.4877273939209848E-01
  -1.5090577475578049E-01  -1.5305109673173270E-01  -1.5520804980391043E-01
  -1.5737594543293118E-01  -1.5955406125250035E-01  -1.6174164026519000E-01
  -1.6393789003861084E-01  -1.6614198190307250E-01  -1.6835305015189694E-01
  -1.7057019124559217E-01  -1.7279246302117318E-01  -1.7501888390796475E-01
  -1.7724843215129238E-01  -1.7948004504553769E-01  -1.8171261817809012E-01
  -1.8394500468581210E-01  -1.8617601452570384E-01  -1.8840441376151754E-01
  -1.9062892386817756E-01  -1.9284822105591409E-01  -1.9506093561612634E-01
  -1.9726565129108198E-01  -1.9946090466963082E-01  -2.0164518461124445E-01
  -2.0381693170076368E-01  -2.0597453773635749E-01  -2.0811634525331554E-01
  -2.1024064708637796E-01  -2.1234568597345638E-01  -2.1442965420368781E-01
  -2.1649069331288617E-01  -2.1852689382957904E-01  -2.2053629507490596E-01
  -2.2251688501978298E-01  -2.2446660020282913E-01  -2.2638332571264322E-01
  -2.2826489523812274E-01  -2.3010909119058154E-01  -2.3191364490151420E-01
  -2.3367623689990807E-01  -2.3539449727307701E-01  -2.3706600611503070E-01
  -2.3868829406644526E-01  -2.4025884295033259E-01  -2.4177508650753801E-01
  -2.4323441123620837E-01  -2.4463415733939206E-01  -2.4597161978492460E-01
  -2.4724404948175210E-01  -2.4844865457681939E-01  -2.4958260187662382E-01
  -2.5064301839749725E-01  -2.5162699304862646E-01  -2.5253157845177199E-01
  -2.5335379290157584E-01  -2.5409062247028674E-01  -2.5473902326065329E-01
  -2.5529592381066030E-01  -2.5575822765370548E-01  -2.5612281603771869E-01
  -2.5638655080664058E-01  -2.5654627744757436E-01  -2.5659882830680514E-01
  -2.5654102597776368E-01  -2.5636968686386358E-01  -2.5608162491898234E-01
  -2.5567365556817828E-01  -2.5514259981103454E-01  -2.5448528850980101E-01
  -2.5369856686425779E-01  -2.5277929907496643E-01  -2.5172437319627483E-01
  -2.5053070618014500E-01  -2.4919524911152602E-01  -2.4771499263564781E-01
  -2.4608697257722692E-01  -2.4430827575116948E-01  -2.4237604596393542E-01
  -2.4028749020426712E-01  -2.3803988502150794E-01  -2.3563058308923990E-01
  -2.3305701995142039E-01  -2.3031672094766034E-01  -2.2740730831368500E-01
  -2.2432650845240618E-01  -2.2107215937041058E-01  -2.1764221827397262E-01
  -2.1403476931803017E-01  -2.1024803150082372E-01  -2.0628036669615499E-01
  -2.0213028781444770E-01  -1.9779646708298226E-01  -1.9327774443487070E-01
  -1.8857313599545764E-01  -1.8368184265400517E-01  -1.7860325870758326E-01
  -1.7333698056320895E-01  -1.6788281548334466E-01  -1.6224079035889569E-01
  -1.5641116049294790E-01  -1.5039441837746312E-01  -1.4419130244421180E-01
  -1.3780280577025222E-01  -1.3123018471725234E-01  -1.2447496748303562E-01
  -1.1753896254271486E-01  -1.1042426695584355E-01  -1.0313327451510876E-01
  -9.5668683711105082E-02  -8.8033505486917060E-02  -8.0231070755329634E-02
  -7.2265037650651232E-02  -6.4139398486434920E-02  -5.5858486389535583E-02
  -4.7426981580368378E-02  -3.8849917268575451E-02  -3.0132685132718849E-02
  -2.1281040352262453E-02  -1.2301106159582777E-02  -3.1993778795503720E-03
   6.0172735760042886E-03   1.5341598791757402E-02   2.4765967543013672E-02
   3.4282367133141846E-02   4.3882401406708314E-02   5.3557290470281169E-02
   6.3297871152486584E-02   7.3094598234214284E-02   8.2937546479268223E-02
   9.2816413494997085E-02   1.0272052345163508E-01   1.1263883168835137E-01
   1.2255993023318298E-01   1.3247205426336414E-01   1.4236308953192406E-01
   1.5222058078593595E-01   1.6203174120144709E-01   1.7178346285989798E-01
   1.8146232829076731E-01   1.9105462310522350E-01   2.0054634974573024E-01
   2.0992324237659252E-01   2.1917078294050979E-01   2.2827421840580087E-01
   2.3721857922802667E-01   2.4598869904795420E-01   2.5456923564456924E-01
   2.6294469315720737E-01   2.7109944558432753E-01   2.7901776155818764E-01
   2.8668383038516998E-01   2.9408178933116247E-01   3.0119575212139343E-01
   3.0800983861528664E-01   3.1450820560985754E-01   3.2067507872066681E-01
   3.2649478528683912E-01   3.3195178824605837E-01   3.3703072092574177E-01
   3.4171642269691194E-01   3.4599397543705140E-01   3.4984874074666378E-01
   3.5326639786136910E-01   3.5623298219705612E-01   3.5873492446014754E-01
   3.6075909024884145E-01   3.6229282006462760E-01   3.6332396964681429E-01
   3.6384095053662446E-01   3.6383277077173737E-01   3.6328907560718215E-01
   3.6220018815417210E-01   3.6055714982481268E-01   3.5835176046747330E-01
   3.5557661807491264E-01   3.5222515794480819E-01   3.4829169117012848E-01
   3.4377144233462864E-01   3.3866058628668677E-01   3.3295628386264353E-01
   3.2665671642876087E-01   3.1976111910899380E-01   3.1226981256383246E-01
   3.0418423318378240E-01   2.9550696155952122E-01   2.8624174908945460E-01
   2.7639354258455662E-01   2.6596850672975303E-01   2.5497404426111547E-01
   2.4341881371864957E-01   2.3131274463546217E-01   2.1866705002608183E-01
   2.0549423603914027E-01   1.9180810864310308E-01   1.7762377721817088E-01
   1.6295765493260267E-01   1.4782745578829906E-01   1.3225218822777499E-01
   1.1625214520320708E-01   9.9848890618114583E-02   8.3065242062842298E-02
   6.5925249777283479E-02   4.8454171787378576E-02   3.0678445176327503E-02
   1.2625653467302931E-02  -5.6755098886315924E-03  -2.4195281906984660E-02
  -4.2902874313906186E-02  -6.1766521584917182E-02  -8.0753532698575131E-02
  -9.9830346498720454E-02  -1.1896259052971402E-01  -1.3811514317827553E-01
  -1.5725219892424908E-01  -1.7633733647242544E-01  -1.9533358951193727E-01
  -2.1420351983207811E-01  -2.3290929251913201E-01  -2.5141275297349658E-01
  -2.6967550552625896E-01  -2.8765899350516988E-01  -3.0532458070450202E-01
  -3.2263363434912418E-01  -3.3954760979644888E-01  -3.5602813736164229E-01
  -3.7203711173477966E-01  -3.8753678442637224E-01  -4.0248985948335292E-01
  -4.1685959235429648E-01  -4.3060989130792476E-01  -4.4370542034197419E-01
  -4.5611170219982927E-01  -4.6779522003888990E-01  -4.7872351647616129E-01
  -4.8886528909235388E-01  -4.9819048187950632E-01  -5.0667037245584023E-01
  -5.1427765508568168E-01  -5.2098651962798959E-01  -5.2677272652736029E-01
  -5.3161367789966396E-01  -5.3548848468595112E-01  -5.3837802977501692E-01
  -5.4026502693594947E-01  -5.4113407535908775E-01  -5.4097170957593788E-01
  -5.3976644451406941E-01  -5.3750881544110762E-01  -5.3419141256196312E-01
  -5.2980891005481801E-01  -5.2435808936265693E-01  -5.1783785659630843E-01
  -5.1024925394933285E-01  -5.0159546507170949E-01  -4.9188181439571216E-01
  -4.8111576045101156E-01  -4.6930688324575714E-01  -4.5646686582495288E-01
  -4.4260947014658841E-01  -4.2775050743998444E-01  -4.1190780322973569E-01
  -3.9510115722334604E-01  -3.7735229827160105E-01  -3.5868483461850492E-01
  -3.3912419966295887E-01  -3.1869759345750570E-01  -2.9743392017112613E-01
  -2.7536372174346252E-01  -2.5251910795724475E-01  -2.2893368315466092E-01
  -2.0464246982181439E-01  -1.7968182926388934E-01  -1.5408937959204519E-01
  -1.2790391124181552E-01  -1.0116530024201348E-01  -7.3914419452732166E-02
  -4.6193047991638078E-02  -1.8043779068672813E-02   1.0490073548728440E-02
   3.9364570215039273E-02   6.8535241002733893E-02   9.7957181982707836E-02
   1.2758515195253273E-01   1.5737366937099473E-01   1.8727710925225774E-01
   2.1724979976825620E-01   2.4724611830288185E-01   2.7722058669760374E-01
   3.0712796542485543E-01   3.3692334642302918E-01   3.6656224432672702E-01
   3.9600068582668596E-01   4.2519529689760371E-01   4.5410338763862163E-01
   4.8268303448071143E-01   5.1089315952958836E-01   5.3869360683096845E-01
   5.6604521536872887E-01   5.9290988863582572E-01   6.1925066065193379E-01
   6.4503175834145376E-01   6.7021866022837007E-01   6.9477815144921007E-01
   7.1867837512959309E-01   7.4188888020954213E-01   7.6438066583537700E-01
   7.8612622245730723E-01   8.0709956977925679E-01   8.2727629169946271E-01
   8.4663356835622727E-01   8.6515020535524523E-01   8.8280666020614118E-01
   8.9958506594146781E-01   9.1546925183722505E-01   9.3044476110564922E-01
   9.4449886539383110E-01   9.5762057589895710E-01   9.6980065090442391E-01
   9.8103159955025176E-01   9.9130768167413774E-01   1.0006249035928154E+00
   1.0089810097333467E+00   1.0163754700667258E+00   1.0228094633383999E+00
   1.0282858561295536E+00   1.0328091778176711E+00   1.0363855915342004E+00
   1.0390228612411931E+00   1.0407303150679241E+00   1.0415188050635629E+00
   1.0414006635338040E+00   1.0403896561387378E+00   1.0385009319369478E+00
   1.0357509705672070E+00   1.0321575267647987E+00   1.0277395724143172E+00
   1.0225172363451456E+00   1.0165117420794418E+00   1.0097453437454267E+00
   1.0022412603709963E+00   9.9402360877396423E-01   9.8511733526569345E-01
   9.7554814638437881E-01   9.6534243887272686E-01   9.5452722911256660E-01
   9.4313008222566497E-01   9.3117904104622717E-01   9.1870255516610277E-01
   9.0572941024864262E-01   8.9228865780194155E-01   8.7840954559645346E-01
   8.6412144890618725E-01   8.4945380274685034E-01   8.3443603527822252E-01
   8.1909750253222258E-01   8.0346742462207277E-01   7.8757482358206243E-01
   7.7144846298128289E-01   7.5511678945430594E-01   7.3860787625650748E-01
   7.2194936900992701E-01   7.0516843372492499E-01   6.8829170721887001E-01
   6.7134525003786139E-01   6.5435450197724487E-01   6.3734424028992187E-01
   6.2033854066343863E-01   6.0336074103852699E-01   5.8643340833332314E-01
   5.6957830812890653E-01   5.5281637736299227E-01   5.3616770006987491E-01
   5.1965148619547530E-01   5.0328605350704425E-01   4.8708881260704046E-01
   4.7107625504987100E-01   4.5526394454850394E-01   4.3966651124465356E-01
   4.2429764900172334E-01   4.0917011566350792E-01   3.9429573620385416E-01
   3.7968540867384082E-01   3.6534911283340521E-01   3.5129592133495718E-01
   3.3753401330816679E-01   3.2407069017841228E-01   3.1091239353785449E-01
   2.9806472487807767E-01   2.8553246698750040E-01   2.7331960681582673E-01
   2.6142935961108066E-01   2.4986419414255764E-01   2.3862585883409754E-01
   2.2771540864572989E-01   2.1713323255723316E-01   2.0687908152291531E-01
   1.9695209678262124E-01   1.8735083842842723E-01   1.7807331413930014E-01
   1.6911700800692361E-01   1.6047890938458650E-01   1.5215554169775497E-01
   1.4414299115977963E-01   1.3643693533943510E-01   1.2903267152902168E-01
   1.2192514486284793E-01   1.1510897613643320E-01   1.0857848927696642E-01
   1.0232773841566499E-01   9.6350534512899433E-02   9.0640471487340904E-02
   8.5190951801123543E-02   7.9995211454022899E-02   7.5046344341067384E-02
   7.0337325929710315E-02   6.5861036214721697E-02   6.1610281911315318E-02
   5.7577817849559614E-02   5.3756367535953614E-02   5.0138642851013007E-02
   4.6717362854836186E-02   4.3485271675930082E-02   4.0435155461928510E-02
   3.7559858374366435E-02   3.4852297613278696E-02   3.2305477461078938E-02
   2.9912502339029385E-02   2.7666588873500254E-02   2.5561076973266598E-02
   2.3589439923236522E-02   2.1745293504198269E-02   2.0022404152488606E-02
   1.8414696177751225E-02   1.6916258061183742E-02   1.5521347860795476E-02
   1.4224397753932290E-02   1.3020017750887177E-02   1.1902998616285711E-02
   1.0868314037297858E-02   9.9111220793642440E-03   9.0267659709913108E-03
   8.2107742592864314E-03   7.4588603773011915E-03   6.7669216630243788E-03
   6.1310378681905453E-03   5.5474691930790018E-03   5.0126538814051352E-03
   4.5232054074044736E-03   4.0759092854453704E-03   3.6677195311011343E-03
   3.2957548016152903E-03   2.9572942431352078E-03   2.6497730719227237E-03
   2.3707779169092678E-03   2.1180419513461123E-03   1.8894398417952396E-03
   1.6829825432001363E-03   1.4968119691644236E-03   1.3291955667633268E-03
   1.1785208251521525E-03   1.0432897468752827E-03   9.2211331010120634E-04
   8.1370594900993549E-04   7.1688007826240842E-04   6.3054068591340752E-04
   5.5368001733201654E-04   4.8537237071423635E-04   4.2476902265421837E-04
   3.7109330003854405E-04   3.2363581228164051E-04   2.8174985567541440E-04
   2.4484699942065708E-04   2.1239286077220118E-04   1.8390307469432369E-04
   1.5893946150877564E-04   1.3710639424279719E-04   1.1804736576501766E-04
   1.0144175423579096E-04   8.7001784877718621E-05   7.4469681670664910E-05
   6.3615009496188442E-05   5.4232194721762300E-05   4.6138222372430926E-05
   3.9170501455715418E-05   3.3184891395141775E-05   2.8053882061453355E-05
   2.3664919674978648E-05   1.9918870749346827E-05   1.6728616223121419E-05
   1.4017767970182327E-05   1.1719499982479830E-05   9.7754866704172924E-06
   8.1349409186894783E-06   6.7537447617092337E-06   5.5936657963033076E-06
   4.6216527245109584E-06   3.8092037111755284E-06   3.1318015451678813E-06
   2.5684099056707274E-06   2.1010253525835065E-06   1.7142799796030688E-06
   1.3950899873304801E-06   1.1323457493148226E-06   9.1663925403131113E-07
   7.4002510865303522E-07   5.9581158432152446E-07   4.7837846606682568E-07
   3.8301874236263438E-07   3.0580142855509784E-07   2.4345306431483259E-07
   1.9325565728823631E-07   1.5295906290264577E-07   1.2070599364437150E-07
   9.4968040123267666E-08   7.4491260925975973E-08   5.8250059025422481E-08
   4.5408209707395896E-08   3.5286039116506694E-08   2.7332874196337450E-08
   2.1103994647773634E-08   1.6241416247682548E-08   1.2457923180719082E-08
   9.5238456797373343E-09   7.2561489804705711E-09   5.5094611317124673E-09
   4.1687212506312203E-09   3.1431770991380408E-09   2.3615020309947388E-09
   1.7678370561104267E-09   1.3185945796673171E-09   9.7988685060224088E-10
   7.2546480590829260E-10   5.3507229107567307E-10   3.9313699850189280E-10
       </PP_GIPAW_WFS_AE>
       <PP_GIPAW_WFS_PS size="1164">
   0.0000000000000000E+00   1.0584133747965503E-10   1.0852072369521245E-10
   1.1126793889637395E-10   1.1408470018149903E-10   1.1697276811807727E-10
   1.1993394784258517E-10   1.2297009018874657E-10   1.2608309284436404E-10
   1.2927490153743593E-10   1.3254751125229897E-10   1.3590296747655889E-10
   1.3934336747958698E-10   1.4287086162338132E-10   1.4648765470661305E-10
   1.5019600734269750E-10   1.5399823737275077E-10   1.5789672131431667E-10
   1.6189389584676683E-10   1.6599225933430464E-10   1.7019437338752517E-10
   1.7450286446450319E-10   1.7892042551241737E-10   1.8344981765072816E-10
   1.8809387189696804E-10   1.9285549093621973E-10   1.9773765093538823E-10
   2.0274340340340290E-10   2.0787587709850907E-10   2.1313827998384451E-10
   2.1853390123252023E-10   2.2406611328346053E-10   2.2973837394928840E-10
   2.3555422857756962E-10   2.4151731226677077E-10   2.4763135213831458E-10
   2.5390016966615162E-10   2.6032768306530576E-10   2.6691790974088675E-10
   2.7367496879909889E-10   2.8060308362181648E-10   2.8770658450633506E-10
   2.9498991137194733E-10   3.0245761653503890E-10   3.1011436755443282E-10
   3.1796495014876655E-10   3.2601427118772128E-10   3.3426736175897527E-10
   3.4272938031279824E-10   3.5140561588625055E-10   3.6030149140900168E-10
   3.6942256709284073E-10   3.7877454390698702E-10   3.8836326714138372E-10
   3.9819473006019251E-10   4.0827507764778021E-10   4.1861061044953321E-10
   4.2920778850990339E-10   4.4007323541014649E-10   4.5121374240827602E-10
   4.6263627268381986E-10   4.7434796569003598E-10   4.8635614161630113E-10
   4.9866830596346781E-10   5.1129215423504765E-10   5.2423557674715101E-10
   5.3750666356019099E-10   5.5111370953543506E-10   5.6506521951956275E-10
   5.7936991366047258E-10   5.9403673285765844E-10   6.0907484435056077E-10
   6.2449364744839111E-10   6.4030277940500850E-10   6.5651212144251176E-10
   6.7313180492732909E-10   6.9017221770265109E-10   7.0764401058116844E-10
   7.2555810400217995E-10   7.4392569485722003E-10   7.6275826348848262E-10
   7.8206758086440647E-10   8.0186571593691396E-10   8.2216504318489930E-10
   8.4297825034868432E-10   8.6431834636025999E-10   8.8619866947430125E-10
   9.0863289560500793E-10   9.3163504687399221E-10   9.5521950037456597E-10
   9.7940099715789040E-10   1.0041946514466118E-09   1.0296159600817443E-09
   1.0556808122086977E-09   1.0824054992085124E-09   1.1098067248805031E-09
   1.1379016158826762E-09   1.1667077324364454E-09   1.1962430793023504E-09
   1.2265261170336052E-09   1.2575757735145573E-09   1.2894114557912261E-09
   1.3220530622013354E-09   1.3555209948114267E-09   1.3898361721688131E-09
   1.4250200423763518E-09   1.4610945964982068E-09   1.4980823823049805E-09
   1.5360065183668015E-09   1.5748907085031873E-09   1.6147592565986994E-09
   1.6556370817936647E-09   1.6975497340594462E-09   1.7405234101680107E-09
   1.7845849700657589E-09   1.8297619536618718E-09   1.8760825980416449E-09
   1.9235758551155873E-09   1.9722714097153077E-09   2.0221996981475040E-09
   2.0733919272176388E-09   2.1258800937352117E-09   2.1796970045128109E-09
   2.2348762968714281E-09   2.2914524596648845E-09   2.3494608548364962E-09
   2.4089377395214198E-09   2.4699202887085592E-09   2.5324466184761304E-09
   2.5965558098154607E-09   2.6622879330578741E-09   2.7296840729199568E-09
   2.7987863541828324E-09   2.8696379680215385E-09   2.9422831990008879E-09
   3.0167674527548003E-09   3.0931372843662661E-09   3.1714404274658102E-09
   3.2517258240665476E-09   3.3340436551545484E-09   3.4184453720535832E-09
   3.5049837285838675E-09   3.5937128140349195E-09   3.6846880869731364E-09
   3.7779664099051744E-09   3.8736060848189029E-09   3.9716668896240139E-09
   4.0722101155151695E-09   4.1752986052810017E-09   4.2809967925828768E-09
   4.3893707422280653E-09   4.5004881914623586E-09   4.6144185923080709E-09
   4.7312331549738025E-09   4.8510048923631582E-09   4.9738086657101606E-09
   5.0997212313699618E-09   5.2288212887940735E-09   5.3611895297200758E-09
   5.4969086886065766E-09   5.6360635943449504E-09   5.7787412232801325E-09
   5.9250307535736800E-09   6.0750236209430301E-09   6.2288135758117674E-09
   6.3864967419067115E-09   6.5481716763383698E-09   6.7139394312023341E-09
   6.8839036167401194E-09   7.0581704660989423E-09   7.2368489017308799E-09
   7.4200506034729575E-09   7.6078900783506906E-09   7.8004847321486551E-09
   7.9979549427929552E-09   8.2004241355913320E-09   8.4080188603779851E-09
   8.6208688706113543E-09   8.8391072044742233E-09   9.0628702680269115E-09
   9.2922979204655175E-09   9.5275335615384354E-09   9.7687242211758893E-09
   1.0016020651388376E-08   1.0269577420491603E-08   1.0529553009716701E-08
   1.0796109912266129E-08   1.1069414734877251E-08   1.1349638301956912E-08
   1.1636955762352220E-08   1.1931546698824355E-08   1.2233595240293570E-08
   1.2543290176925739E-08   1.2860825078132346E-08   1.3186398413557715E-08
   1.3520213677128898E-08   1.3862479514246045E-08   1.4213409852192542E-08
   1.4573224033846485E-08   1.4942146954777139E-08   1.5320409203811948E-08
   1.5708247207162071E-08   1.6105903376196410E-08   1.6513626258956539E-08
   1.6931670695507398E-08   1.7360297977220558E-08   1.7799776010089779E-08
   1.8250379482181032E-08   1.8712390035321341E-08   1.9186096441134138E-08
   1.9671794781530946E-08   2.0169788633772041E-08   2.0680389260212219E-08
   2.1203915802849778E-08   2.1740695482800648E-08   2.2291063804822266E-08
   2.2855364767014812E-08   2.3433951075831211E-08   2.4027184366530224E-08
   2.4635435429210002E-08   2.5259084440564082E-08   2.5898521201504081E-08
   2.6554145380797926E-08   2.7226366764875667E-08   2.7915605513959495E-08
   2.8622292424677286E-08   2.9346869199324596E-08   3.0089788721942756E-08
   3.0851515341386179E-08   3.1632525161555494E-08   3.2433306338977611E-08
   3.3254359387919775E-08   3.4096197493226798E-08   3.4959346831078380E-08
   3.5844346897866244E-08   3.6751750847396804E-08   3.7682125836630300E-08
   3.8636053380171895E-08   3.9614129713737600E-08   4.0616966166820493E-08
   4.1645189544791657E-08   4.2699442520673614E-08   4.3780384036831741E-08
   4.4888689716834788E-08   4.6025052287741136E-08   4.7190182013075740E-08
   4.8384807136767751E-08   4.9609674338326301E-08   5.0865549199539680E-08
   5.2153216682988255E-08   5.3473481622671836E-08   5.4827169227056402E-08
   5.6215125594856284E-08   5.7638218243873206E-08   5.9097336653222635E-08
   6.0593392819287177E-08   6.2127321825743500E-08   6.3700082428019633E-08
   6.5312657652548396E-08   6.6966055411190245E-08   6.8661309131210464E-08
   7.0399478401205130E-08   7.2181649633377107E-08   7.4008936742579442E-08
   7.5882481842547698E-08   7.7803455959757265E-08   7.9773059765353320E-08
   8.1792524325608164E-08   8.3863111871377647E-08   8.5986116587035744E-08
   8.8162865419380988E-08   9.0394718907021693E-08   9.2683072030754913E-08
   9.5029355085475273E-08   9.7435034574154430E-08   9.9901614124452612E-08
   1.0243063542853408E-07   1.0502367920667355E-07   1.0768236619525781E-07
   1.1040835815979701E-07   1.1320335893358096E-07   1.1606911548263085E-07
   1.1900741899760652E-07   1.2202010601335963E-07   1.2510905955682558E-07
   1.2827621032397533E-07   1.3152353788656265E-07   1.3485307192941801E-07
   1.3826689351906773E-07   1.4176713640446553E-07   1.4535598835065399E-07
   1.4903569250618748E-07   1.5280854880517004E-07   1.5667691540478802E-07
   1.6064321015923321E-07   1.6470991213093731E-07   1.6887956314006541E-07
   1.7315476935323307E-07   1.7753820291244356E-07   1.8203260360526077E-07
   1.8664078057726175E-07   1.9136561408784356E-07   1.9621005731047395E-07
   2.0117713817851833E-07   2.0626996127779427E-07   2.1149170978703321E-07
   2.1684564746746920E-07   2.2233512070279057E-07   2.2796356059073463E-07
   2.3373448508763213E-07   2.3965150120723852E-07   2.4571830727523172E-07
   2.5193869524077912E-07   2.5831655304662635E-07   2.6485586705917964E-07
   2.7156072456011092E-07   2.7843531630103599E-07   2.8548393912286200E-07
   2.9271099864144730E-07   3.0012101200124941E-07   3.0771861069867581E-07
   3.1550854347691725E-07   3.2349567929405273E-07   3.3168501036630298E-07
   3.4008165528831485E-07   3.4869086223244584E-07   3.5751801222902503E-07
   3.6656862252966671E-07   3.7584835005571912E-07   3.8536299493401260E-07
   3.9511850412211762E-07   4.0512097512536951E-07   4.1537665980799887E-07
   4.2589196830073132E-07   4.3667347300731472E-07   4.4772791271247244E-07
   4.5906219679384135E-07   4.7068340954054118E-07   4.8259881458107326E-07
   4.9481585942329555E-07   5.0734218010934646E-07   5.2018560598839130E-07
   5.3335416461020075E-07   5.4685608674260867E-07   5.6069981151597905E-07
   5.7489399169792149E-07   5.8944749910151368E-07   6.0436943013044927E-07
   6.1966911146455760E-07   6.3535610588924473E-07   6.5144021827252259E-07
   6.6793150169332126E-07   6.8484026372496368E-07   7.0217707287769001E-07
   7.1995276520427974E-07   7.3817845107290259E-07   7.5686552211140006E-07
   7.7602565832738487E-07   7.9567083540858015E-07   8.1581333220794623E-07
   8.3646573841832752E-07   8.5764096244134259E-07   8.7935223945550760E-07
   9.0161313968858314E-07   9.2443757689933981E-07   9.4783981707404663E-07
   9.7183448734309177E-07   9.9643658512333959E-07   1.0216614874919267E-06
   1.0475249607973371E-06   1.0740431705138120E-06   1.1012326913451755E-06
   1.1291105175844829E-06   1.1576940737358871E-06   1.1870012254054189E-06
   1.2170502904674513E-06   1.2478600505138446E-06   1.2794497625929119E-06
   1.3118391712455862E-06   1.3450485208462336E-06   1.3790985682559195E-06
   1.4140105957959358E-06   1.4498064245498032E-06   1.4865084280019708E-06
   1.5241395460217855E-06   1.5627232992014693E-06   1.6022838035570522E-06
   1.6428457856014444E-06   1.6844345977990944E-06   1.7270762344118602E-06
   1.7707973477460315E-06   1.8156252648106203E-06   1.8615880043973480E-06
   1.9087142945930256E-06   1.9570335907352349E-06   2.0065760938225397E-06
   2.0573727693907966E-06   2.1094553668672152E-06   2.1628564394144551E-06
   2.2176093642769974E-06   2.2737483636426051E-06   2.3313085260318898E-06
   2.3903258282292862E-06   2.4508371577692875E-06   2.5128803359918007E-06
   2.5764941416812242E-06   2.6417183353038948E-06   2.7085936838590607E-06
   2.7771619863590075E-06   2.8474660999541367E-06   2.9195499667193931E-06
   2.9934586411188298E-06   3.0692383181652897E-06   3.1469363622930707E-06
   3.2266013369613823E-06   3.3082830350072101E-06   3.3920325097665974E-06
   3.4779021069836107E-06   3.5659454975271732E-06   3.6562177109360213E-06
   3.7487751698128311E-06   3.8436757250890698E-06   3.9409786921823834E-06
   4.0407448880694502E-06   4.1430366692971492E-06   4.2479179709560217E-06
   4.3554543466402987E-06   4.4657130094194062E-06   4.5787628738466759E-06
   4.6946745990314444E-06   4.8135206328014228E-06   4.9353752569830777E-06
   5.0603146338280608E-06   5.1884168536150444E-06   5.3197619834563917E-06
   5.4544321173403329E-06   5.5925114274399966E-06   5.7340862167209917E-06
   5.8792449728809418E-06   6.0280784236542416E-06   6.1806795935167925E-06
   6.3371438618262387E-06   6.4975690224336715E-06   6.6620553448045567E-06
   6.8307056366866432E-06   7.0036253083642768E-06   7.1809224385391954E-06
   7.3627078418788820E-06   7.5490951382748158E-06   7.7402008238538814E-06
   7.9361443437871906E-06   8.1370481669420097E-06   8.3430378624231589E-06
   8.5542421780520702E-06   8.7707931208321993E-06   8.9928260394512888E-06
   9.2204797088720227E-06   9.4538964170636650E-06   9.6932220539292689E-06
   9.9386062024838018E-06   1.0190202232340084E-05   1.0448167395561255E-05
   1.0712662924939115E-05   1.0983854134760410E-05   1.1261910524123554E-05
   1.1547005882870462E-05   1.1839318400199770E-05   1.2139030776029146E-05
   1.2446330335176347E-05   1.2761409144430479E-05   1.3084464132586272E-05
   1.3415697213516877E-05   1.3755315412361361E-05   1.4103530994906458E-05
   1.4460561600243044E-05   1.4826630376780076E-05   1.5201966121701382E-05
   1.5586803423951906E-05   1.5981382810843221E-05   1.6385950898369634E-05
   1.6800760545328642E-05   1.7226071011342671E-05   1.7662148118879542E-05
   1.8109264419374460E-05   1.8567699363556000E-05   1.9037739476083110E-05
   1.9519678534602241E-05   2.0013817753335929E-05   2.0520465971318050E-05
   2.1039939845393317E-05   2.1572564048100808E-05   2.2118671470566392E-05
   2.2678603430529335E-05   2.3252709885634190E-05   2.3841349652120640E-05
   2.4444890629047602E-05   2.5063710028192610E-05   2.5698194609768605E-05
   2.6348740924106671E-05   2.7015755559455009E-05   2.7699655396048681E-05
   2.8400867866609469E-05   2.9119831223437754E-05   2.9856994812263609E-05
   3.0612819353028158E-05   3.1387777227770217E-05   3.2182352775798284E-05
   3.2997042596331772E-05   3.3832355858800710E-05   3.4688814620997805E-05
   3.5566954155280791E-05   3.6467323283029871E-05   3.7390484717567407E-05
   3.8337015415755507E-05   3.9307506938490400E-05   4.0302565820317637E-05
   4.1322813948400855E-05   4.2368888951078477E-05   4.3441444596252479E-05
   4.4541151199856935E-05   4.5668696044661751E-05   4.6824783809672485E-05
   4.8010137010394657E-05   4.9225496450236671E-05   5.0471621683334110E-05
   5.1749291489082798E-05   5.3059304358677890E-05   5.4402478993961572E-05
   5.5779654818891075E-05   5.7191692503946489E-05   5.8639474503804201E-05
   6.0123905608613416E-05   6.1645913509216917E-05   6.3206449376670658E-05
   6.4806488456423599E-05   6.6447030677526406E-05   6.8129101277251841E-05
   6.9853751441512744E-05   7.1622058961481002E-05   7.3435128906812827E-05
   7.5294094315903762E-05   7.7200116903600806E-05   7.9154387786813994E-05
   8.1158128228480417E-05   8.3212590400343214E-05   8.5319058165021344E-05
   8.7478847877857935E-05   8.9693309209045951E-05   9.1963825986543797E-05
   9.4291817060307591E-05   9.6678737188375067E-05   9.9126077945357050E-05
   1.0163536865389929E-04   1.0420817733969590E-04   1.0684611171065056E-04
   1.0955082016079191E-04   1.1232399279957228E-04   1.1516736250718706E-04
   1.1808270601657359E-04   1.2107184502276305E-04   1.2413664732027494E-04
   1.2727902796926311E-04   1.3050095049113713E-04   1.3380442809440539E-04
   1.3719152493150101E-04   1.4066435738737317E-04   1.4422509540064308E-04
   1.4787596381815116E-04   1.5161924378373062E-04   1.5545727416207869E-04
   1.5939245299860467E-04   1.6342723901616510E-04   1.6756415314961559E-04
   1.7180578011913170E-04   1.7615477004327945E-04   1.8061384009283480E-04
   1.8518577618637948E-04   1.8987343472872705E-04   1.9467974439325945E-04
   1.9960770794927782E-04   2.0466040413550458E-04   2.0984098958089879E-04
   2.1515270077397387E-04   2.2059885608184364E-04   2.2618285782024711E-04
   2.3190819437583492E-04   2.3777844238203426E-04   2.4379726894983947E-04
   2.4996843395491388E-04   2.5629579238241768E-04   2.6278329673101378E-04
   2.6943499947754476E-04   2.7625505560389794E-04   2.8324772518763665E-04
   2.9041737605798532E-04   2.9776848651882584E-04   3.0530564814037955E-04
   3.1303356862130471E-04   3.2095707472298320E-04   3.2908111527779962E-04
   3.3741076427328410E-04   3.4595122401401550E-04   3.5470782836323538E-04
   3.6368604606618673E-04   3.7289148415721159E-04   3.8232989145272565E-04
   3.9200716213220956E-04   4.0192933940943549E-04   4.1210261929618467E-04
   4.2253335446078061E-04   4.3322805818380887E-04   4.4419340841346310E-04
   4.5543625192300544E-04   4.6696360857291221E-04   4.7878267568030784E-04
   4.9090083249838940E-04   5.0332564480858716E-04   5.1606486962827000E-04
   5.2912646003691155E-04   5.4251857012364477E-04   5.5624956005927259E-04
   5.7032800129581875E-04   5.8476268189681024E-04   5.9956261200156617E-04
   6.1473702942682032E-04   6.3029540540911970E-04   6.4624745049149694E-04
   6.6260312055801257E-04   6.7937262301987422E-04   6.9656642315686949E-04
   7.1419525061801878E-04   7.3227010608538747E-04   7.5080226810510947E-04
   7.6980330008981357E-04   7.8928505749667162E-04   8.0925969518545597E-04
   8.2973967496108368E-04   8.5073777330517918E-04   8.7226708930141503E-04
   8.9434105275936252E-04   9.1697343254182556E-04   9.4017834510066978E-04
   9.6397026322628937E-04   9.8836402501607519E-04   1.0133748430671730E-03
   1.0390183138991680E-03   1.0653104276123848E-03   1.0922675777874820E-03
   1.1199065716324939E-03   1.1482446403832283E-03   1.1772994499633343E-03
   1.2070891119105079E-03   1.2376321945751936E-03   1.2689477345986710E-03
   1.3010552486772628E-03   1.3339747456196595E-03   1.3677267387047309E-03
   1.4023322583468936E-03   1.4378128650768317E-03   1.4741906628451171E-03
   1.5114883126566071E-03   1.5497290465438566E-03   1.5889366818875579E-03
   1.6291356360926708E-03   1.6703509416287927E-03   1.7126082614435864E-03
   1.7559339047584480E-03   1.8003548432555198E-03   1.8458987276656685E-03
   1.8925939047669935E-03   1.9404694348038993E-03   1.9895551093367997E-03
   2.0398814695328574E-03   2.0914798249083533E-03   2.1443822725335888E-03
   2.1986217167113023E-03   2.2542318891401055E-03   2.3112473695743713E-03
   2.3697036069926032E-03   2.4296369412862349E-03   2.4910846254813913E-03
   2.5540848485062421E-03   2.6186767585167558E-03   2.6849004867944139E-03
   2.7527971722289598E-03   2.8224089864003492E-03   2.8937791592739230E-03
   2.9669520055229572E-03   3.0419729514938485E-03   3.1188885628283449E-03
   3.1977465727585914E-03   3.2785959110906556E-03   3.3614867338921366E-03
   3.4464704539008215E-03   3.5335997716704724E-03   3.6229287074709825E-03
   3.7145126339605526E-03   3.8084083096469497E-03   3.9046739131566098E-03
   4.0033690783295318E-03   4.1045549301588161E-03   4.2082941215944129E-03
   4.3146508712299221E-03   4.4236910018929871E-03   4.5354819801592412E-03
   4.6500929568103720E-03   4.7675948082578478E-03   4.8880601789530699E-03
   5.0115635248063426E-03   5.1381811576366506E-03   5.2679912906747070E-03
   5.4010740851427571E-03   5.5375116979339807E-03   5.6773883304157089E-03
   5.8207902783805826E-03   5.9678059831700112E-03   6.1185260839953549E-03
   6.2730434714818664E-03   6.4314533424614292E-03   6.5938532560401155E-03
   6.7603431909672041E-03   6.9310256043327335E-03   7.1060054916205762E-03
   7.2853904481454089E-03   7.4692907319007969E-03   7.6578193278475943E-03
   7.8510920136711255E-03   8.0492274270360757E-03   8.2523471343692954E-03
   8.4605757011993014E-03   8.6740407640834398E-03   8.8928731041527601E-03
   9.1172067223050240E-03   9.3471789160775379E-03   9.5829303582299803E-03
   9.8246051770693368E-03   1.0072351038548612E-02   1.0326319230170187E-02
   1.0586664746727075E-02   1.0853546377912896E-02   1.1127126797833019E-02
   1.1407572656450043E-02   1.1695054672993747E-02   1.1989747731369953E-02
   1.2291830977598820E-02   1.2601487919314612E-02   1.2918906527360450E-02
   1.3244279339507000E-02   1.3577803566328902E-02   1.3919681199268593E-02
   1.4270119120918238E-02   1.4629329217551022E-02   1.4997528493929902E-02
   1.5374939190424113E-02   1.5761788902461684E-02   1.6158310702344438E-02
   1.6564743263454172E-02   1.6981330986874130E-02   1.7408324130451184E-02
   1.7845978940322891E-02   1.8294557784930266E-02   1.8754329291538811E-02
   1.9225568485285921E-02   1.9708556930773145E-02   2.0203582876218790E-02
   2.0710941400184524E-02   2.1230934560888377E-02   2.1763871548113257E-02
   2.2310068837717807E-02   2.2869850348753551E-02   2.3443547603191419E-02
   2.4031499888252934E-02   2.4634054421343990E-02   2.5251566517581311E-02
   2.5884399759897772E-02   2.6532926171713871E-02   2.7197526392149843E-02
   2.7878589853756137E-02   2.8576514962731361E-02   2.9291709281589726E-02
   3.0024589714239745E-02   3.0775582693424852E-02   3.1545124370471252E-02
   3.2333660807286627E-02   3.3141648170535873E-02   3.3969552927925001E-02
   3.4817852046505122E-02   3.5687033192905643E-02   3.6577594935398916E-02
   3.7490046947680294E-02   3.8424910214248383E-02   3.9382717237250349E-02
   4.0364012244650735E-02   4.1369351399570431E-02   4.2399303010626790E-02
   4.3454447743094926E-02   4.4535378830696706E-02   4.5642702287805821E-02
   4.6777037121846388E-02   4.7939015545642436E-02   4.9129283189460075E-02
   5.0348499312465170E-02   5.1597337013301110E-02   5.2876483439471239E-02
   5.4186639995187295E-02   5.5528522547327396E-02   5.6902861629116966E-02
   5.8310402641130889E-02   5.9751906049180827E-02   6.1228147578628718E-02
   6.2739918404642464E-02   6.4288025337871299E-02   6.5873291004998863E-02
   6.7496554023591893E-02   6.9158669170627629E-02   7.0860507544059398E-02
   7.2602956716724468E-02   7.4386920881877636E-02   7.6213320989584471E-02
   7.8083094873161868E-02   7.9997197364828548E-02   8.1956600399655077E-02
   8.3962293106879818E-02   8.6015281887598938E-02   8.8116590477775508E-02
   9.0267259995486474E-02   9.2468348971239817E-02   9.4720933360155621E-02
   9.7026106534748316E-02   9.9384979256959508E-02   1.0179867962806265E-01
   1.0426835301496139E-01   1.0679516195135064E-01   1.0938028601214310E-01
   1.1202492165946916E-01   1.1473028205850437E-01   1.1749759686128773E-01
   1.2032811195660643E-01   1.2322308918396610E-01   1.2618380600953874E-01
   1.2921155516193139E-01   1.3230764422550384E-01   1.3547339518887355E-01
   1.3871014394616407E-01   1.4201923974843514E-01   1.4540204460265249E-01
   1.4885993261543937E-01   1.5239428927875534E-01   1.5600651069454494E-01
   1.5969800273528287E-01   1.6347018013724710E-01   1.6732446552322791E-01
   1.7126228835128526E-01   1.7528508378604865E-01   1.7939429148894070E-01
   1.8359135432360554E-01   1.8787771697270103E-01   1.9225482446211317E-01
   1.9672412058854619E-01   2.0128704624631844E-01   2.0594503764912744E-01
   2.1069952444239984E-01   2.1555192770178958E-01   2.2050365781328121E-01
   2.2555611223024663E-01   2.3071067310278265E-01   2.3596870477451351E-01
   2.4133155114203678E-01   2.4680053287212142E-01   2.5237694447169284E-01
   2.5806205120567927E-01   2.6385708585769563E-01   2.6976324532859663E-01
   2.7578168706794653E-01   2.8191352533342873E-01   2.8815982727336070E-01
   2.9452160882747530E-01   3.0099983044127265E-01   3.0759539258939250E-01
   3.1430913110354330E-01   3.2114181230080041E-01   3.2809412790824216E-01
   3.3516668978016989E-01   3.4236002440449398E-01   3.4967456719513262E-01
   3.5711065656774116E-01   3.6466852779647091E-01   3.7234830664995383E-01
   3.8015000280529604E-01   3.8807350303939847E-01   3.9611856419766167E-01
   4.0428480594082344E-01   4.1257170327150194E-01   4.2097857884291423E-01
   4.2950459505317273E-01   4.3814874592964542E-01   4.4690984880898171E-01
   4.5578653581962975E-01   4.6477724517503266E-01   4.7388021228706290E-01
   4.8309346071084630E-01   4.9241479293370932E-01   5.0184178102278576E-01
   5.1137175714765815E-01   5.2100180399639529E-01   5.3072874510549350E-01
   5.4054913512639313E-01   5.5045925005367402E-01   5.6045507744247747E-01
   5.7053230664528876E-01   5.8068631910104818E-01   5.9091217871227586E-01
   6.0120462234902194E-01   6.1155805052147305E-01   6.2196651826626226E-01
   6.3242372629492849E-01   6.4292301245628247E-01   6.5345734356803242E-01
   6.6401930767661987E-01   6.7460110680775220E-01   6.8519455027399212E-01
   6.9579104860933039E-01   7.0638160820448048E-01   7.1695682672038585E-01
   7.2750688936096219E-01   7.3802156608985914E-01   7.4849020987937442E-01
   7.5890175608303390E-01   7.6924472302653712E-01   7.7950721391456135E-01
   7.8967692015365476E-01   7.9974112619365478E-01   8.0968671599194220E-01
   8.1950018120633206E-01   8.2916763122319015E-01   8.3867480512774017E-01
   8.4800708572310923E-01   8.5714951570349340E-01   8.6608681608494331E-01
   8.7480340699426551E-01   8.8328343091273454E-01   8.9151077846625171E-01
   8.9946911684741193E-01   9.0714192094749047E-01   9.1451250726748157E-01
   9.2156407066703472E-01   9.2827972399824721E-01   9.3464254065781183E-01
   9.4063560007576963E-01   9.4624203614216151E-01   9.5144508855404053E-01
   9.5622815704458952E-01   9.6057485843349999E-01   9.6446908641319040E-01
   9.6789507395900221E-01   9.7083745822314604E-01   9.7328134774199671E-01
   9.7521239175439844E-01   9.7661685139509880E-01   9.7748167249240492E-01
   9.7779455966286544E-01   9.7754405135845179E-01   9.7671959548365483E-01
   9.7531162516141068E-01   9.7331163418826483E-01   9.7071225168106368E-01
   9.6750731538026480E-01   9.6369194303917904E-01   9.5926260129472751E-01
   9.5421717138428830E-01   9.4855501104553464E-01   9.4227701191270219E-01
   9.3538565170415067E-01   9.2788504048321996E-01   9.1978096026822997E-01
   9.1108089726858188E-01   9.0179406603346557E-01   8.9193142481830712E-01
   8.8150568150254172E-01   8.7053128943160352E-01   8.5902443260646444E-01
   8.4700299970646886E-01   8.3448654650601817E-01   8.2149624633287610E-01
   8.0805482831601849E-01   7.9418650328350415E-01   7.7991687729573944E-01
   7.6527285293601000E-01   7.5028251862729756E-01   7.3497502640116630E-01
   7.1938045870910261E-01   7.0352968503740410E-01   6.8745420926125322E-01
   6.7118600884938251E-01   6.5475736720486943E-01   6.3820070059684419E-01
   6.2154838129882450E-01   6.0483255869815800E-01   5.8808498027395717E-01
   5.7133681445382378E-01   5.5461847744855630E-01   5.3795946622518120E-01
   5.2138819980791007E-01   5.0493187109093518E-01   4.8861631130287275E-01
   4.7246586917755079E-01   4.5650330675793133E-01   4.4074971358723081E-01
   4.2522444082354638E-01   4.0994505655119889E-01   3.9492732325391106E-01
   3.8018519806377349E-01   3.6573085600658578E-01   3.5157473603131956E-01
   3.3772560914106836E-01   3.2419066743666775E-01   3.1097563234432701E-01
   2.9808487972519859E-01   2.8552157895776470E-01   2.7328784244154830E-01
   2.6138488128887100E-01   2.4981316224589209E-01   2.3857256010998615E-01
   2.2766249918818837E-01   2.1708207633250093E-01   2.0683015607080577E-01
   1.9690542722916368E-01   1.8730635296339343E-01   1.7803094036205100E-01
   1.6907667432516546E-01   1.6044054512374709E-01   1.5211907716678882E-01
   1.4410835771265634E-01   1.3640406543241973E-01   1.2900149877381151E-01
   1.2189560407563135E-01   1.1508100338293266E-01   1.0855202191353140E-01
   1.0230271512648030E-01   9.6326895343377517E-02   9.0618157873768618E-02
   8.5169906596637174E-02   7.9975378950987983E-02   7.5027670289944851E-02
   7.0319757554491213E-02   6.5844522225019936E-02   6.1594772511208533E-02
   5.7563264743274667E-02   5.3742723930495014E-02   5.0125863455838145E-02
   4.6705403878683646E-02   4.3474090820912033E-02   4.0424711915000716E-02
   3.7550112796294000E-02   3.4843212125217508E-02   3.2297015628896329E-02
   2.9904629155490022E-02   2.7659270738444965E-02   2.5554281671913637E-02
   2.3583136602735682E-02   2.1739452648568962E-02   2.0016997556072627E-02
   1.8409696917310096E-02   1.6911640466769191E-02   1.5517087485519318E-02
   1.4220471342759489E-02   1.3016403208572455E-02   1.1899674974570599E-02
   1.0865261421481181E-02   9.9083216743549897E-03   9.0241999869488214E-03
   8.2084258969489163E-03   7.4567137930997909E-03   6.7649619340764897E-03
   6.1292509572629713E-03   5.5458419136084122E-03   5.0111738626605444E-03
   4.5218610598738457E-03   4.0746897665257737E-03   3.6666147111691387E-03
   3.2947552305515010E-03   2.9563911173736438E-03   2.6489582020923549E-03
   2.3700436961312282E-03   2.1173813242459827E-03   1.8888462742852673E-03
   1.6824499930814408E-03   1.4963348575940823E-03   1.3287687506258899E-03
   1.1781395703695959E-03   1.0429497026837506E-03   9.2181048431723802E-04
   8.1343668430322830E-04   7.1664102944662478E-04   6.3032879826116831E-04
   5.5349250591505490E-04   4.8520670076479522E-04   4.2462289093916613E-04
   3.7096461723342799E-04   3.2352268632798302E-04   2.8165057610102359E-04
   2.4476002259956958E-04   2.1231679609811215E-04   1.8383667163898026E-04
   1.5888159753480697E-04   1.3705606353882349E-04   1.1800366876957852E-04
   1.0140388791572558E-04   8.6969033725875906E-05   7.4441409388018807E-05
   6.3590651321663073E-05   5.4211250376015778E-05   4.6120249579485062E-05
   3.9155110008420939E-05   3.3171737730676676E-05   2.8042664313977702E-05
   2.3655373173534300E-05   1.9910763930156961E-05   1.6721746926593368E-05
   1.4011960094129585E-05   1.1714600464339934E-05   9.7713627725381109E-06
   8.1314777920743872E-06   6.7508432649403811E-06   5.5912405476915496E-06
   4.6196303668416687E-06   3.8075213697236349E-06   3.1304054609351253E-06
   2.5672542270476918E-06   2.1000710698521617E-06   1.7134939878680164E-06
   1.3944442645944172E-06   1.1318166374928677E-06   9.1620683172690421E-07
   7.3967264549330105E-07   5.9552506757081364E-07   4.7814619110291374E-07
   3.8283095941055193E-07   3.0565003882903812E-07   2.4333135941985152E-07
   1.9315809638162537E-07   1.5288108271147844E-07   1.2064384698262260E-07
   9.4918659051126629E-08   7.4452141147847807E-08   5.8219162534034360E-08
   4.5383883051966706E-08   3.5266945005694662E-08   2.7317934444301374E-08
   2.1092342736795670E-08   1.6232358016000397E-08   1.2450904352033265E-08
   9.5184251337391664E-09   7.2519768240211672E-09   5.5062607702098101E-09
   4.1662747807302567E-09   3.1413134492926543E-09   2.3600873670892812E-09
   1.7667670474195360E-09   1.3177881870629239E-09   9.7928135571542943E-10
   7.2501184811813695E-10   5.3473471987704323E-10   3.9288638301917726E-10
       </PP_GIPAW_WFS_PS>
     </PP_GIPAW_ORBITAL.2>
     <PP_GIPAW_ORBITAL.3 index="3" label="5D" l="2" cutoff_radius="  2.51078166232438" ultrasoft_cutoff_radius="  2.51078166232438">
       <PP_GIPAW_WFS_AE size="1164">
   0.0000000000000000E+00   1.0544786420224368E-11   1.0885131196537816E-11
   1.1236871373522987E-11   1.1600394115966148E-11   1.1976085328263027E-11
   1.2364339328158416E-11   1.2765563517669458E-11   1.3180178913428626E-11
   1.3608620588876775E-11   1.4051338131221475E-11   1.4508796113650293E-11
   1.4981474583295761E-11   1.5469869565465289E-11   1.5974493584666682E-11
   1.6495876202977768E-11   1.7034564576326233E-11   1.7591124029265786E-11
   1.8166138648852816E-11   1.8760211898249257E-11   1.9373967250697317E-11
   2.0008048844532976E-11   2.0663122159928979E-11   2.1339874718078012E-11
   2.2039016803553898E-11   2.2761282210610137E-11   2.3507429014202181E-11
   2.4278240366545143E-11   2.5074525320045593E-11   2.5897119677474454E-11
   2.6746886870275737E-11   2.7624718865936855E-11   2.8531537105375646E-11
   2.9468293471331778E-11   3.0435971288782492E-11   3.1435586358436754E-11
   3.2468188024396296E-11   3.3534860277108730E-11   3.4636722892774708E-11
   3.5774932610409745E-11   3.6950684347800922E-11   3.8165212457640360E-11
   3.9419792025158544E-11   4.0715740208626129E-11   4.2054417624136294E-11
   4.3437229776128011E-11   4.4865628535157835E-11   4.6341113664478549E-11
   4.7865234397034099E-11   4.9439591064533390E-11   5.1065836780320829E-11
   5.2745679177819119E-11   5.4480882206376084E-11   5.6273267986411752E-11
   5.8124718725820335E-11   6.0037178699650772E-11   6.2012656295152553E-11
   6.4053226124345501E-11   6.6161031206342648E-11   6.8338285221727772E-11
   7.0587274841368688E-11   7.2910362132121978E-11   7.5309987041969653E-11
   7.7788669967210708E-11   8.0349014404417647E-11   8.2993709689957092E-11
   8.5725533829968273E-11   8.8547356423786282E-11   9.1462141683898741E-11
   9.4472951555623707E-11   9.7582948939805023E-11   1.0079540102192921E-10
   1.0411368271118042E-10   1.0754128019306698E-10   1.1108179459937305E-10
   1.1473894579931445E-10   1.1851657631590419E-10   1.2241865537166707E-10
   1.2644928306798062E-10   1.3061269470245942E-10   1.3491326522894924E-10
   1.3935551386484324E-10   1.4394410885059666E-10   1.4868387236647028E-10
   1.5357978561170541E-10   1.5863699405149989E-10   1.6386081283734068E-10
   1.6925673240642430E-10   1.7483042426609048E-10   1.8058774696939343E-10
   1.8653475228813206E-10   1.9267769158987489E-10   1.9902302242573089E-10
   2.0557741533584080E-10   2.1234776087979537E-10   2.1934117689942636E-10
   2.2656501602166217E-10   2.3402687340939533E-10   2.4173459476857668E-10
   2.4969628462001470E-10   2.5792031484465102E-10   2.6641533351136539E-10
   2.7519027399666775E-10   2.8425436440594859E-10   2.9361713730627046E-10
   3.0328843978102836E-10   3.1327844381713646E-10   3.2359765703576334E-10
   3.3425693377799604E-10   3.4526748655719744E-10   3.5664089789020838E-10
   3.6838913251995027E-10   3.8052455004240381E-10   3.9305991795136840E-10
   4.0600842511484973E-10   4.1938369569739408E-10   4.3319980354314673E-10
   4.4747128703491900E-10   4.6221316444505232E-10   4.7744094979438477E-10
   4.9317066923617786E-10   5.0941887798242186E-10   5.2620267779050727E-10
   5.4353973502886129E-10   5.6144829934075694E-10   5.7994722292615573E-10
   5.9905598046207692E-10   6.1879468968271543E-10   6.3918413264117948E-10
   6.6024577767550956E-10   6.8200180210233244E-10   7.0447511566233653E-10
   7.2768938474251961E-10   7.5166905740102819E-10   7.7643938922121765E-10
   8.0202647002251830E-10   8.2845725145653995E-10   8.5575957551785189E-10
   8.8396220399981923E-10   9.1309484892692330E-10   9.4318820399599929E-10
   9.7427397705994837E-10   1.0063849236885754E-09   1.0395548818423682E-09
   1.0738188076962211E-09   1.1092128126513672E-09   1.1457742015750097E-09
   1.1835415123085159E-09   1.2225545564863786E-09   1.2628544617095346E-09
   1.3044837151181468E-09   1.3474862084103788E-09   1.3919072843553399E-09
   1.4377937848499034E-09   1.4851941005708307E-09   1.5341582222752801E-09
   1.5847377938046447E-09   1.6369861668483997E-09   1.6909584575266304E-09
   1.7467116048518084E-09   1.8043044311324055E-09   1.8637977043831157E-09
   1.9252542028084943E-09   1.9887387814291860E-09   2.0543184409220997E-09
   2.1220623987484261E-09   2.1920421626457073E-09   2.2643316065628736E-09
   2.3390070491196710E-09   2.4161473346747240E-09   2.4958339170892736E-09
   2.5781509462765231E-09   2.6631853576295744E-09   2.7510269644240083E-09
   2.8417685532944715E-09   2.9355059828878391E-09   3.0323382857990776E-09
   3.1323677738994322E-09   3.2357001471702353E-09   3.3424446061594765E-09
   3.4527139681821940E-09   3.5666247873897591E-09   3.6842974788374375E-09
   3.8058564466837858E-09   3.9314302166601624E-09   4.0611515729530438E-09
   4.1951576996467719E-09   4.3335903268793120E-09   4.4765958818686580E-09
   4.6243256449728762E-09   4.7769359109523707E-09   4.9345881556083278E-09
   5.0974492079774193E-09   5.2656914282689105E-09   5.4394928917364102E-09
   5.6190375786829858E-09   5.8045155708053667E-09   5.9961232540894229E-09
   6.1940635284766748E-09   6.3985460245287531E-09   6.6097873273244203E-09
   6.8280112078318241E-09   7.0534488620065650E-09   7.2863391578749220E-09
   7.5269288908701601E-09   7.7754730476988691E-09   8.0322350790237511E-09
   8.2974871812588646E-09   8.5715105877833878E-09   8.8545958698902857E-09
   9.1470432477969654E-09   9.4491629120560248E-09   9.7612753557158294E-09
   1.0083711717592094E-08   1.0416814137024474E-08   1.0760936120504175E-08
   1.1116442920572057E-08   1.1483711927400357E-08   1.1863133073484742E-08
   1.2255109251888178E-08   1.2660056748493040E-08   1.3078405688733286E-08
   1.3510600499294601E-08   1.3957100385286835E-08   1.4418379823410630E-08
   1.4894929071657084E-08   1.5387254696098412E-08   1.5895880115345953E-08
   1.6421346163271976E-08   1.6964211670611337E-08   1.7525054066080660E-08
   1.8104469997674321E-08   1.8703075974818164E-08   1.9321509032086443E-08
   1.9960427415210302E-08   2.0620511290131492E-08   2.1302463475880484E-08
   2.2007010202085087E-08   2.2734901891942707E-08   2.3486913971517828E-08
   2.4263847706256352E-08   2.5066531065637673E-08   2.5895819616918181E-08
   2.6752597448951525E-08   2.7637778127104458E-08   2.8552305680323087E-08
   2.9497155621439022E-08   3.0473336001843030E-08   3.1481888501692189E-08
   3.2523889556856091E-08   3.3600451523849430E-08   3.4712723884040408E-08
   3.5861894488469124E-08   3.7049190844655687E-08   3.8275881446824031E-08
   3.9543277151018534E-08   4.0852732596638165E-08   4.2205647675968116E-08
   4.3603469053341136E-08   4.5047691735617051E-08   4.6539860695727386E-08
   4.8081572551092549E-08   4.9674477298778228E-08   5.1320280109326518E-08
   5.3020743181258476E-08   5.4777687658317341E-08   5.6592995611591826E-08
   5.8468612088729958E-08   6.0406547232534702E-08   6.2408878471306278E-08
   6.4477752783380953E-08   6.6615389038400079E-08   6.8824080417926765E-08
   7.1106196918124248E-08   7.3464187937296582E-08   7.5900584951193144E-08
   7.8418004279077658E-08   8.1019149943663700E-08   8.3706816628129555E-08
   8.6483892733531473E-08   8.9353363540051954E-08   9.2318314475639964E-08
   9.5381934495713829E-08   9.8547519577739024E-08   1.0181847633460950E-07
   1.0519832575090718E-07   1.0869070704625129E-07   1.1229938167009291E-07
   1.1602823743246688E-07   1.1988129277536013E-07   1.2386270118952617E-07
   1.2797675578173551E-07   1.3222789399762571E-07   1.3662070250549938E-07
   1.4115992224659428E-07   1.4585045365754686E-07   1.5069736207096948E-07
   1.5570588330026201E-07   1.6088142941499494E-07   1.6622959471341851E-07
   1.7175616189887930E-07   1.7746710846716612E-07   1.8336861331203755E-07
   1.8946706355645422E-07   1.9576906161728243E-07   2.0228143251151326E-07
   2.0901123141232450E-07   2.1596575146358948E-07   2.2315253186175020E-07
   2.3057936621427201E-07   2.3825431118421807E-07   2.4618569543082310E-07
   2.5438212885626923E-07   2.6285251216925032E-07   2.7160604677624485E-07
   2.8065224501183173E-07   2.9000094071975073E-07   2.9966230019682558E-07
   3.0964683351230122E-07   3.1996540621556230E-07   3.3062925144566170E-07
   3.4164998245656651E-07   3.5303960557248213E-07   3.6481053358815842E-07
   3.7697559962955232E-07   3.8954807149080909E-07   4.0254166646401610E-07
   4.1597056667883192E-07   4.2984943496962340E-07   4.4419343128839049E-07
   4.5901822968240074E-07   4.7434003585607441E-07   4.9017560533741187E-07
   5.0654226226987648E-07   5.2345791885145506E-07   5.4094109544332505E-07
   5.5901094137133739E-07   5.7768725644438052E-07   5.9699051321448289E-07
   6.1694188000436577E-07   6.3756324472915065E-07   6.5887723953969570E-07
   6.8090726631616850E-07   7.0367752304132158E-07   7.2721303108403376E-07
   7.5153966342474828E-07   7.7668417385547341E-07   8.0267422718825843E-07
   8.2953843050714046E-07   8.5730636549981661E-07   8.8600862190659641E-07
   9.1567683212538459E-07   9.4634370701296086E-07   9.7804307292406272E-07
   1.0108099100313270E-06   1.0446803919706200E-06   1.0796919268577792E-06
   1.1158831997245079E-06   1.1532942164227324E-06   1.1919663490484276E-06
   1.2319423829378415E-06   1.2732665652906597E-06   1.3159846554767983E-06
   1.3601439770852781E-06   1.4057934717757719E-06   1.4529837549955405E-06
   1.5017671736265257E-06   1.5521978656297937E-06   1.6043318217567350E-06
   1.6582269493988304E-06   1.7139431386504267E-06   1.7715423306612853E-06
   1.8310885883586935E-06   1.8926481696213137E-06   1.9562896029900938E-06
   2.0220837660043583E-06   2.0901039662542733E-06   2.1604260252441034E-06
   2.2331283651638972E-06   2.3082920986705768E-06   2.3860011217830310E-06
   2.4663422099992284E-06   2.5494051177473557E-06   2.6352826812865980E-06
   2.7240709251773376E-06   2.8158691724446686E-06   2.9107801585632858E-06
   3.0089101493963589E-06   3.1103690632255153E-06   3.2152705970137265E-06
   3.3237323570479251E-06   3.4358759941130115E-06   3.5518273433543014E-06
   3.6717165689908819E-06   3.7956783140477157E-06   3.9238518552802834E-06
   4.0563812634715967E-06   4.1934155692870811E-06   4.3351089348800365E-06
   4.4816208314460326E-06   4.6331162229321593E-06   4.7897657561136381E-06
   4.9517459572575761E-06   5.1192394356016188E-06   5.2924350938821734E-06
   5.4715283461558500E-06   5.6567213431652930E-06   5.8482232055093645E-06
   6.0462502648868867E-06   6.2510263136914279E-06   6.4627828632449403E-06
   6.6817594109673134E-06   6.9082037167887636E-06   7.1423720891232199E-06
   7.3845296807305916E-06   7.6349507948075135E-06   7.8939192016577122E-06
   8.1617284663041008E-06   8.4386822874182556E-06   8.7250948479543048E-06
   9.0212911778879523E-06   9.3276075294748720E-06   9.6443917654556368E-06
   9.9720037606503914E-06   1.0310815817399258E-05   1.0661213095321465E-05
   1.1023594055880846E-05   1.1398370922261754E-05   1.1785970155076935E-05
   1.2186832944445306E-05   1.2601415718995769E-05   1.3030190672372131E-05
   1.3473646307831894E-05   1.3932288001553236E-05   1.4406638585282717E-05
   1.4897238948978293E-05   1.5404648664124090E-05   1.5929446628413374E-05
   1.6472231732522701E-05   1.7033623549719902E-05   1.7614263049075697E-05
   1.8214813333072877E-05   1.8835960400431659E-05   1.9478413934999225E-05
   2.0142908121575762E-05   2.0830202489579993E-05   2.1541082785485491E-05
   2.2276361874987995E-05   2.3036880675897386E-05   2.3823509122777715E-05
   2.4637147164391826E-05   2.5478725795042511E-05   2.6349208120934143E-05
   2.7249590462718073E-05   2.8180903495418405E-05   2.9144213426975655E-05
   3.0140623216683554E-05   3.1171273834833569E-05   3.2237345564926212E-05
   3.3340059349847400E-05   3.4480678183453814E-05   3.5660508549056701E-05
   3.6880901906337346E-05   3.8143256228279388E-05   3.9449017589748202E-05
   4.0799681809400151E-05   4.2196796146655886E-05   4.3641961055524751E-05
   4.5136831997122750E-05   4.6683121312783027E-05   4.8282600159713067E-05
   4.9937100511217614E-05   5.1648517223559484E-05   5.3418810171601243E-05
   5.5250006455429285E-05   5.7144202680228944E-05   5.9103567311750054E-05
   6.1130343109765852E-05   6.3226849642006593E-05   6.5395485881115988E-05
   6.7638732887256435E-05   6.9959156579068191E-05   7.2359410595757077E-05
   7.4842239253181068E-05   7.7410480596873095E-05   8.0067069555032406E-05
   8.2815041194600613E-05   8.5657534083623461E-05   8.8597793763197782E-05
   9.1639176332389616E-05   9.4785152149605220E-05   9.8039309653999546E-05
   1.0140535931059668E-04   1.0488713768290780E-04   1.0848861163693070E-04
   1.1221388268051834E-04   1.1606719144222362E-04   1.2005292229381937E-04
   1.2417560812082664E-04   1.2843993524548150E-04   1.3285074850669779E-04
   1.3741305650170053E-04   1.4213203699412307E-04   1.4701304249349140E-04
   1.5206160601113848E-04   1.5728344699772560E-04   1.6268447746767495E-04
   1.6827080831594951E-04   1.7404875583275416E-04   1.8002484842187037E-04
   1.8620583352846744E-04   1.9259868478238668E-04   1.9921060936302354E-04
   2.0604905559209194E-04   2.1312172076069427E-04   2.2043655919726102E-04
   2.2800179058309785E-04   2.3582590852239723E-04   2.4391768937375580E-04
   2.5228620135037052E-04   2.6094081389625446E-04   2.6989120734596285E-04
   2.7914738287548261E-04   2.8871967275209313E-04   2.9861875089116934E-04
   3.0885564372804946E-04   3.1944174141326092E-04   3.3038880933954111E-04
   3.4170900000926699E-04   3.5341486525105589E-04   3.6551936879445198E-04
   3.7803589921179198E-04   3.9097828323646531E-04   4.0436079946696988E-04
   4.1819819246630488E-04   4.3250568726637540E-04   4.4729900428726522E-04
   4.6259437468133265E-04   4.7840855611227726E-04   4.9475884897940260E-04
   5.1166311309749153E-04   5.2913978484278254E-04   5.4720789477568851E-04
   5.6588708575101474E-04   5.8519763152651866E-04   6.0516045588077940E-04
   6.2579715225141209E-04   6.4713000390477060E-04   6.6918200464833385E-04
   6.9197688009705954E-04   7.1553910950500842E-04   7.3989394817362060E-04
   7.6506745044801431E-04   7.9108649331272182E-04   8.1797880059827498E-04
   8.4577296780999724E-04   8.7449848759039008E-04   9.0418577582637705E-04
   9.3486619841266977E-04   9.6657209868236367E-04   9.9933682551580911E-04
   1.0331947621386318E-03   1.0681813556196256E-03   1.1043331470790801E-03
   1.1416878026178387E-03   1.1802841449771880E-03   1.2201621859393725E-03
   1.2613631594782483E-03   1.3039295556692026E-03   1.3479051553671748E-03
   1.3933350656610778E-03   1.4402657561125951E-03   1.4887450957867100E-03
   1.5388223910808622E-03   1.5905484243590258E-03   1.6439754933963444E-03
   1.6991574516392611E-03   1.7561497492853801E-03   1.8150094751864872E-03
   1.8757953995772608E-03   1.9385680176313433E-03   2.0033895938454263E-03
   2.0703242072509422E-03   2.1394377974518980E-03   2.2107982114861150E-03
   2.2844752515059365E-03   2.3605407232730651E-03   2.4390684854607952E-03
   2.5201344997553927E-03   2.6038168817467539E-03   2.6901959525967752E-03
   2.7793542914720912E-03   2.8713767887258890E-03   2.9663506998116331E-03
   3.0643656999092546E-03   3.1655139392423232E-03   3.2698900990622199E-03
   3.3775914482729740E-03   3.4887179006679436E-03   3.6033720727464648E-03
   3.7216593420762991E-03   3.8436879061642037E-03   3.9695688417941497E-03
   4.0994161647894623E-03   4.2333468901515252E-03   4.3714810925244490E-03
   4.5139419669310314E-03   4.6608558897218242E-03   4.8123524796747702E-03
   4.9685646591789180E-03   5.1296287154310883E-03   5.2956843615700527E-03
   5.4668747976677002E-03   5.6433467714922577E-03   5.8252506389528166E-03
   6.0127404241297330E-03   6.2059738787896505E-03   6.4051125412779141E-03
   6.6103217946760166E-03   6.8217709241044254E-03   7.0396331730460731E-03
   7.2640857985580634E-03   7.4953101252330616E-03   7.7334915977647772E-03
   7.9788198319642161E-03   8.2314886640666805E-03   8.4916961981609442E-03
   8.7596448515647914E-03   9.0355413979626934E-03   9.3195970081125963E-03
   9.6120272879209497E-03   9.9130523136753516E-03   1.0222896664215199E-02
   1.0541789449812159E-02   1.0869964337520943E-02   1.1207659572752467E-02
   1.1555117996810435E-02   1.1912587060121530E-02   1.2280318830879971E-02
   1.2658569998814090E-02   1.3047601873773313E-02   1.3447680378820749E-02
   1.3859076037504968E-02   1.4282063954974117E-02   1.4716923792579460E-02
   1.5163939735606789E-02   1.5623400453760030E-02   1.6095599054005774E-02
   1.6580833025380638E-02   1.7079404175343541E-02   1.7591618557246797E-02
   1.8117786388487569E-02   1.8658221958883534E-02   1.9213243528812735E-02
   1.9783173216638708E-02   2.0368336874934584E-02   2.0969063955011823E-02
   2.1585687359242708E-02   2.2218543280665623E-02   2.2867971029347827E-02
   2.3534312844975664E-02   2.4217913695138777E-02   2.4919121058763462E-02
   2.5638284694152417E-02   2.6375756391080842E-02   2.7131889706394859E-02
   2.7907039682560846E-02   2.8701562548605359E-02   2.9515815402890978E-02
   3.0350155877166614E-02   3.1204941781335656E-02   3.2080530728382003E-02
   3.2977279738896810E-02   3.3895544824650153E-02   3.4835680550654530E-02
   3.5798039575169298E-02   3.6782972167102197E-02   3.7790825700264638E-02
   3.8821944123949605E-02   3.9876667409300653E-02   4.0955330970954155E-02
   4.2058265063442929E-02   4.3185794151855438E-02   4.4338236256265651E-02
   4.5515902269445373E-02   4.6719095247399332E-02   4.7948109672273101E-02
   4.9203230687197931E-02   5.0484733302674903E-02   5.1792881574106317E-02
   5.3127927750130428E-02   5.4490111391443191E-02   5.5879658459823817E-02
   5.7296780377140297E-02   5.8741673054139500E-02   6.0214515888891519E-02
   6.1715470734813739E-02   6.3244680838244832E-02   6.4802269745623600E-02
   6.6388340180375607E-02   6.8002972889689164E-02   6.9646225461443542E-02
   7.1318131111612310E-02   7.3018697442569711E-02   7.4747905172800069E-02
   7.6505706838605581E-02   7.8292025468515339E-02   8.0106753231181035E-02
   8.1949750057672785E-02   8.3820842239186816E-02   8.5719821001296825E-02
   8.7646441056012464E-02   8.9600419133020526E-02   9.1581432491630907E-02
   9.3589117415082759E-02   9.5623067689001418E-02   9.7682833065959485E-02
   9.9767917718231389E-02   1.0187777868099808E-01   1.0401182428841292E-01
   1.0616941260510648E-01   1.0834984985587721E-01   1.1055238885648042E-01
   1.1277622744861367E-01   1.1502050694235567E-01   1.1728431056951376E-01
   1.1956666195150122E-01   1.2186652358554947E-01   1.2418279535325230E-01
   1.2651431305559840E-01   1.2885984697885194E-01   1.3121810049580573E-01
   1.3358770870710454E-01   1.3596723712752454E-01   1.3835518042223841E-01
   1.4074996119828009E-01   1.4314992885657266E-01   1.4555335851001688E-01
   1.4795844997330987E-01   1.5036332683026055E-01   1.5276603558450980E-01
   1.5516454489967632E-01   1.5755674493501542E-01   1.5994044678279931E-01
   1.6231338201365583E-01   1.6467320233616689E-01   1.6701747937706457E-01
   1.6934370458833722E-01   1.7164928928758361E-01   1.7393156483788560E-01
   1.7618778297342000E-01   1.7841511627695586E-01   1.8061065881526353E-01
   1.8277142693835499E-01   1.8489436024834152E-01   1.8697632274354295E-01
   1.8901410414336911E-01   1.9100442139935214E-01   1.9294392039762953E-01
   1.9482917785811865E-01   1.9665670343562272E-01   1.9842294202818520E-01
   2.0012427629814944E-01   2.0175702941161922E-01   2.0331746800233128E-01
   2.0480180536636083E-01   2.0620620489455910E-01   2.0752678375016267E-01
   2.0875961679958896E-01   2.0990074080500953E-01   2.1094615888782983E-01
   2.1189184527260960E-01   2.1273375032118108E-01   2.1346780586658423E-01
   2.1408993085582081E-01   2.1459603730917756E-01   2.1498203660178708E-01
   2.1524384607018973E-01   2.1537739594291694E-01   2.1537863658978940E-01
   2.1524354608009025E-01   2.1496813803553494E-01   2.1454846976055422E-01
   2.1398065063026914E-01   2.1326085071589410E-01   2.1238530962807314E-01
   2.1135034556054835E-01   2.1015236451902786E-01   2.0878786972262017E-01
   2.0725347116722737E-01   2.0554589534146650E-01   2.0366199508591670E-01
   2.0159875958573401E-01   1.9935332448515725E-01   1.9692298211036105E-01
   1.9430519178477204E-01   1.9149759021858245E-01   1.8849800195199257E-01
   1.8530444982976718E-01   1.8191516548311867E-01   1.7832859979369092E-01
   1.7454343331349789E-01   1.7055858661398840E-01   1.6637323053689174E-01
   1.6198679631907101E-01   1.5739898556317461E-01   1.5260978002544043E-01
   1.4761945119143849E-01   1.4242856960994349E-01   1.3703801395439150E-01
   1.3144897978056444E-01   1.2566298794831471E-01   1.1968189267418776E-01
   1.1350788918092117E-01   1.0714352090889488E-01   1.0059168625371728E-01
   9.3855644793419873E-02   8.6939022967993440E-02   7.9845819173500129E-02
   7.2580408232638075E-02   6.5147545203377899E-02   5.7552368487441156E-02
   4.9800402200582343E-02   4.1897557767233529E-02   3.3850134702986569E-02
   2.5664820549462213E-02   1.7348689927780599E-02   8.9092026786525141E-03
   3.5420105937549791E-04  -8.3080940292392207E-03  -1.7069087810076738E-02
  -2.5919817411554896E-02  -3.4850958680762753E-02  -4.3852834040249096E-02
  -5.2915421395874983E-02  -6.2028364097770523E-02  -7.1180981950216507E-02
  -8.0362283259260842E-02  -8.9560977898971758E-02  -9.8765491368035335E-02
  -1.0796397979832549E-01  -1.1714434586580587E-01  -1.2629425554228371E-01
  -1.3540115561482216E-01  -1.4445229188899458E-01  -1.5343472798456601E-01
  -1.6233536462951847E-01  -1.7114095936348381E-01  -1.7983814657754069E-01
  -1.8841345784713723E-01  -1.9685334256137133E-01  -2.0514418891601321E-01
  -2.1327234541725160E-01  -2.2122414312940594E-01  -2.2898591897536105E-01
  -2.3654404043626975E-01  -2.4388493196562969E-01  -2.5099510330840286E-01
  -2.5786117969892253E-01  -2.6446993363935867E-01  -2.7080831770409070E-01
  -2.7686349765287227E-01  -2.8262288511844663E-01  -2.8807416926028634E-01
  -2.9320534699358547E-01  -2.9800475163707135E-01  -3.0246108001144023E-01
  -3.0656341813168114E-01  -3.1030126567270289E-01  -3.1366455937005988E-01
  -3.1664369547214588E-01  -3.1922955130731595E-01  -3.2141350598110385E-01
  -3.2318746017950845E-01  -3.2454385502470234E-01  -3.2547568990838815E-01
  -3.2597653921409120E-01  -3.2604056783238794E-01  -3.2566254537197070E-01
  -3.2483785897425532E-01  -3.2356252464930196E-01  -3.2183319706509683E-01
  -3.1964717773943968E-01  -3.1700242160228448E-01  -3.1389754191509067E-01
  -3.1033181355130357E-01  -3.0630517465778823E-01  -3.0181822673033748E-01
  -2.9687223314708089E-01  -2.9146911621186522E-01  -2.8561145276553329E-01
  -2.7930246842691447E-01  -2.7254603052747706E-01  -2.6534663980433287E-01
  -2.5770942091592641E-01  -2.4964011184346938E-01  -2.4114505223929195E-01
  -2.3223117078089306E-01  -2.2290597158673073E-01  -2.1317751974692195E-01
  -2.0305442601898499E-01  -1.9254583073584497E-01  -1.8166138697044654E-01
  -1.7041124299871865E-01  -1.5880602410033143E-01  -1.4685681373468196E-01
  -1.3457513412812760E-01  -1.2197292630737887E-01  -1.0906252961351941E-01
  -9.5856660731246712E-02  -8.2368392268432220E-02  -6.8611130922511268E-02
  -5.4598595271793351E-02  -4.0344793232127696E-02  -2.5863999222106145E-02
  -1.1170731082949366E-02   3.7202731972341215E-03   1.8794078901660297E-02
   3.4035578088762009E-02   4.9429513121202147E-02   6.4960500156305376E-02
   8.0613052530974713E-02   9.6371603971883699E-02   1.1222053156027562E-01
   1.2814417838014214E-01   1.4412687577999236E-01   1.6015296518132993E-01
   1.7620681937237095E-01   1.9227286323368623E-01   2.0833559385312711E-01
   2.2437960000144166E-01   2.4038958095642757E-01   2.5635036468213629E-01
   2.7224692538968903E-01   2.8806440052581173E-01   3.0378810725327177E-01
   3.1940355850159829E-01   3.3489647867524674E-01   3.5025281910841349E-01
   3.6545877334974536E-01   3.8050079234663808E-01   3.9536559957818806E-01
   4.1004020616004139E-01   4.2451192591581388E-01   4.3876839038102960E-01
   4.5279756367954554E-01   4.6658775719127832E-01   4.8012764391543455E-01
   4.9340627242585994E-01   5.0641308031449717E-01   5.1913790702420026E-01
   5.3157100598197160E-01   5.4370305595640678E-01   5.5552517157710302E-01
   5.6702891296776248E-01   5.7820629445768623E-01   5.8904979234755928E-01
   5.9955235171490218E-01   6.0970739225199166E-01   6.1950881313482942E-01
   6.2895099692628331E-01   6.3802881251981192E-01   6.4673761713300837E-01
   6.5507325736247968E-01   6.6303206931356262E-01   6.7061087782044593E-01
   6.7780699477402429E-01   6.8461821657670396E-01   6.9104282074510048E-01
   6.9707956168308338E-01   7.0272766564907418E-01   7.0798682494254572E-01
   7.1285719133548664E-01   7.1733936877510218E-01   7.2143440538409320E-01
   7.2514378478474206E-01   7.2846941677253485E-01   7.3141362736435456E-01
   7.3397914824544264E-01   7.3616910563834070E-01   7.3798700861606947E-01
   7.3943673688088785E-01   7.4052252802919560E-01   7.4124896432260079E-01
   7.4162095898487623E-01   7.4164374204455941E-01   7.4132284574335061E-01
   7.4066408953120144E-01   7.3967356467021461E-01   7.3835761847067061E-01
   7.3672283818498152E-01   7.3477603458696183E-01   7.3252422526653105E-01
   7.2997461767287852E-01   7.2713459194211749E-01   7.2401168354890366E-01
   7.2061356582530234E-01   7.1694803239437133E-01   7.1302297957064187E-01
   7.0884638878492923E-01   7.0442630909674064E-01   6.9977083986404154E-01
   6.9488811364705083E-01   6.8978627943006487E-01   6.8447348625256565E-01
   6.7895786734762587E-01   6.7324752489133211E-01   6.6735051547068536E-01
   6.6127483637858142E-01   6.5502841284209479E-01   6.4861908628367959E-01
   6.4205460370374245E-01   6.3534260825694056E-01   6.2849063107396985E-01
   6.2150608435613919E-01   6.1439625574273438E-01   6.0716830392267718E-01
   5.9982925543384646E-01   5.9238600256741747E-01   5.8484530227249332E-01
   5.7721377593897538E-01   5.6949790992639904E-01   5.6170405670074575E-01
   5.5383843644320208E-01   5.4590713900265131E-01   5.3791612607493733E-01
   5.2987123350739052E-01   5.2177817364435652E-01   5.1364253764749801E-01
   5.0546979774236933E-01   4.9726530935913243E-01   4.8903431314981022E-01
   4.8078193687669435E-01   4.7251319717631646E-01   4.6423300121086242E-01
   4.5594614822417867E-01   4.4765733102295358E-01   4.3937113740552769E-01
   4.3109205156145070E-01   4.2282445546468772E-01   4.1457263028245811E-01
   4.0634075782038520E-01   3.9813292202293321E-01   3.8995311054623610E-01
   3.8180521641827408E-01   3.7369303979893564E-01   3.6562028984980699E-01
   3.5759058672027616E-01   3.4960746365280182E-01   3.4167436920565913E-01
   3.3379466958601767E-01   3.2597165107982623E-01   3.1820852255729676E-01
   3.1050841802403500E-01   3.0287439917789000E-01   2.9530945792050922E-01
   2.8781651876087411E-01   2.8039844103583933E-01   2.7305802086083453E-01
   2.6579799271309767E-01   2.5862103054095015E-01   2.5152974828718078E-01
   2.4452669971340346E-01   2.3761437741670893E-01   2.3079521094150759E-01
   2.2407156390704014E-01   2.1744573009858359E-01   2.1091992850300342E-01
   2.0449629730950170E-01   1.9817688694079114E-01   1.9196365222638298E-01
   1.8585844387544145E-01   1.7986299944851408E-01   1.7397893406231343E-01
   1.6820773108714235E-01   1.6255073311026394E-01   1.5700913343972189E-01
   1.5158396841154104E-01   1.4627611073978297E-01   1.4108626411539135E-01
   1.3601495921828519E-01   1.3106255126059546E-01   1.2622921912991242E-01
   1.2151496615260350E-01   1.1691962245091603E-01   1.1244284882549078E-01
   1.0808414205841234E-01   1.0384284150174054E-01   9.9718136793008019E-02
   9.5709076522315750E-02   9.1814577665105715E-02   8.8033435589960560E-02
   8.4364334451130771E-02   8.0805857780400808E-02   7.7356499101608772E-02
   7.4014672403054010E-02   7.0778722317681494E-02   6.7646933877697948E-02
   6.4617541728844916E-02   6.1688738709431763E-02   5.8858683719996578E-02
   5.6125508830794348E-02   5.3487325595613588E-02   5.0942230561352546E-02
   4.8488309982808120E-02   4.6123643770971751E-02   4.3846308721533452E-02
   4.1654381044992903E-02   3.9545938553004124E-02   3.7519061492255285E-02
   3.5571834409398512E-02   3.3702346307753615E-02   3.1908691187758062E-02
   3.0188968309091929E-02   2.8541282345539667E-02   2.6963743510941079E-02
   2.5454467716177303E-02   2.4011576806867364E-02   2.2633198921007677E-02
   2.1317468995371319E-02   2.0062529439450326E-02   1.8866530986448853E-02
   1.7727633722509198E-02   1.6644008288134945E-02   1.5613837239772657E-02
   1.4635316554703499E-02   1.3706657258784847E-02   1.2826087154068858E-02
   1.1991852621821382E-02   1.1202220475847674E-02   1.0455479841168991E-02
   9.7499440338606070E-03   9.0839524191288264E-03   8.4558722263508440E-03
   7.8641003017282281E-03   7.3070647813073004E-03   6.7832266693290157E-03
   6.2910813091061057E-03   5.8291597358426451E-03   5.3960299029604955E-03
   4.9902977755419946E-03   4.6106082864265921E-03   4.2556461522744640E-03
   3.9241365485414657E-03   3.6148456437800347E-03   3.3265809949883898E-03
   3.0581918068898232E-03   2.8085690590221174E-03   2.5766455053771314E-03
   2.3613955520523245E-03   2.1618350189663233E-03   1.9770207921689120E-03
   1.8060503736394610E-03   1.6480613357351080E-03   1.5022306876292153E-03
   1.3677741611748675E-03   1.2439454236555607E-03   1.1300352248457576E-03
   1.0253704857093623E-03   9.2931333592300401E-04   8.4126010722443770E-04
   7.6064028936750135E-04   6.8691545521430014E-04   6.1957816121975182E-04
       </PP_GIPAW_WFS_AE>
       <PP_GIPAW_WFS_PS size="1164">
   0.0000000000000000E+00   3.6618131062533041E-16   3.8017382982075377E-16
   3.9470103113604342E-16   4.0978334582731616E-16   4.2544198588511234E-16
   4.4169897385271575E-16   4.5857717379877080E-16   4.7610032347364864E-16
   4.9429306769457188E-16   5.1318099300644822E-16   5.3279066366716576E-16
   5.5314965900796332E-16   5.7428661222140640E-16   5.9623125063153216E-16
   6.1901443750280259E-16   6.4266821544665184E-16   6.6722585148669373E-16
   6.9272188384595457E-16   7.1919217052193943E-16   7.4667393971785783E-16
   7.7520584220090722E-16   8.0482800566130088E-16   8.3558209114843197E-16
   8.6751135166359753E-16   9.0066069299165756E-16   9.3507673685719689E-16
   9.7080788649400698E-16   1.0079043947201150E-15   1.0464184346140879E-15
   1.0864041728920229E-15   1.1279178460884204E-15   1.1710178396480779E-15
   1.2157647700402467E-15   1.2622215700105253E-15   1.3104535770904159E-15
   1.3605286254889848E-15   1.4125171414959069E-15   1.4664922425300360E-15
   1.5225298399728322E-15   1.5807087459312472E-15   1.6411107840802432E-15
   1.7038209047408152E-15   1.7689273043553879E-15   1.8365215495285927E-15
   1.9066987058079023E-15   1.9795574713852135E-15   2.0552003159074566E-15
   2.1337336245914227E-15   2.2152678478455079E-15   2.2999176566087920E-15
   2.3878021036259702E-15   2.4790447908848622E-15   2.5737740434521142E-15
   2.6721230899514432E-15   2.7742302499383707E-15   2.8802391284348714E-15
   2.9902988178976185E-15   3.1045641079038220E-15   3.2231957028495699E-15
   3.3463604479668772E-15   3.4742315639773067E-15   3.6069888907121269E-15
   3.7448191400417380E-15   3.8879161584700021E-15   4.0364811997628339E-15
   4.1907232079944913E-15   4.3508591114095832E-15   4.5171141275142123E-15
   4.6897220798251723E-15   4.8689257267228257E-15   5.0549771028700587E-15
   5.2481378736775967E-15   5.4486797033141057E-15   5.6568846367786649E-15
   5.8730454965730852E-15   6.0974662945317739E-15   6.3304626593884879E-15
   6.5723622806812656E-15   6.8235053696198380E-15   7.0842451375637317E-15
   7.3549482927839158E-15   7.6359955562067744E-15   7.9277821968656561E-15
   8.2307185878130898E-15   8.5452307832754949E-15   8.8717611178622006E-15
   9.2107688286713750E-15   9.5627307011678468E-15   9.9281417397412711E-15
   1.0307515863887656E-14   1.0701386630993306E-14   1.1110307986737850E-14
   1.1534855044171646E-14   1.1975624892563295E-14   1.2433237437154815E-14
   1.2908336271005593E-14   1.3401589580151093E-14   1.3913691083349741E-14
   1.4445361007739104E-14   1.4997347101774123E-14   1.5570425686871524E-14
   1.6165402749239792E-14   1.6783115073430126E-14   1.7424431419202560E-14
   1.8090253743362605E-14   1.8781518468286641E-14   1.9499197798920199E-14
   2.0244301090101404E-14   2.1017876266132531E-14   2.1821011294596306E-14
   2.2654835716489601E-14   2.3520522234826572E-14   2.4419288363945643E-14
   2.5352398141839530E-14   2.6321163907917169E-14   2.7326948148697203E-14
   2.8371165414029110E-14   2.9455284306537178E-14   3.0580829547084999E-14
   3.1749384119165241E-14   3.2962591495231370E-14   3.4222157948101397E-14
   3.5529854950685328E-14   3.6887521667410776E-14   3.8297067540851344E-14
   3.9760474977194431E-14   4.1279802134327247E-14   4.2857185816459704E-14
   4.4494844479358524E-14   4.6195081350415318E-14   4.7960287667940251E-14
   4.9792946044234663E-14   5.1695633957174130E-14   5.3671027375210959E-14
   5.5721904520896391E-14   5.7851149778213595E-14   6.0061757749217973E-14
   6.2356837465689742E-14   6.4739616761722604E-14   6.7213446813397063E-14
   6.9781806851924122E-14   7.2448309056887440E-14   7.5216703636466585E-14
   7.8090884101784467E-14   8.1074892742799965E-14   8.4172926313443732E-14
   8.7389341933995048E-14   9.0728663219000450E-14   9.4195586639352040E-14
   9.7794988127473615E-14   1.0153192993490436E-13   1.0541166775192389E-13
   1.0943965809923301E-13   1.1362156600208555E-13   1.1796327295766303E-13
   1.2247088520689976E-13   1.2715074232238986E-13   1.3200942612445643E-13
   1.3705376993792121E-13   1.4229086820259300E-13   1.4772808645099309E-13
   1.5337307166734908E-13   1.5923376304242666E-13   1.6531840313932464E-13
   1.7163554948593797E-13   1.7819408661039096E-13   1.8500323853636993E-13
   1.9207258175592546E-13   1.9941205869799266E-13   2.0703199171157079E-13
   2.1494309758322669E-13   2.2315650260934291E-13   2.3168375824430411E-13
   2.4053685734663384E-13   2.4972825104592857E-13   2.5927086625430896E-13
   2.6917812384702215E-13   2.7946395753775746E-13   2.9014283347522650E-13
   3.0122977058857172E-13   3.1274036171020614E-13   3.2469079550580738E-13
   3.3709787924229163E-13   3.4997906242580704E-13   3.6335246134297235E-13
   3.7723688453989347E-13   3.9165185927477959E-13   4.0661765898136729E-13
   4.2215533178177340E-13   4.3828673008889280E-13   4.5503454133994883E-13
   4.7242231990444055E-13   4.9047452021135502E-13   5.0921653114224240E-13
   5.2867471173850674E-13   5.4887642827315614E-13   5.6985009273912924E-13
   5.9162520280834374E-13   6.1423238331765685E-13   6.3770342934008718E-13
   6.6207135090187657E-13   6.8737041940827509E-13   7.1363621584335136E-13
   7.4090568081161382E-13   7.6921716649182400E-13   7.9861049057606250E-13
   8.2912699226992095E-13   8.6080959043256692E-13   8.9370284393846364E-13
   9.2785301434562761E-13   9.6330813095856100E-13   1.0001180583773820E-12
   1.0383345666281193E-12   1.0780114039728533E-12   1.1192043725020571E-12
   1.1619714066154795E-12   1.2063726545019341E-12   1.2524705627326043E-12
   1.3003299640868147E-12   1.3500181687338087E-12   1.4016050588987619E-12
   1.4551631871461711E-12   1.5107678784188403E-12   1.5684973359760059E-12
   1.6284327513795332E-12   1.6906584186829346E-12   1.7552618529837536E-12
   1.8223339135060970E-12   1.8919689313863778E-12   1.9642648423420034E-12
   2.0393233244096287E-12   2.1172499409466121E-12   2.1981542890968879E-12
   2.2821501539299973E-12   2.3693556684700778E-12   2.4598934798398874E-12
   2.5538909217534997E-12   2.6514801936003274E-12   2.7527985463722703E-12
   2.8579884756955336E-12   2.9671979222385437E-12   3.0805804797778849E-12
   3.1982956112148482E-12   3.3205088728463675E-12   3.4473921472058327E-12
   3.5791238848012001E-12   3.7158893550903765E-12   3.8578809070469413E-12
   4.0052982396824955E-12   4.1583486829063288E-12   4.3172474891171847E-12
   4.4822181359373952E-12   4.6534926405150969E-12   4.8313118858364754E-12
   5.0159259595071847E-12   5.2075945054791464E-12   5.4065870892175939E-12
   5.6131835768219143E-12   5.8276745286333667E-12   6.0503616078833590E-12
   6.2815580049570941E-12   6.5215888778689508E-12   6.7707918095695704E-12
   7.0295172827273651E-12   7.2981291726524049E-12   7.5770052590560100E-12
   7.8665377573655482E-12   8.1671338703419585E-12   8.4792163607755778E-12
   8.8032241460658528E-12   9.1396129155211828E-12   9.4888557712468622E-12
   9.8514438935228124E-12   1.0227887231606586E-11   1.0618715220933357E-11
   1.1024477527721625E-11   1.1445744822031574E-11   1.1883109580363860E-11
   1.2337186918926976E-11   1.2808615458745510E-11   1.3298058223826130E-11
   1.3806203573643781E-11   1.4333766171260647E-11   1.4881487988438332E-11
   1.5450139349157649E-11   1.6040520013013393E-11   1.6653460300007457E-11
   1.7289822258323025E-11   1.7950500876721288E-11   1.8636425343266445E-11
   1.9348560352149187E-11   2.0087907460446096E-11   2.0855506496724013E-11
   2.1652437023469630E-11   2.2479819855401461E-11   2.3338818635799708E-11
   2.4230641473070481E-11   2.5156542639846765E-11   2.6117824337015095E-11
   2.7115838525149154E-11   2.8151988825926573E-11   2.9227732496201760E-11
   3.0344582477512838E-11   3.1504109523903747E-11   3.2707944411054595E-11
   3.3957780229827903E-11   3.5255374767454826E-11   3.6602552979711827E-11
   3.8001209557564185E-11   3.9453311591885289E-11   4.0960901340001278E-11
   4.2526099097949330E-11   4.4151106182492131E-11   4.5838208027079754E-11
   4.7589777396114857E-11   4.9408277722041912E-11   5.1296266569951504E-11
   5.3256399234575679E-11   5.5291432474730893E-11   5.7404228390460871E-11
   5.9597758448333964E-11   6.1875107660553101E-11   6.4239478923760151E-11
   6.6694197523631814E-11   6.9242715811608622E-11   7.1888618060325908E-11
   7.4635625504584918E-11   7.7487601574947007E-11   8.0448557331313602E-11
   8.3522657104136005E-11   8.6714224351183160E-11   9.0027747738111946E-11
   9.3467887451384876E-11   9.7039481752417818E-11   1.0074755378217645E-10
   1.0459731862578524E-10   1.0859419064709241E-10   1.1274379110350344E-10
   1.1705195605178685E-10   1.2152474455598493E-10   1.2616844720895503E-10
   1.3098959497954298E-10   1.3599496839782095E-10   1.4119160709130987E-10
   1.4658681968560499E-10   1.5218819408331438E-10   1.5800360813578365E-10
   1.6404124072260518E-10   1.7030958325449403E-10   1.7681745161571835E-10
   1.8357399856286235E-10   1.9058872659737948E-10   1.9787150133002546E-10
   2.0543256535597305E-10   2.1328255266012535E-10   2.2143250357287480E-10
   2.2989388029735877E-10   2.3867858303004125E-10   2.4779896669728353E-10
   2.5726785833146567E-10   2.6709857511106678E-10   2.7730494309010456E-10
   2.8790131664325568E-10   2.9890259865401013E-10   3.1032426147426139E-10
   3.2218236868478927E-10   3.3449359768726263E-10   3.4727526315952398E-10
   3.6054534140713616E-10   3.7432249564546553E-10   3.8862610224781547E-10
   4.0347627799657544E-10   4.1889390837567079E-10   4.3490067694412712E-10
   4.5151909583205701E-10   4.6877253740194457E-10   4.8668526711977409E-10
   5.0528247768222857E-10   5.2459032444794022E-10   5.4463596222265384E-10
   5.6544758344999241E-10   5.8705445786159136E-10   6.0948697364231816E-10
   6.3277668016849323E-10   6.5695633237922628E-10   6.8205993684325272E-10
   7.0812279958607137E-10   7.3518157574464456E-10   7.6327432111949063E-10
   7.9244054569669024E-10   8.2272126921504406E-10   8.5415907885656064E-10
   8.8679818914140956E-10   9.2068450411155868E-10   9.5586568189055450E-10
   9.9239120171028080E-10   1.0303124334988613E-09   1.0696827101277167E-09
   1.1105574024192532E-09   1.1529939970207502E-09   1.1970521772539586E-09
   1.2427939070540561E-09   1.2902835181161249E-09   1.3395878003715768E-09
   1.3907760959218919E-09   1.4439203965617128E-09   1.4990954450284306E-09
   1.5563788401207555E-09   1.6158511458339842E-09   1.6775960046655338E-09
   1.7417002552501120E-09   1.8082540544898291E-09   1.8773510043512044E-09
   1.9490882835072418E-09   2.0235667840097667E-09   2.1008912531842993E-09
   2.1811704409468477E-09   2.2645172527500255E-09   2.3510489083734386E-09
   2.4408871067816855E-09   2.5341581972819405E-09   2.6309933572215867E-09
   2.7315287764761220E-09   2.8359058489864787E-09   2.9442713716154245E-09
   3.0567777506024952E-09   3.1735832159078693E-09   3.2948520437467043E-09
   3.4207547876268244E-09   3.5514685182146816E-09   3.6871770723670158E-09
   3.8280713116782550E-09   3.9743493909075375E-09   4.1262170366626322E-09
   4.2838878367327314E-09   4.4475835404772651E-09   4.6175343706926394E-09
   4.7939793473961874E-09   4.9771666239821380E-09   5.1673538362226058E-09
   5.3648084646044897E-09   5.5698082105114966E-09   5.7826413867808368E-09
   6.0036073231834060E-09   6.2330167873979487E-09   6.4711924220712515E-09
   6.7184691985787557E-09   6.9751948881240593E-09   7.2417305508396981E-09
   7.5184510435769084E-09   7.8057455470988126E-09   8.1040181134180310E-09
   8.4136882340488732E-09   8.7351914299729209E-09   9.0689798641478931E-09
   9.4155229774211902E-09   9.7753081487420482E-09   1.0148841380601335E-08
   1.0536648010662640E-08   1.0939273450585265E-08   1.1357283953078645E-08
   1.1791267408266096E-08   1.2241834170478771E-08   1.2709617916641896E-08
   1.3195276537460603E-08   1.3699493062658785E-08   1.4222976621571861E-08
   1.4766463440444432E-08   1.5330717877835697E-08   1.5916533499587784E-08
   1.6524734194869993E-08   1.7156175334866903E-08   1.7811744975741220E-08
   1.8492365107562297E-08   1.9198992950956329E-08   1.9932622303302897E-08
   2.0694284936369351E-08   2.1485052047349757E-08   2.2306035765348481E-08
   2.3158390715426470E-08   2.4043315642410976E-08   2.4962055096749890E-08
   2.5915901184784053E-08   2.6906195385897026E-08   2.7934330439098028E-08
   2.9001752301691852E-08   3.0109962182788371E-08   3.1260518654512850E-08
   3.2455039843885370E-08   3.3695205708450430E-08   3.4982760398859205E-08
   3.6319514711723637E-08   3.7707348636193768E-08   3.9148213997839209E-08
   4.0644137203550194E-08   4.2197222091321900E-08   4.3809652888924525E-08
   4.5483697285624120E-08   4.7221709621270305E-08   4.9026134197236169E-08
   5.0899508713866743E-08   5.2844467839268051E-08   5.4863746914455704E-08
   5.6960185800073478E-08   5.9136732870089180E-08   6.1396449158085429E-08
   6.3742512661973249E-08   6.6178222813182000E-08   6.8707005116611316E-08
   7.1332415967865734E-08   7.4058147654549611E-08   7.6888033548649293E-08
   7.9826053497307598E-08   8.2876339419569227E-08   8.6043181116962577E-08
   8.9331032306094392E-08   9.2744516881731578E-08   9.6288435419182138E-08
   9.9967771925114008E-08   1.0378770084630411E-07   1.0775359434617184E-07
   1.1187102985932642E-07   1.1614579793475021E-07   1.2058391037864525E-07
   1.2519160870838907E-07   1.2997537292948792E-07   1.3494193064786400E-07
   1.4009826653028781E-07   1.4545163212625893E-07   1.5100955606513731E-07
   1.5677985464286723E-07   1.6277064281316878E-07   1.6899034559865537E-07
   1.7544770993791614E-07   1.8215181698521467E-07   1.8911209488010051E-07
   1.9633833200487447E-07   2.0384069074855570E-07   2.1162972179668630E-07
   2.1971637896707202E-07   2.2811203461230298E-07   2.3682849561070719E-07
   2.4587801996821979E-07   2.5527333405449625E-07   2.6502765049750023E-07
   2.7515468676171495E-07   2.8566868443609346E-07   2.9658442925885210E-07
   3.0791727190725960E-07   3.1968314958163291E-07   3.3189860841388003E-07
   3.4458082673207873E-07   3.5774763921378958E-07   3.7141756196204956E-07
   3.8560981853927835E-07   4.0034436699569465E-07   4.1564192793021045E-07
   4.3152401362325038E-07   4.4801295828242120E-07   4.6513194944354379E-07
   4.8290506057116279E-07   5.0135728490433815E-07   5.2051457059529047E-07
   5.4040385719025785E-07   5.6105311350382459E-07   5.8249137693993477E-07
   6.0474879431483905E-07   6.2785666423931389E-07   6.5184748111971776E-07
   6.7675498083967264E-07   7.0261418818656987E-07   7.2946146608949861E-07
   7.5733456673777370E-07   7.8627268465187678E-07   8.1631651178134331E-07
   8.4750829470697928E-07   8.7989189402776591E-07   9.1351284601585310E-07
   9.4841842662622726E-07   9.8465771795095913E-07   1.0222816772113488E-06
   1.0613432083848419E-06   1.1018972365673206E-06   1.1440007851751721E-06
   1.1877130560955405E-06   1.2330955128972920E-06   1.2802119672195219E-06
   1.3291286684588957E-06   1.3799143968817306E-06   1.4326405602915246E-06
   1.4873812943876451E-06   1.5442135669560025E-06   1.6032172860380362E-06
   1.6644754122297245E-06   1.7280740752683425E-06   1.7941026950704774E-06
   1.8626541073912170E-06   1.9338246942808550E-06   2.0077145195220782E-06
   2.0844274692377854E-06   2.1640713978667109E-06   2.2467582797116565E-06
   2.3326043662729960E-06   2.4217303495880436E-06   2.5142615318054997E-06
   2.6103280012326868E-06   2.7100648151025783E-06   2.8136121893168476E-06
   2.9211156954310561E-06   3.0327264651581131E-06   3.1486014026768187E-06
   3.2689034050429608E-06   3.3938015910121701E-06   3.5234715385950264E-06
   3.6580955316775194E-06   3.7978628160524973E-06   3.9429698652206653E-06
   4.0936206563339051E-06   4.2500269566671519E-06   4.4124086210205136E-06
   4.5809939004679181E-06   4.7560197628848498E-06   4.9377322257041720E-06
   5.1263867013657460E-06   5.3222483559438300E-06   5.5255924814540777E-06
   5.7367048823614080E-06   5.9558822768298963E-06   6.1834327132758468E-06
   6.4196760028074254E-06   6.6649441681555488E-06   6.9195819097240566E-06
   7.1839470894114412E-06   7.4584112328803405E-06   7.7433600509774447E-06
   8.0391939810329023E-06   8.3463287487955076E-06   8.6651959517898733E-06
   8.9962436649100043E-06   9.3399370690961923E-06   9.6967591039732244E-06
   1.0067211145361134E-05   1.0451813708606099E-05   1.0851107178711586E-05
   1.1265652568290471E-05   1.1696032304396560E-05   1.2142851045331167E-05
   1.2606736528567923E-05   1.3088340450975558E-05   1.3588339382567581E-05
   1.4107435715054371E-05   1.4646358646516807E-05   1.5205865203577566E-05
   1.5786741302491957E-05   1.6389802850636567E-05   1.7015896889932872E-05
   1.7665902783793202E-05   1.8340733449246084E-05   1.9041336635953077E-05
   1.9768696253896478E-05   2.0523833751587904E-05   2.1307809546709692E-05
   2.2121724511181860E-05   2.2966721512717140E-05   2.3843987015004692E-05
   2.4754752738748097E-05   2.5700297385860638E-05   2.6681948429214072E-05
   2.7701083970421617E-05   2.8759134668234531E-05   2.9857585740224934E-05
   3.0997979040529537E-05   3.2181915216533441E-05   3.3411055947481527E-05
   3.4687126268115492E-05   3.6011916980554752E-05   3.7387287157754538E-05
   3.8815166742007456E-05   4.0297559242075016E-05   4.1836544532679700E-05
   4.3434281760222831E-05   4.5093012358734340E-05   4.6815063180225827E-05
   4.8602849743750787E-05   5.0458879607659913E-05   5.2385755869694615E-05
   5.4386180799731263E-05   5.6462959610188901E-05   5.8619004369270024E-05
   6.0857338062423524E-05   6.3181098807609640E-05   6.5593544230142797E-05
   6.8098056003131736E-05   7.0698144559726473E-05   7.3397453983635287E-05
   7.6199767084616550E-05   7.9109010665871822E-05   8.2129260990563280E-05
   8.5264749454910907E-05   8.8519868475616317E-05   9.1899177599659990E-05
   9.5407409844777273E-05   9.9049478279271974E-05   1.0283048285011199E-04
   1.0675571746858773E-04   1.1083067736317836E-04   1.1506106670958294E-04
   1.1945280654828531E-04   1.2401204300036933E-04   1.2874515579270316E-04
   1.3365876710403517E-04   1.3875975074393188E-04   1.4405524167695834E-04
   1.4955264590493889E-04   1.5525965072058984E-04   1.6118423534633702E-04
   1.6733468197259203E-04   1.7371958721030631E-04   1.8034787397314928E-04
   1.8722880380521014E-04   1.9437198967070849E-04   2.0178740922277314E-04
   2.0948541856899956E-04   2.1747676655207830E-04   2.2577260956450519E-04
   2.3438452691702051E-04   2.4332453678113585E-04   2.5260511272687491E-04
   2.6223920087752462E-04   2.7224023770405846E-04   2.8262216848264830E-04
   2.9339946643949907E-04   3.0458715260816476E-04   3.1620081642529173E-04
   3.2825663709173871E-04   3.4077140572694512E-04   3.5376254834532778E-04
   3.6724814968462790E-04   3.8124697791702309E-04   3.9577851027498893E-04
   4.1086295962501434E-04   4.2652130202328655E-04   4.4277530528884299E-04
   4.5964755863071535E-04   4.7716150336692646E-04   4.9534146477457717E-04
   5.1421268511136272E-04   5.3380135785050648E-04   5.5413466317230837E-04
   5.7524080475702564E-04   5.9714904792538138E-04   6.1988975917437830E-04
   6.4349444715782920E-04   6.6799580516261757E-04   6.9342775513325761E-04
   7.1982549329929562E-04   7.4722553746160779E-04   7.7566577599565330E-04
   8.0518551863157544E-04   8.3582554907287246E-04   8.6762817951751084E-04
   9.0063730714721199E-04   9.3489847265283135E-04   9.7045892086581947E-04
   1.0073676635679581E-03   1.0456755445538083E-03   1.0854353070226007E-03
   1.1267016633785881E-03   1.1695313675212948E-03   1.2139832897096797E-03
   1.2601184940863889E-03   1.3080003189512321E-03   1.3576944598753511E-03
   1.4092690557501442E-03   1.4627947778680951E-03   1.5183449221348130E-03
   1.5759955045148996E-03   1.6358253598168979E-03   1.6979162439251952E-03
   1.7623529395902316E-03   1.8292233658907748E-03   1.8986186914851336E-03
   1.9706334517716612E-03   2.0453656700809356E-03   2.1229169830263022E-03
   2.2033927701414122E-03   2.2869022879370934E-03   2.3735588085130647E-03
   2.4634797628623958E-03   2.5567868890106213E-03   2.6536063851336721E-03
   2.7540690678021637E-03   2.8583105355027695E-03   2.9664713375898741E-03
   3.0786971488239415E-03   3.1951389496558350E-03   3.3159532124187544E-03
   3.4413020935925667E-03   3.5713536323074440E-03   3.7062819552562648E-03
   3.8462674881875017E-03   3.9914971741523255E-03   4.1421646986817334E-03
   4.2984707220708150E-03   4.4606231189493490E-03   4.6288372253181246E-03
   4.8033360932326378E-03   4.9843507533150512E-03   5.1721204852763257E-03
   5.3668930966304105E-03   5.5689252097808062E-03   5.7784825576602207E-03
   5.9958402881014746E-03   6.2212832771156240E-03   6.4551064512521307E-03
   6.6976151192100729E-03   6.9491253128680167E-03   7.2099641378938432E-03
   7.4804701340898750E-03   7.7609936456247645E-03   8.0518972012923341E-03
   8.3535559049325442E-03   8.6663578361392702E-03   8.9907044613667282E-03
   9.3270110555390816E-03   9.6757071342492337E-03   1.0037236896621513E-02
   1.0412059678896957E-02   1.0800650418777933E-02   1.1203500130555084E-02
   1.1621116391012593E-02   1.2054023836086921E-02   1.2502764668229227E-02
   1.2967899174390153E-02   1.3450006254519404E-02   1.3949683960436663E-02
   1.4467550044894520E-02   1.5004242520619250E-02   1.5560420229067123E-02
   1.6136763418595320E-02   1.6733974331694209E-02   1.7352777800875966E-02
   1.7993921852761521E-02   1.8658178319843104E-02   1.9346343459340228E-02
   2.0059238578494447E-02   2.0797710665576785E-02   2.1562633025803055E-02
   2.2354905921267151E-02   2.3175457213915757E-02   2.4025243010489080E-02
   2.4905248308255894E-02   2.5816487640260222E-02   2.6760005718683900E-02
   2.7736878074810376E-02   2.8748211693944304E-02   2.9795145643507902E-02
   3.0878851692392961E-02   3.2000534919491418E-02   3.3161434309177167E-02
   3.4362823331331380E-02   3.5606010503338170E-02   3.6892339931286593E-02
   3.8223191827414633E-02   3.9599983000639549E-02   4.1024167316786618E-02
   4.2497236124917265E-02   4.4020718645919339E-02   4.5596182319266945E-02
   4.7225233103621526E-02   4.8909515726656617E-02   5.0650713879226414E-02
   5.2450550348714042E-02   5.4310787086076028E-02   5.6233225200822710E-02
   5.8219704877827259E-02   6.0272105209543202E-02   6.2392343936879723E-02
   6.4582377091612866E-02   6.6844198532888824E-02   6.9179839369990268E-02
   7.1591367263173666E-02   7.4080885594030435E-02   7.6650532496413432E-02
   7.9302479738625489E-02   8.2038931447161345E-02   8.4862122661920475E-02
   8.7774317712439376E-02   9.0777808404299637E-02   9.3874912004521360E-02
   9.7067969014384720E-02   1.0035934071778208E-01   1.0375140649288433E-01
   1.0724656087458982E-01   1.1084721035495572E-01   1.1455576990855590E-01
   1.1837465922948900E-01   1.2230629866660060E-01   1.2635310484333198E-01
   1.3051748594854945E-01   1.3480183668467208E-01   1.3920853285947360E-01
   1.4373992560805057E-01   1.4839833523164406E-01   1.5318604464031363E-01
   1.5810529238682455E-01   1.6315826527964233E-01   1.6834709056353930E-01
   1.7367382765704698E-01   1.7914045943694495E-01   1.8474888306094261E-01
   1.9050090032099762E-01   1.9639820752107265E-01   2.0244238487470098E-01
   2.0863488541956954E-01   2.1497702344826236E-01   2.2146996245658696E-01
   2.2811470261338476E-01   2.3491206775838377E-01   2.4186269193775015E-01
   2.4896700549016509E-01   2.5622522069985770E-01   2.6363731703691062E-01
   2.7120302600921131E-01   2.7892181565501434E-01   2.8679287470977399E-01
   2.9481509648603327E-01   3.0298706251062607E-01   3.1130702596908322E-01
   3.1977289501328082E-01   3.2838221599464545E-01   3.3713215669185731E-01
   3.4601948960893480E-01   3.5504057542663231E-01   3.6419134669749270E-01
   3.7346729188238992E-01   3.8286343983401905E-01   3.9237434484060124E-01
   4.0199407235077195E-01   4.1171618550840711E-01   4.2153373263378430E-01
   4.3143923579491206E-01   4.4142468062011686E-01   4.5148150750977589E-01
   4.6160060441152728E-01   4.7177230132906939E-01   4.8198636673985745E-01
   4.9223200610131052E-01   5.0249786262859264E-01   5.1277202052933613E-01
   5.2304201088183189E-01   5.3329482034301146E-01   5.4351690287080623E-01
   5.5369419464211833E-01   5.6381213234254102E-01   5.7385567499679591E-01
   5.8380932949980124E-01   5.9365717999686207E-01   6.0338292124774806E-01
   6.1296989609332497E-01   6.2240113712456635E-01   6.3165941263240422E-01
   6.4072727689268794E-01   6.4958712481339087E-01   6.5822125094139006E-01
   6.6661191279306886E-01   6.7474139843718484E-01   6.8259209821943156E-01
   6.9014658047608213E-01   6.9738767103908517E-01   7.0429853628677208E-01
   7.1086276944313598E-01   7.1706447977442045E-01   7.2288838427438296E-01
   7.2831990136936930E-01   7.3334524611103724E-01   7.3795152625840776E-01
   7.4212683858200323E-01   7.4586036465118932E-01   7.4914246529182149E-01
   7.5196477282515073E-01   7.5432028012110353E-01   7.5620342542021013E-01
   7.5761017179940393E-01   7.5853808007884327E-01   7.5898637389127965E-01
   7.5895599556430482E-01   7.5844965140143294E-01   7.5747184489350639E-01
   7.5602889635102877E-01   7.5412894742520042E-01   7.5178194898583828E-01
   7.4899963085409693E-01   7.4579545195374131E-01   7.4218452955422320E-01
   7.3818354644013318E-01   7.3381063506317934E-01   7.2908523802334024E-01
   7.2402794459337783E-01   7.1866030345279519E-01   7.1300461233936907E-01
   7.0708368596172988E-01   7.0092060424530889E-01   6.9453844380175223E-01
   6.8795999640874084E-01   6.8120747924661929E-01   6.7430224263567251E-01
   6.6726448202031652E-01   6.6011296191095548E-01   6.5286476036777008E-01
   6.4553504333054179E-01   6.3813687859216484E-01   6.3068109940076755E-01
   6.2317622747067969E-01   6.1562846449816500E-01   6.0804176002930344E-01
   6.0041796163836036E-01   5.9275705078501606E-01   5.8505746439136219E-01
   5.7731649810987762E-01   5.6953078247902655E-01   5.6169681776944047E-01
   5.5381154741461225E-01   5.4587294360266847E-01   5.3788057306056547E-01
   5.2983610497830347E-01   5.2174360742620118E-01   5.1360853660919359E-01
   5.0543636355504395E-01   4.9723244326238430E-01   4.8900201596617493E-01
   4.8075020902871568E-01   4.7248203870287747E-01   4.6420241178281535E-01
   4.5591612715930524E-01   4.4762787730028575E-01   4.3934224967905688E-01
   4.3106372817324418E-01   4.2279669445743434E-01   4.1454542941146200E-01
   4.0631411456502203E-01   3.9810683359758398E-01   3.8992757391071153E-01
   3.8178022828774016E-01   3.7366859665335356E-01   3.6559638794289695E-01
   3.5756722208801522E-01   3.4958463212146734E-01   3.4165206639942847E-01
   3.3377289093413753E-01   3.2595039182336716E-01   3.1818777775550833E-01
   3.1048818256032484E-01   3.0285466776545084E-01   2.9529022510762282E-01
   2.8779777893593061E-01   2.8038018843211077E-01   2.7304024956105427E-01
   2.6578069665389920E-01   2.5860420351722746E-01   2.5151338395643918E-01
   2.4451079160017158E-01   2.3759891891708818E-01   2.3078019532793520E-01
   2.2405698433333976E-01   2.1743157960537196E-01   2.1090620002351546E-01
   2.0448298367588327E-01   1.9816398089089660E-01   1.9195114641109681E-01
   1.8584633086652672E-01   1.7985127174697313E-01   1.7396758410722410E-01
   1.6819675126492256E-01   1.6254011576429483E-01   1.5699887088025452E-01
   1.5157405292579770E-01   1.4626653460215985E-01   1.4107701959766725E-01
   1.3600603859974122E-01   1.3105394683795335E-01   1.2622092322700607E-01
   1.2150697112970589E-01   1.1691192071365189E-01   1.1243543283327620E-01
   1.0807700433237380E-01   1.0383597463207460E-01   9.9711533445755229E-02
   9.5702729445532250E-02   9.1808479694424946E-02   8.8027579653547169E-02
   8.4358713574037500E-02   8.0800465088345971E-02   7.7351327824198526E-02
   7.4009715876480725E-02   7.0773973986933067E-02   6.7642387298318174E-02
   6.4613190568286155E-02   6.1684576748046283E-02   5.8854704851710737E-02
   5.6121707063512459E-02   5.3483695051395878E-02   5.0938765476410935E-02
   4.8485004707360009E-02   4.6120492768990010E-02   4.3843306570423277E-02
   4.1651522435227184E-02   3.9543218287743147E-02   3.7516474486996451E-02
   3.5569375691553815E-02   3.3700011016357292E-02   3.1906474573148158E-02
   3.0186865732637631E-02   2.8539289279398052E-02   2.6961855537838267E-02
   2.5452680529206038E-02   2.4009886209291214E-02   2.2631600826060399E-02
   2.1315959426039376E-02   2.0061104528225862E-02   1.8865186975040971E-02
   1.7726366961501292E-02   1.6642815236577270E-02   1.5612714464699541E-02
   1.4634260730566473E-02   1.3705665166793921E-02   1.2825155681435536E-02
   1.1990978760898731E-02   1.1201401323163789E-02   1.0454712596351844E-02
   9.7492259984535215E-03   9.0832809952969846E-03   8.4552449154805011E-03
   7.8635147029212232E-03   7.3065185897744729E-03   6.7827176746869302E-03
   6.2906073935822312E-03   5.8287188723946375E-03   5.3956201533158802E-03
   4.9899172881648184E-03   4.6102552944179958E-03   4.2553189712143035E-03
   3.9238335742782775E-03   3.6145653501766903E-03   3.3263219316307826E-03
   3.0579525967658963E-03   2.8083483961783944E-03   2.5764421525597847E-03
   2.3612083383395873E-03   2.1616628373988525E-03   1.9768625973844199E-03
   1.8059051795176542E-03   1.6479282130586661E-03   1.5021087617662250E-03
   1.3676626097877771E-03   1.2438434744413969E-03   1.1299421533119750E-03
   1.0252856129893597E-03   9.2923602663499646E-04   8.4118976737699376E-04
   7.6057636431475513E-04   6.8685742766346608E-04   6.1952554929327363E-04
       </PP_GIPAW_WFS_PS>
     </PP_GIPAW_ORBITAL.3>
     <PP_GIPAW_ORBITAL.4 index="4" label="6S" l="0" cutoff_radius="  2.35088378331419" ultrasoft_cutoff_radius="  2.35088378331419">
       <PP_GIPAW_WFS_AE size="1164">
   0.0000000000000000E+00  -3.2450568385351483E-04  -3.2793774893820961E-04
  -3.3140603690896982E-04  -3.3491092645809899E-04  -3.3845280280270327E-04
  -3.4203205601370532E-04  -3.4564908027264932E-04  -3.4930427389536059E-04
  -3.5299803937494421E-04  -3.5673078342522929E-04  -3.6050291702465214E-04
  -3.6431485546058678E-04  -3.6816701837412397E-04  -3.7205982980530416E-04
  -3.7599371823881118E-04  -3.7996911665012551E-04  -3.8398646255214882E-04
  -3.8804619804229737E-04  -3.9214876985007257E-04  -3.9629462938511428E-04
  -4.0048423278573529E-04  -4.0471804096795254E-04  -4.0899651967500568E-04
  -4.1332013952738119E-04  -4.1768937607333665E-04  -4.2210470983993571E-04
  -4.2656662638459737E-04  -4.3107561634716173E-04  -4.3563217550248129E-04
  -4.4023680481353921E-04  -4.4489001048510175E-04  -4.4959230401790749E-04
  -4.5434420226340288E-04  -4.5914622747902153E-04  -4.6399890738402179E-04
  -4.6890277521587889E-04  -4.7385836978724419E-04  -4.7886623554347063E-04
  -4.8392692262071233E-04  -4.8904098690460724E-04  -4.9420899008954084E-04
  -4.9943149973849976E-04  -5.0470908934352433E-04  -5.1004233838675963E-04
  -5.1543183240211209E-04  -5.2087816303752002E-04  -5.2638192811784129E-04
  -5.3194373170836263E-04  -5.3756418417893906E-04  -5.4324390226876578E-04
  -5.4898350915179284E-04  -5.5478363450278245E-04  -5.6064491456402012E-04
  -5.6656799221268042E-04  -5.7255351702885902E-04  -5.7860214536427075E-04
  -5.8471454041162448E-04  -5.9089137227467644E-04  -5.9713331803897310E-04
  -6.0344106184328475E-04  -6.0981529495173848E-04  -6.1625671582665428E-04
  -6.2276603020209611E-04  -6.2934395115813574E-04  -6.3599119919584214E-04
  -6.4270850231299781E-04  -6.4949659608055476E-04  -6.5635622371982899E-04
  -6.6328813618044327E-04  -6.7029309221902785E-04  -6.7737185847867526E-04
  -6.8452520956917046E-04  -6.9175392814798862E-04  -6.9905880500207489E-04
  -7.0644063913041040E-04  -7.1390023782737255E-04  -7.2143841676689305E-04
  -7.2905600008742264E-04  -7.3675382047770730E-04  -7.4453271926338757E-04
  -7.5239354649441858E-04  -7.6033716103332408E-04  -7.6836443064429237E-04
  -7.7647623208311478E-04  -7.8467345118797723E-04  -7.9295698297111134E-04
  -8.0132773171131242E-04  -8.0978661104732716E-04  -8.1833454407212382E-04
  -8.2697246342804749E-04  -8.3570131140286671E-04  -8.4452204002672185E-04
  -8.5343561116998034E-04  -8.6244299664200183E-04  -8.7154517829082778E-04
  -8.8074314810379683E-04  -8.9003790830909015E-04  -8.9943047147822397E-04
  -9.0892186062948460E-04  -9.1851310933232003E-04  -9.2820526181269238E-04
  -9.3799937305939925E-04  -9.4789650893136671E-04  -9.5789774626592729E-04
  -9.6800417298808714E-04  -9.7821688822078518E-04  -9.8853700239615733E-04
  -9.9896563736780815E-04  -1.0095039265240982E-03  -1.0201530149024569E-03
  -1.0309140593047189E-03  -1.0417882284135007E-03  -1.0527767029096234E-03
  -1.0638806755905712E-03  -1.0751013514900252E-03  -1.0864399479984434E-03
  -1.0978976949847211E-03  -1.1094758349189141E-03  -1.1211756229960632E-03
  -1.1329983272610883E-03  -1.1449452287347907E-03  -1.1570176215409498E-03
  -1.1692168130345336E-03  -1.1815441239310138E-03  -1.1940008884368176E-03
  -1.2065884543808855E-03  -1.2193081833473825E-03  -1.2321614508095302E-03
  -1.2451496462645977E-03  -1.2582741733700347E-03  -1.2715364500807654E-03
  -1.2849379087876416E-03  -1.2984799964570681E-03  -1.3121641747717979E-03
  -1.3259919202729096E-03  -1.3399647245029666E-03  -1.3540840941503706E-03
  -1.3683515511949051E-03  -1.3827686330544818E-03  -1.3973368927330989E-03
  -1.4120578989699974E-03  -1.4269332363900408E-03  -1.4419645056553175E-03
  -1.4571533236179565E-03  -1.4725013234741877E-03  -1.4880101549196217E-03
  -1.5036814843057726E-03  -1.5195169947978264E-03  -1.5355183865336504E-03
  -1.5516873767840518E-03  -1.5680257001142910E-03  -1.5845351085468507E-03
  -1.6012173717254653E-03  -1.6180742770804128E-03  -1.6351076299950715E-03
  -1.6523192539737472E-03  -1.6697109908107664E-03  -1.6872847007608507E-03
  -1.7050422627107630E-03  -1.7229855743522251E-03  -1.7411165523561277E-03
  -1.7594371325480049E-03  -1.7779492700848070E-03  -1.7966549396329424E-03
  -1.8155561355476140E-03  -1.8346548720534286E-03  -1.8539531834263023E-03
  -1.8734531241766431E-03  -1.8931567692338147E-03  -1.9130662141318981E-03
  -1.9331835751967184E-03  -1.9535109897341613E-03  -1.9740506162197690E-03
  -1.9948046344896164E-03  -2.0157752459324533E-03  -2.0369646736831319E-03
  -2.0583751628172968E-03  -2.0800089805473421E-03  -2.1018684164196290E-03
  -2.1239557825129757E-03  -2.1462734136383802E-03  -2.1688236675400127E-03
  -2.1916089250974295E-03  -2.2146315905290505E-03  -2.2378940915968436E-03
  -2.2613988798122473E-03  -2.2851484306433086E-03  -2.3091452437230243E-03
  -2.3333918430588768E-03  -2.3578907772435825E-03  -2.3826446196670010E-03
  -2.4076559687292091E-03  -2.4329274480547609E-03  -2.4584617067080756E-03
  -2.4842614194099549E-03  -2.5103292867552423E-03  -2.5366680354315697E-03
  -2.5632804184392145E-03  -2.5901692153120185E-03  -2.6173372323393790E-03
  -2.6447873027892837E-03  -2.6725222871323601E-03  -2.7005450732669350E-03
  -2.7288585767450968E-03  -2.7574657409997023E-03  -2.7863695375723390E-03
  -2.8155729663421982E-03  -2.8450790557558573E-03  -2.8748908630579187E-03
  -2.9050114745225097E-03  -2.9354440056855806E-03  -2.9661916015780100E-03
  -2.9972574369594440E-03  -3.0286447165528856E-03  -3.0603566752799719E-03
  -3.0923965784968926E-03  -3.1247677222309552E-03  -3.1574734334177210E-03
  -3.1905170701387012E-03  -3.2239020218595461E-03  -3.2576317096687140E-03
  -3.2917095865165522E-03  -3.3261391374547599E-03  -3.3609238798761785E-03
  -3.3960673637548678E-03  -3.4315731718864077E-03  -3.4674449201283785E-03
  -3.5036862576409730E-03  -3.5403008671276662E-03  -3.5772924650759015E-03
  -3.6146648019977296E-03  -3.6524216626703122E-03  -3.6905668663762868E-03
  -3.7291042671438492E-03  -3.7680377539865474E-03  -3.8073712511426778E-03
  -3.8471087183142303E-03  -3.8872541509052958E-03  -3.9278115802598547E-03
  -3.9687850738988999E-03  -4.0101787357567364E-03  -4.0519967064164544E-03
  -4.0942431633444543E-03  -4.1369223211238908E-03  -4.1800384316870278E-03
  -4.2235957845463204E-03  -4.2675987070241806E-03  -4.3120515644813296E-03
  -4.3569587605435667E-03  -4.4023247373269183E-03  -4.4481539756610153E-03
  -4.4944509953106053E-03  -4.5412203551950699E-03  -4.5884666536058121E-03
  -4.6361945284214426E-03  -4.6844086573205636E-03  -4.7331137579920760E-03
  -4.7823145883428737E-03  -4.8320159467027356E-03  -4.8822226720263324E-03
  -4.9329396440921849E-03  -4.9841717836983978E-03  -5.0359240528550734E-03
  -5.0882014549731829E-03  -5.1410090350497767E-03  -5.1943518798493850E-03
  -5.2482351180813663E-03  -5.3026639205731359E-03  -5.3576435004390023E-03
  -5.4131791132444613E-03  -5.4692760571658375E-03  -5.5259396731449145E-03
  -5.5831753450385664E-03  -5.6409884997629866E-03  -5.6993846074324698E-03
  -5.7583691814924644E-03  -5.8179477788466577E-03  -5.8781259999779361E-03
  -5.9389094890629638E-03  -6.0003039340801164E-03  -6.0623150669106216E-03
  -6.1249486634325214E-03  -6.1882105436073930E-03  -6.2521065715594000E-03
  -6.3166426556465014E-03  -6.3818247485235612E-03  -6.4476588471970289E-03
  -6.5141509930709534E-03  -6.5813072719840297E-03  -6.6491338142373882E-03
  -6.7176367946128086E-03  -6.7868224323810586E-03  -6.8566969913000687E-03
  -6.9272667796025688E-03  -6.9985381499728869E-03  -7.0705174995125625E-03
  -7.1432112696944343E-03  -7.2166259463048339E-03  -7.2907680593735005E-03
  -7.3656441830909037E-03  -7.4412609357125429E-03  -7.5176249794498082E-03
  -7.5947430203470905E-03  -7.6726218081446355E-03  -7.7512681361267535E-03
  -7.8306888409550145E-03  -7.9108908024858558E-03  -7.9918809435722774E-03
  -8.0736662298491399E-03  -8.1562536695014756E-03  -8.2396503130155122E-03
  -8.3238632529117635E-03  -8.4088996234597795E-03  -8.4947666003739528E-03
  -8.5814714004899088E-03  -8.6690212814209949E-03  -8.7574235411940950E-03
  -8.8466855178644804E-03  -8.9368145891089313E-03  -9.0278181717965821E-03
  -9.1197037215369429E-03  -9.2124787322043229E-03  -9.3061507354382494E-03
  -9.4007273001189950E-03  -9.4962160318178002E-03  -9.5926245722207631E-03
  -9.6899605985261376E-03  -9.7882318228140076E-03  -9.8874459913877027E-03
  -9.9876108840863086E-03  -1.0088734313567339E-02  -1.0190824124559022E-02
  -1.0293888193081163E-02  -1.0397934425634026E-02  -1.0502970758354250E-02
  -1.0609005156136959E-02  -1.0716045611723329E-02  -1.0824100144752663E-02
  -1.0933176800778002E-02  -1.1043283650244576E-02  -1.1154428787429890E-02
  -1.1266620329344735E-02  -1.1379866414594058E-02  -1.1494175202196592E-02
  -1.1609554870362557E-02  -1.1726013615227944E-02  -1.1843559649544729E-02
  -1.1962201201325859E-02  -1.2081946512443650E-02  -1.2202803837180943E-02
  -1.2324781440733389E-02  -1.2447887597662133E-02  -1.2572130590295404E-02
  -1.2697518707078017E-02  -1.2824060240867486E-02  -1.2951763487175343E-02
  -1.3080636742352700E-02  -1.3210688301718558E-02  -1.3341926457629438E-02
  -1.3474359497489319E-02  -1.3607995701698130E-02  -1.3742843341537697E-02
  -1.3878910676993525E-02  -1.4016205954511075E-02  -1.4154737404685055E-02
  -1.4294513239880078E-02  -1.4435541651781375E-02  -1.4577830808873869E-02
  -1.4721388853847987E-02  -1.4866223900930816E-02  -1.5012344033140565E-02
  -1.5159757299463136E-02  -1.5308471711948742E-02  -1.5458495242726975E-02
  -1.5609835820938670E-02  -1.5762501329582485E-02  -1.5916499602274758E-02
  -1.6071838419920478E-02  -1.6228525507293628E-02  -1.6386568529525098E-02
  -1.6545975088495882E-02  -1.6706752719134077E-02  -1.6868908885613269E-02
  -1.7032450977450399E-02  -1.7197386305501251E-02  -1.7363722097851128E-02
  -1.7531465495598815E-02  -1.7700623548531646E-02  -1.7871203210689378E-02
  -1.8043211335814820E-02  -1.8216654672688810E-02  -1.8391539860347281E-02
  -1.8567873423178193E-02  -1.8745661765895941E-02  -1.8924911168390717E-02
  -1.9105627780450791E-02  -1.9287817616354626E-02  -1.9471486549331143E-02
  -1.9656640305884907E-02  -1.9843284459984244E-02  -2.0031424427109430E-02
  -2.0221065458158240E-02  -2.0412212633206771E-02  -2.0604870855122082E-02
  -2.0799044843024792E-02  -2.0994739125598322E-02  -2.1191958034242175E-02
  -2.1390705696066770E-02  -2.1590986026726596E-02  -2.1792802723089200E-02
  -2.1996159255737013E-02  -2.2201058861299014E-02  -2.2407504534609629E-02
  -2.2615499020691768E-02  -2.2825044806560876E-02  -2.3036144112847549E-02
  -2.3248798885234959E-02  -2.3463010785708865E-02  -2.3678781183616656E-02
  -2.3896111146532534E-02  -2.4115001430925986E-02  -2.4335452472629932E-02
  -2.4557464377106184E-02  -2.4781036909504433E-02  -2.5006169484512210E-02
  -2.5232861155992280E-02  -2.5461110606404668E-02  -2.5690916136009934E-02
  -2.5922275651850860E-02  -2.6155186656509132E-02  -2.6389646236634125E-02
  -2.6625651051240509E-02  -2.6863197319771753E-02  -2.7102280809926254E-02
  -2.7342896825243101E-02  -2.7585040192444586E-02  -2.7828705248531860E-02
  -2.8073885827631567E-02  -2.8320575247589609E-02  -2.8568766296309746E-02
  -2.8818451217833843E-02  -2.9069621698160578E-02  -2.9322268850800484E-02
  -2.9576383202063846E-02  -2.9831954676079096E-02  -3.0088972579539013E-02
  -3.0347425586171747E-02  -3.0607301720934614E-02  -3.0868588343927913E-02
  -3.1131272134026278E-02  -3.1395339072225449E-02  -3.1660774424702033E-02
  -3.1927562725584363E-02  -3.2195687759432212E-02  -3.2465132543423370E-02
  -3.2735879309245680E-02  -3.3007909484692316E-02  -3.3281203674959035E-02
  -3.3555741643642140E-02  -3.3831502293435470E-02  -3.4108463646525859E-02
  -3.4386602824685218E-02  -3.4665896029059610E-02  -3.4946318519653859E-02
  -3.5227844594511545E-02  -3.5510447568590467E-02  -3.5794099752332977E-02
  -3.6078772429931988E-02  -3.6364435837293020E-02  -3.6651059139692597E-02
  -3.6938610409134612E-02  -3.7227056601405212E-02  -3.7516363532828348E-02
  -3.7806495856723507E-02  -3.8097417039567663E-02  -3.8389089336864232E-02
  -3.8681473768721462E-02  -3.8974530095143657E-02  -3.9268216791038736E-02
  -3.9562491020945778E-02  -3.9857308613487456E-02  -4.0152624035550991E-02
  -4.0448390366204068E-02  -4.0744559270350374E-02  -4.1041080972131189E-02
  -4.1337904228079723E-02  -4.1634976300034751E-02  -4.1932242927821717E-02
  -4.2229648301709374E-02  -4.2527135034649916E-02  -4.2824644134313319E-02
  -4.3122114974924214E-02  -4.3419485268913038E-02  -4.3716691038392132E-02
  -4.4013666586468728E-02  -4.4310344468407530E-02  -4.4606655462655950E-02
  -4.4902528541746513E-02  -4.5197890843090796E-02  -4.5492667639680989E-02
  -4.5786782310715202E-02  -4.6080156312164160E-02  -4.6372709147297367E-02
  -4.6664358337188079E-02  -4.6955019391216886E-02  -4.7244605777595636E-02
  -4.7533028893932738E-02  -4.7820198037864310E-02  -4.8106020377774193E-02
  -4.8390400923629034E-02  -4.8673242497954475E-02  -4.8954445706979911E-02
  -4.9233908911981282E-02  -4.9511528200851473E-02  -4.9787197359929543E-02
  -5.0060807846122199E-02  -5.0332248759350523E-02  -5.0601406815358220E-02
  -5.0868166318917794E-02  -5.1132409137472655E-02  -5.1394014675255666E-02
  -5.1652859847924525E-02  -5.1908819057757530E-02  -5.2161764169454033E-02
  -5.2411564486585224E-02  -5.2658086728743905E-02  -5.2901195009441758E-02
  -5.3140750814806390E-02  -5.3376612983130373E-02  -5.3608637685327691E-02
  -5.3836678406354609E-02  -5.4060585927652477E-02  -5.4280208310674906E-02
  -5.4495390881560614E-02  -5.4705976217016818E-02  -5.4911804131480856E-02
  -5.5112711665627444E-02  -5.5308533076293812E-02  -5.5499099827895255E-02
  -5.5684240585406573E-02  -5.5863781208987093E-02  -5.6037544750329099E-02
  -5.6205351450811881E-02  -5.6367018741545989E-02  -5.6522361245394490E-02
  -5.6671190781060587E-02  -5.6813316369333074E-02  -5.6948544241584111E-02
  -5.7076677850615765E-02  -5.7197517883954059E-02  -5.7310862279692551E-02
  -5.7416506244989250E-02  -5.7514242277323324E-02  -5.7603860188621167E-02
  -5.7685147132362675E-02  -5.7757887633782708E-02  -5.7821863623283627E-02
  -5.7876854473178897E-02  -5.7922637037888587E-02  -5.7958985697711747E-02
  -5.7985672406301793E-02  -5.8002466741974040E-02  -5.8009135962977396E-02
  -5.8005445066863344E-02  -5.7991156854089239E-02  -5.7966031995993678E-02
  -5.7929829107285474E-02  -5.7882304823188499E-02  -5.7823213881387954E-02
  -5.7752309208924789E-02  -5.7669342014187559E-02  -5.7574061884152275E-02
  -5.7466216887023268E-02  -5.7345553680429047E-02  -5.7211817625328988E-02
  -5.7064752905788003E-02  -5.6904102654778049E-02  -5.6729609086165179E-02
  -5.6541013633043306E-02  -5.6338057092575902E-02  -5.6120479777506622E-02
  -5.5888021674502339E-02  -5.5640422609490002E-02  -5.5377422420149557E-02
  -5.5098761135725809E-02  -5.4804179164319650E-02  -5.4493417487820085E-02
  -5.4166217864636046E-02  -5.3822323040386283E-02  -5.3461476966703815E-02
  -5.3083425028309039E-02  -5.2687914278503778E-02  -5.2274693683234771E-02
  -5.1843514373873412E-02  -5.1394129908853128E-02  -5.0926296544303584E-02
  -5.0439773513815428E-02  -4.9934323317464079E-02  -4.9409712020216816E-02
  -4.8865709559840508E-02  -4.8302090064421120E-02  -4.7718632179599568E-02
  -4.7115119405620062E-02  -4.6491340444280028E-02  -4.5847089555860504E-02
  -4.5182166926108165E-02  -4.4496379043328448E-02  -4.3789539085639310E-02
  -4.3061467318423460E-02  -4.2311991502004744E-02  -4.1540947309560906E-02
  -4.0748178755272257E-02  -3.9933538632689239E-02  -3.9096888963288647E-02
  -3.8238101455170571E-02  -3.7357057971830220E-02  -3.6453651010924099E-02
  -3.5527784192925453E-02  -3.4579372759550010E-02  -3.3608344081806629E-02
  -3.2614638177509411E-02  -3.1598208238063322E-02  -3.0559021164310123E-02
  -2.9497058111199397E-02  -2.8412315041019792E-02  -2.7304803284901556E-02
  -2.6174550112271201E-02  -2.5021599307909179E-02  -2.3846011756234558E-02
  -2.2647866032403669E-02  -2.1427258999782071E-02  -2.0184306413313709E-02
  -1.8919143528273757E-02  -1.7631925713861296E-02  -1.6322829071046419E-02
  -1.4992051054050349E-02  -1.3639811094801019E-02  -1.2266351229661257E-02
  -1.0871936727693984E-02  -9.4568567196800409E-03  -8.0214248270685431E-03
  -6.5659797899950793E-03  -5.0908860934546114E-03  -3.5965345906841645E-03
  -2.0833431227521636E-03  -5.5175713331051491E-04   9.9774972257177220E-04
   2.5646749766426702E-03   4.1484867539430328E-03   5.7486231887644715E-03
   7.3644918513795926E-03   8.9954691868727645E-03   1.0640899967476823E-02
   1.2300096759856615E-02   1.3972339408847276E-02   1.5656874539222730E-02
   1.7352915077110037E-02   1.9059639792754692E-02   2.0776192866387468E-02
   2.2501683479016800E-02   2.4235185430044881E-02   2.5975736783656229E-02
   2.7722339546013289E-02   2.9473959375348982E-02   3.1229525327111176E-02
   3.2987929636386512E-02   3.4748027539877803E-02   3.6508637139779157E-02
   3.8268539311936141E-02   4.0026477660737109E-02   4.1781158523220445E-02
   4.3531251024926179E-02   4.5275387190056929E-02   4.7012162108545266E-02
   4.8740134162646123E-02   5.0457825315701886E-02   5.2163721465732650E-02
   5.3856272866523294E-02   5.5533894618869394E-02   5.7194967234649764E-02
   5.8837837276374358E-02   6.0460818074834763E-02   6.2062190527470300E-02
   6.3640203980008095E-02   6.5193077193915552E-02   6.6718999402147067E-02
   6.8216131455610174E-02   6.9682607062736365E-02   7.1116534124455177E-02
   7.2515996166821792E-02   7.3879053873466258E-02   7.5203746719943329E-02
   7.6488094711991028E-02   7.7730100229587262E-02   7.8927749978600831E-02
   8.0079017051713955E-02   8.1181863100151311E-02   8.2234240617629073E-02
   8.3234095337765726E-02   8.4179368746039818E-02   8.5068000707202343E-02
   8.5897932208846811E-02   8.6667108221650455E-02   8.7373480676568138E-02
   8.8015011559032297E-02   8.8589676119969138E-02   8.9095466203171478E-02
   8.9530393688303136E-02   8.9892494048514279E-02   9.0179830021343624E-02
   9.0390495391267603E-02   9.0522618881917191E-02   9.0574368155638199E-02
   9.0543953917704631E-02   9.0429634122114452E-02   9.0229718275504509E-02
   8.9942571835310056E-02   8.9566620697870844E-02   8.9100355771749004E-02
   8.8542337631068613E-02   8.7891201243223652E-02   8.7145660764822885E-02
   8.6304514399245399E-02   8.5366649308685941E-02   8.4331046573048463E-02
   8.3196786187530028E-02   8.1963052090206517E-02   8.0629137210388335E-02
   7.9194448527981964E-02   7.7658512133535446E-02   7.6020978278102253E-02
   7.4281626401508899E-02   7.2440370127055106E-02   7.0497262210143671E-02
   6.8452499427784030E-02   6.6306427395387627E-02   6.4059545296761569E-02
   6.1712510512680202E-02   5.9266143132946342E-02   5.6721430336368998E-02
   5.4079530622630087E-02   5.1341777879615046E-02   4.8509685269351260E-02
   4.5584948915368580E-02   4.2569451373957345E-02   3.9465264871497673E-02
   3.6274654289830933E-02   3.3000079881403688E-02   2.9644199695804889E-02
   2.6209871699221753E-02   2.2700155568298713E-02   1.9118314139951003E-02
   1.5467814498763862E-02   1.1752328683793323E-02   7.9757339968491384E-03
   4.1421128946264986E-03   2.5575244748301683E-04  -3.6788566519122038E-03
  -7.6570215463042232E-03  -1.1673849153620533E-02  -1.5724248603864809E-02
  -1.9802934187561485E-02  -2.3904428829549022E-02  -2.8023068101268086E-02
  -3.2153004784069038E-02  -3.6288213995469935E-02  -4.0422498889731678E-02
  -4.4549496943596154E-02  -4.8662686837544704E-02  -5.2755395942491901E-02
  -5.6820808421332560E-02  -6.0851973954301412E-02  -6.4841817096467802E-02
  -6.8783147274878456E-02  -7.2668669431763130E-02  -7.6490995318582167E-02
  -8.0242655443553759E-02  -8.3916111672413557E-02  -8.7503770478573939E-02
  -9.0997996834712255E-02  -9.4391128733229274E-02  -9.7675492318412563E-02
  -1.0084341760883576E-01  -1.0388725478475658E-01  -1.0679939101240871E-01
  -1.0957226777493827E-01  -1.1219839867835513E-01  -1.1467038769990770E-01
  -1.1698094784543606E-01  -1.1912292018131662E-01  -1.2108929320525705E-01
  -1.2287322251842599E-01  -1.2446805075914916E-01  -1.2586732775573886E-01
  -1.2706483085311354E-01  -1.2805458536481384E-01  -1.2883088509899235E-01
  -1.2938831290407835E-01  -1.2972176117716280E-01  -1.2982645227578726E-01
  -1.2969795877176279E-01  -1.2933222348388021E-01  -1.2872557922488065E-01
  -1.2787476819678378E-01  -1.2677696096759197E-01  -1.2542977496145563E-01
  -1.2383129239356756E-01  -1.2198007758034657E-01  -1.1987519355485181E-01
  -1.1751621791684271E-01  -1.1490325784650016E-01  -1.1203696421051587E-01
  -1.0891854468912966E-01  -1.0554977585272257E-01  -1.0193301411678012E-01
  -9.8071205504527248E-02  -9.3967894147210088E-02  -8.9627229453012353E-02
  -8.5053971876916851E-02  -8.0253497225433568E-02  -7.5231799432217111E-02
  -6.9995491742977242E-02  -6.4551806250981059E-02  -5.8908591727813667E-02
  -5.3074309697805591E-02  -4.7058028708942025E-02  -4.0869416757845778E-02
  -3.4518731831777824E-02  -2.8016810536550960E-02  -2.1375054785558189E-02
  -1.4605416532137937E-02  -7.7203805348929110E-03  -7.3294515352833288E-04
   6.3433988186795765E-03   1.3494691270692458E-02   2.0706527813017097E-02
   2.7964086705415767E-02   3.5252157626940436E-02   4.2555172230282365E-02
   4.9857236409895873E-02   5.7142164199980437E-02   6.4393513204668476E-02
   7.1594621449166410E-02   7.8728645527834817E-02   8.5778599914695150E-02
   9.2727397294976741E-02   9.9557889775179875E-02   1.0625291083579888E-01
   1.1279531790755322E-01   1.1916803548059113E-01   1.2535409869725914E-01
   1.3133669743100790E-01   1.3709922091064741E-01   1.4262530299845530E-01
   1.4789886825409765E-01   1.5290417889254668E-01   1.5762588265717278E-01
   1.6204906147963932E-01   1.6615928061196394E-01   1.6994263774143423E-01
   1.7338581148934767E-01   1.7647610868440136E-01   1.7920150988927966E-01
   1.8155071280908561E-01   1.8351317337204540E-01   1.8507914440369971E-01
   1.8623971189497596E-01   1.8698682889335386E-01   1.8731334703938846E-01
   1.8721304574565231E-01   1.8668065898545103E-01   1.8571189963252646E-01
   1.8430348127353460E-01   1.8245313740280636E-01   1.8015963790302925E-01
   1.7742280271531827E-01   1.7424351260706702E-01   1.7062371695556747E-01
   1.6656643847919830E-01   1.6207577486515279E-01   1.5715689726236229E-01
   1.5181604562924328E-01   1.4606052094701033E-01   1.3989867432969066E-01
   1.3333989308063857E-01   1.2639458376203211E-01   1.1907415235811851E-01
   1.1139098162487464E-01   1.0335840572848595E-01   9.4990682282655378E-02
   8.6302961900695002E-02   7.7311255382764399E-02   6.8032398661811544E-02
   5.8484015634018241E-02   4.8684479000959291E-02   3.8652869251542307E-02
   2.8408931912198128E-02   1.7973033193831423E-02   7.3661141639724866E-03
  -3.3903564277020610E-03  -1.4274430542498179E-02  -2.5263730336714297E-02
  -3.6335498608805895E-02  -4.7466650081848569E-02  -5.8633823393196088E-02
  -6.9813433662622132E-02  -8.0981725509597188E-02  -9.2114826389389171E-02
  -1.0318880011656714E-01  -1.1417970044342889E-01  -1.2506362455949943E-01
  -1.3581676637723072E-01  -1.4641546946793751E-01  -1.5683627951120094E-01
  -1.6705599612063182E-01  -1.7705172390879542E-01  -1.8680092265480189E-01
  -1.9628145643936798E-01  -2.0547164161419074E-01  -2.1435029347571338E-01
  -2.2289677151738646E-01  -2.3109102314001184E-01  -2.3891362570656757E-01
  -2.4634582683611925E-01  -2.5336958284154049E-01  -2.5996759522738200E-01
  -2.6612334517771891E-01  -2.7182112597896269E-01  -2.7704607333895875E-01
  -2.8178419358106410E-01  -2.8602238970923444E-01  -2.8974848535666903E-01
  -2.9295124664510697E-01  -2.9562040199307427E-01  -2.9774665991826033E-01
  -2.9932172488066378E-01  -3.0033831120877924E-01  -3.0079015514099444E-01
  -3.0067202499925894E-01  -2.9997972949348167E-01  -2.9871012413497477E-01
  -2.9686111571787882E-01  -2.9443166481116073E-01  -2.9142178619239284E-01
  -2.8783254714941026E-01  -2.8366606357764812E-01  -2.7892549380915993E-01
  -2.7361503012307115E-01  -2.6773988790501829E-01  -2.6130629244329451E-01
  -2.5432146337029637E-01  -2.4679359677800328E-01  -2.3873184505463729E-01
  -2.3014629450564292E-01  -2.2104794083545781E-01  -2.1144866257736100E-01
  -2.0136119256707469E-01  -1.9079908756234032E-01  -1.7977669611570457E-01
  -1.6830912481151539E-01  -1.5641220298123068E-01  -1.4410244601348834E-01
  -1.3139701737731074E-01  -1.1831368947852208E-01  -1.0487080347053276E-01
  -9.1087228141736212E-02  -7.6982318002245642E-02  -6.2575870692922933E-02
  -4.7888083839643776E-02  -3.2939511475099936E-02  -1.7751020149773571E-02
  -2.3437448525832089E-03   1.3260955139743770E-02   2.9041540366907679E-02
   4.4976335127105263E-02   6.1043571142894985E-02   7.7221430838696911E-02
   9.3488090119836373E-02   1.0982176054484445E-01   1.2620073078484925E-01
   1.4260340726588822E-01   1.5900835389199280E-01   1.7539433074923771E-01
   1.9174033169314450E-01   2.0802562072450809E-01   2.2422976706151154E-01
   2.4033267881917295E-01   2.5631463521086456E-01   2.7215631719056216E-01
   2.8783883645934788E-01   3.0334376276469199E-01   3.1865314942696921E-01
   3.3374955703422909E-01   3.4861607525349175E-01   3.6323634271491334E-01
   3.7759456493409294E-01   3.9167553024774143E-01   4.0546462374885678E-01
   4.1894783921969331E-01   4.3211178907432113E-01   4.4494371233729141E-01
   4.5743148070131973E-01   4.6956360272440484E-01   4.8132922624565522E-01
   4.9271813911874646E-01   5.0372076838167268E-01   5.1432817800086383E-01
   5.2453206534538477E-01   5.3432475656192036E-01   5.4369920103237834E-01
   5.5264896510170469E-01   5.6116822526333954E-01   5.6925176098263819E-01
   5.7689494732442070E-01   5.8409374753008092E-01   5.9084470566306857E-01
   5.9714493941064561E-01   6.0299213309653055E-01   6.0838453092523392E-01
   6.1332093044703262E-01   6.1780067620417400E-01   6.2182365349605206E-01
   6.2539028218416060E-01   6.2850151044776181E-01   6.3115880839774119E-01
   6.3336416145866836E-01   6.3512006343662442E-01   6.3642950920167640E-01
   6.3729598692764444E-01   6.3772346984684236E-01   6.3771640749266911E-01
   6.3727971641741865E-01   6.3641877038586581E-01   6.3513939005670172E-01
   6.3344783217351963E-01   6.3135077829488195E-01   6.2885532309906578E-01
   6.2596896230362542E-01   6.2269958024317218E-01   6.1905543715089995E-01
   6.1504515619062727E-01   6.1067771028658357E-01   6.0596240879788443E-01
   6.0090888408364207E-01   5.9552707800279892E-01   5.8982722839000290E-01
   5.8381985554476890E-01   5.7751574876571321E-01   5.7092595295433246E-01
   5.6406175530331182E-01   5.5693467207246627E-01   5.4955643544062593E-01
   5.4193898040406974E-01   5.3409443167132287E-01   5.2603509048028874E-01
   5.1777342123749637E-01   5.0932203785105779E-01   5.0069368960026694E-01
   4.9190124635714461E-01   4.8295768295055969E-01   4.7387606244473263E-01
   4.6466951809314999E-01   4.5535123372553971E-01   4.4593442236973846E-01
   4.3643230286528933E-01   4.2685807437774714E-01   4.1722488871096447E-01
   4.0754582042924831E-01   3.9783383489193436E-01   3.8810175440761358E-01
   3.7836222282253101E-01   3.6862766896059018E-01   3.5891026942376519E-01
   3.4922191133527208E-01   3.3957415565762128E-01   3.2997820174047554E-01
   3.2044485374711529E-01   3.1098448957390307E-01   3.0160703281715445E-01
   2.9232192826022152E-01   2.8313812125598620E-01   2.7406404127205541E-01
   2.6510758975377741E-01   2.5627613234915503E-01   2.4757649543450241E-01
   2.3901496678396361E-01   2.3059730014234123E-01   2.2232872339077916E-01
   2.1421394993930185E-01   2.0625719293906661E-01   1.9846218187997655E-01
   1.9083218112488176E-01   1.8337000992916366E-01   1.7607806350259214E-01
   1.6895833468785110E-01   1.6201243585600641E-01   1.5524162065205768E-01
   1.4864680526278842E-01   1.4222858892317247E-01   1.3598727342546799E-01
   1.2992288144590455E-01   1.2403517355593764E-01   1.1832366383734993E-01
   1.1278763407151966E-01   1.0742614652203969E-01   1.0223805537801557E-01
   9.7222016871564912E-02   9.2376498865849477E-02   8.7699787531978324E-02
   8.3189996657551085E-02   7.8845073169989149E-02   7.4662803744303105E-02
   7.0640820933494219E-02   6.6776609207338258E-02   6.3067511069007473E-02
   5.9510733375791394E-02   5.6103353965494047E-02   5.2842328664640503E-02
   4.9724498729031889E-02   4.6746598742387804E-02   4.3905264975814248E-02
   4.1197044190172366E-02   3.8618402845556121E-02   3.6165736667318593E-02
   3.3835380506412396E-02   3.1623618423258670E-02   2.9526693918706562E-02
   2.7540820232670644E-02   2.5662190630433023E-02   2.3886988598030651E-02
   2.2211397871290534E-02   2.0631612227585954E-02   1.9143844974945763E-02
   1.7744338079483706E-02   1.6429370878945082E-02   1.5195268337294744E-02
   1.4038408802473952E-02   1.2955231236600905E-02   1.1942241894838855E-02
   1.0996020435797674E-02   1.0113225452624211E-02   9.2905994197713462E-03
   8.5249730558249730E-03   7.8132691076623836E-03   7.1525055656044712E-03
   6.5397983231365994E-03   5.9723632981757181E-03   5.4475180358082463E-03
   4.9626828149141799E-03   4.5153812831473465E-03   4.1032406464072621E-03
   3.7239914402141354E-03   3.3754669113329069E-03   3.0556020386095280E-03
   2.7624322222981681E-03   2.4940916712196809E-03   2.2488115169073618E-03
   2.0249176835009726E-03   1.8208285415708600E-03   1.6350523733025691E-03
   1.4661846755855824E-03   1.3129053265370093E-03   1.1739756398763076E-03
       </PP_GIPAW_WFS_AE>
       <PP_GIPAW_WFS_PS size="1164">
   0.0000000000000000E+00  -4.0326414934075658E-06  -4.0833658790157711E-06
  -4.1347282988508695E-06  -4.1867367783947558E-06  -4.2393994440781453E-06
  -4.2927245245496905E-06  -4.3467203519616925E-06  -4.4013953632720332E-06
  -4.4567581015624610E-06  -4.5128172173734580E-06  -4.5695814700559137E-06
  -4.6270597291397884E-06  -4.6852609757199978E-06  -4.7441943038597152E-06
  -4.8038689220113557E-06  -4.8642941544554013E-06  -4.9254794427573451E-06
  -4.9874343472429622E-06  -5.0501685484920992E-06  -5.1136918488513383E-06
  -5.1780141739655708E-06  -5.2431455743289573E-06  -5.3090962268552960E-06
  -5.3758764364682078E-06  -5.4434966377112900E-06  -5.5119673963785481E-06
  -5.5812994111653102E-06  -5.6515035153399263E-06  -5.7225906784364840E-06
  -5.7945720079688305E-06  -5.8674587511661270E-06  -5.9412622967302701E-06
  -6.0159941766153827E-06  -6.0916660678297216E-06  -6.1682897942602194E-06
  -6.2458773285199992E-06  -6.3244407938191114E-06  -6.4039924658588280E-06
  -6.4845447747497228E-06  -6.5661103069539137E-06  -6.6487018072517321E-06
  -6.7323321807330970E-06  -6.8170144948139779E-06  -6.9027619812782099E-06
  -6.9895880383449719E-06  -7.0775062327622883E-06  -7.1665303019268756E-06
  -7.2566741560306170E-06  -7.3479518802340798E-06  -7.4403777368673360E-06
  -7.5339661676584842E-06  -7.6287317959901863E-06  -7.7246894291846324E-06
  -7.8218540608171871E-06  -7.9202408730591766E-06  -8.0198652390501247E-06
  -8.1207427252998538E-06  -8.2228890941207752E-06  -8.3263203060907697E-06
  -8.4310525225470765E-06  -8.5371021081115386E-06  -8.6444856332475901E-06
  -8.7532198768494402E-06  -8.8633218288638020E-06  -8.9748086929446025E-06
  -9.0876978891411111E-06  -9.2020070566198142E-06  -9.3177540564206189E-06
  -9.4349569742476431E-06  -9.5536341232951636E-06  -9.6738040471090669E-06
  -9.7954855224843557E-06  -9.9186975623990032E-06  -1.0043459418984826E-05
  -1.0169790586535640E-05  -1.0297710804553278E-05  -1.0427240060831950E-05
  -1.0558398594581347E-05  -1.0691206899589104E-05  -1.0825685727422931E-05
  -1.0961856090673150E-05  -1.1099739266235914E-05  -1.1239356798637787E-05
  -1.1380730503402107E-05  -1.1523882470457702E-05  -1.1668835067590519E-05
  -1.1815610943938602E-05  -1.1964233033531056E-05  -1.2114724558871571E-05
  -1.2267109034566980E-05  -1.2421410271001427E-05  -1.2577652378056834E-05
  -1.2735859768880099E-05  -1.2896057163697673E-05  -1.3058269593678208E-05
  -1.3222522404843664E-05  -1.3388841262029710E-05  -1.3557252152895908E-05
  -1.3727781391986311E-05  -1.3900455624841208E-05  -1.4075301832160494E-05
  -1.4252347334019477E-05  -1.4431619794137736E-05  -1.4613147224201562E-05
  -1.4796957988240886E-05  -1.4983080807061206E-05  -1.5171544762731277E-05
  -1.5362379303127216E-05  -1.5555614246533837E-05  -1.5751279786303770E-05
  -1.5949406495575281E-05  -1.6150025332049334E-05  -1.6353167642826844E-05
  -1.6558865169306693E-05  -1.6767150052145392E-05  -1.6978054836279153E-05
  -1.7191612476009043E-05  -1.7407856340150210E-05  -1.7626820217245804E-05
  -1.7848538320846523E-05  -1.8073045294856534E-05  -1.8300376218946649E-05
  -1.8530566614035588E-05  -1.8763652447840234E-05  -1.8999670140495635E-05
  -1.9238656570245689E-05  -1.9480649079205524E-05  -1.9725685479196163E-05
  -1.9973804057652836E-05  -2.0225043583607352E-05  -2.0479443313745923E-05
  -2.0737042998543004E-05  -2.0997882888472498E-05  -2.1262003740296857E-05
  -2.1529446823435534E-05  -2.1800253926413297E-05  -2.2074467363389826E-05
  -2.2352129980771360E-05  -2.2633285163905576E-05  -2.2917976843860620E-05
  -2.3206249504289382E-05  -2.3498148188380181E-05  -2.3793718505894902E-05
  -2.4093006640295516E-05  -2.4396059355960439E-05  -2.4702924005491487E-05
  -2.5013648537112813E-05  -2.5328281502162989E-05  -2.5646872062681177E-05
  -2.5969469999088807E-05  -2.6296125717967880E-05  -2.6626890259937064E-05
  -2.6961815307626979E-05  -2.7300953193755598E-05  -2.7644356909305416E-05
  -2.7992080111803380E-05  -2.8344177133704922E-05  -2.8700702990883601E-05
  -2.9061713391227404E-05  -2.9427264743343226E-05  -2.9797414165370801E-05
  -3.0172219493907508E-05  -3.0551739293045516E-05  -3.0936032863522501E-05
  -3.1325160251987504E-05  -3.1719182260383285E-05  -3.2118160455446903E-05
  -3.2522157178329466E-05  -3.2931235554337111E-05  -3.3345459502794525E-05
  -3.3764893747032353E-05  -3.4189603824500499E-05  -3.4619656097008247E-05
  -3.5055117761093698E-05  -3.5496056858523092E-05  -3.5942542286922706E-05
  -3.6394643810544072E-05  -3.6852432071164856E-05  -3.7315978599126712E-05
  -3.7785355824512099E-05  -3.8260637088461599E-05  -3.8741896654633667E-05
  -3.9229209720808272E-05  -3.9722652430636965E-05  -4.0222301885540256E-05
  -4.0728236156754959E-05  -4.1240534297533027E-05  -4.1759276355493636E-05
  -4.2284543385130732E-05  -4.2816417460478253E-05  -4.3354981687934148E-05
  -4.3900320219245749E-05  -4.4452518264658932E-05  -4.5011662106232268E-05
  -4.5577839111318685E-05  -4.6151137746216871E-05  -4.6731647589994281E-05
  -4.7319459348484006E-05  -4.7914664868457716E-05  -4.8517357151976975E-05
  -4.9127630370924925E-05  -4.9745579881720772E-05  -5.0371302240219454E-05
  -5.1004895216798703E-05  -5.1646457811635776E-05  -5.2296090270176488E-05
  -5.2953894098798700E-05  -5.3619972080672809E-05  -5.4294428291821956E-05
  -5.4977368117384020E-05  -5.5668898268078148E-05  -5.6369126796878690E-05
  -5.7078163115898384E-05  -5.7796118013484537E-05  -5.8523103671529717E-05
  -5.9259233683000342E-05  -6.0004623069685747E-05  -6.0759388300170770E-05
  -6.1523647308033970E-05  -6.2297519510274944E-05  -6.3081125825973570E-05
  -6.3874588695183793E-05  -6.4678032098064935E-05  -6.5491581574254047E-05
  -6.6315364242481518E-05  -6.7149508820433721E-05  -6.7994145644865132E-05
  -6.8849406691963964E-05  -6.9715425597973617E-05  -7.0592337680073198E-05
  -7.1480279957521697E-05  -7.2379391173066899E-05  -7.3289811814624255E-05
  -7.4211684137228800E-05  -7.5145152185262086E-05  -7.6090361814959935E-05
  -7.7047460717202205E-05  -7.8016598440590058E-05  -7.8997926414813084E-05
  -7.9991597974310368E-05  -8.0997768382229369E-05  -8.2016594854685606E-05
  -8.3048236585328580E-05  -8.4092854770215472E-05  -8.5150612632998635E-05
  -8.6221675450429123E-05  -8.7306210578181907E-05  -8.8404387477005088E-05
  -8.9516377739198456E-05  -9.0642355115425175E-05  -9.1782495541860458E-05
  -9.2936977167681643E-05  -9.4105980382904749E-05  -9.5289687846570055E-05
  -9.6488284515283486E-05  -9.7701957672115659E-05  -9.8930896955865433E-05
  -1.0017529439069139E-04  -1.0143534441611549E-04  -1.0271124391740472E-04
  -1.0400319225633465E-04  -1.0531139130233973E-04  -1.0663604546405595E-04
  -1.0797736172125978E-04  -1.0933554965720881E-04  -1.1071082149138982E-04
  -1.1210339211267772E-04  -1.1351347911291271E-04  -1.1494130282089899E-04
  -1.1638708633683122E-04  -1.1785105556715451E-04  -1.1933343925986210E-04
  -1.2083446904023786E-04  -1.2235437944704762E-04  -1.2389340796918629E-04
  -1.2545179508278561E-04  -1.2702978428878850E-04  -1.2862762215099695E-04
  -1.3024555833459722E-04  -1.3188384564516995E-04  -1.3354274006819233E-04
  -1.3522250080903473E-04  -1.3692339033346271E-04  -1.3864567440864656E-04
  -1.4038962214468824E-04  -1.4215550603667002E-04  -1.4394360200723131E-04
  -1.4575418944968223E-04  -1.4758755127165885E-04  -1.4944397393932735E-04
  -1.5132374752214515E-04  -1.5322716573818330E-04  -1.5515452600002065E-04
  -1.5710612946121495E-04  -1.5908228106335711E-04  -1.6108328958371941E-04
  -1.6310946768350121E-04  -1.6516113195668268E-04  -1.6723860297949254E-04
  -1.6934220536049774E-04  -1.7147226779132407E-04  -1.7362912309801365E-04
  -1.7581310829302893E-04  -1.7802456462791153E-04  -1.8026383764660101E-04
  -1.8253127723942816E-04  -1.8482723769778345E-04  -1.8715207776947519E-04
  -1.8950616071478446E-04  -1.9188985436322306E-04  -1.9430353117100825E-04
  -1.9674756827925624E-04  -1.9922234757291290E-04  -2.0172825574042076E-04
  -2.0426568433413954E-04  -2.0683502983152659E-04  -2.0943669369708390E-04
  -2.1207108244508798E-04  -2.1473860770310725E-04  -2.1743968627631701E-04
  -2.2017474021262631E-04  -2.2294419686861997E-04  -2.2574848897633464E-04
  -2.2858805471087025E-04  -2.3146333775885653E-04  -2.3437478738777532E-04
  -2.3732285851615925E-04  -2.4030801178467190E-04  -2.4333071362808064E-04
  -2.4639143634813752E-04  -2.4949065818737336E-04  -2.5262886340382361E-04
  -2.5580654234669048E-04  -2.5902419153295980E-04  -2.6228231372498048E-04
  -2.6558141800901833E-04  -2.6892201987479967E-04  -2.7230464129605582E-04
  -2.7572981081207699E-04  -2.7919806361029778E-04  -2.8270994160991533E-04
  -2.8626599354656345E-04  -2.8986677505805024E-04  -2.9351284877117320E-04
  -2.9720478438962841E-04  -3.0094315878302251E-04  -3.0472855607700675E-04
  -3.0856156774454338E-04  -3.1244279269831998E-04  -3.1637283738432750E-04
  -3.2035231587661180E-04  -3.2438184997322152E-04  -3.2846206929335839E-04
  -3.3259361137575206E-04  -3.3677712177827265E-04  -3.4101325417879236E-04
  -3.4530267047731952E-04  -3.4964604089941689E-04  -3.5404404410091685E-04
  -3.5849736727395939E-04  -3.6300670625435711E-04  -3.6757276563031662E-04
  -3.7219625885252382E-04  -3.7687790834561326E-04  -3.8161844562104318E-04
  -3.8641861139138508E-04  -3.9127915568605348E-04  -3.9620083796849232E-04
  -4.0118442725483087E-04  -4.0623070223403876E-04  -4.1134045138958321E-04
  -4.1651447312262321E-04  -4.2175357587675142E-04  -4.2705857826430229E-04
  -4.3243030919425210E-04  -4.3786960800172548E-04  -4.4337732457912888E-04
  -4.4895431950893900E-04  -4.5460146419815356E-04  -4.6031964101443928E-04
  -4.6610974342398728E-04  -4.7197267613110534E-04  -4.7790935521956475E-04
  -4.8392070829572241E-04  -4.9000767463344718E-04  -4.9617120532086318E-04
  -5.0241226340894379E-04  -5.0873182406197047E-04  -5.1513087470988377E-04
  -5.2161041520255500E-04  -5.2817145796598926E-04  -5.3481502816050031E-04
  -5.4154216384087110E-04  -5.4835391611852816E-04  -5.5525134932575451E-04
  -5.6223554118197349E-04  -5.6930758296211068E-04  -5.7646857966708908E-04
  -5.8371965019645192E-04  -5.9106192752317018E-04  -5.9849655887063782E-04
  -6.0602470589189738E-04  -6.1364754485111815E-04  -6.2136626680735652E-04
  -6.2918207780062320E-04  -6.3709619904029832E-04  -6.4510986709590359E-04
  -6.5322433409028353E-04  -6.6144086789521100E-04  -6.6976075232944964E-04
  -6.7818528735931417E-04  -6.8671578930174025E-04  -6.9535359102991989E-04
  -7.0410004218151179E-04  -7.1295650936947677E-04  -7.2192437639556249E-04
  -7.3100504446646324E-04  -7.4019993241271093E-04  -7.4951047691030660E-04
  -7.5893813270514149E-04  -7.6848437284024614E-04  -7.7815068888588250E-04
  -7.8793859117254035E-04  -7.9784960902685282E-04  -8.0788529101048713E-04
  -8.1804720516203387E-04  -8.2833693924192842E-04  -8.3875610098046581E-04
  -8.4930631832892320E-04  -8.5998923971383810E-04  -8.7080653429448941E-04
  -8.8175989222360487E-04  -8.9285102491135440E-04  -9.0408166529265554E-04
  -9.1545356809783699E-04  -9.2696851012671411E-04  -9.3862829052608978E-04
  -9.5043473107076165E-04  -9.6238967644804658E-04  -9.7449499454588912E-04
  -9.8675257674459092E-04  -9.9916433821219163E-04  -1.0117322182035789E-03
  -1.0244581803633475E-03  -1.0373442130324616E-03  -1.0503923295587798E-03
  -1.0636045686114692E-03  -1.0769829944993750E-03  -1.0905296974933934E-03
  -1.1042467941528868E-03  -1.1181364276562065E-03  -1.1322007681353579E-03
  -1.1464420130148790E-03  -1.1608623873549720E-03  -1.1754641441989392E-03
  -1.1902495649249965E-03  -1.2052209596024829E-03  -1.2203806673525663E-03
  -1.2357310567134656E-03  -1.2512745260102617E-03  -1.2670135037293588E-03
  -1.2829504488976343E-03  -1.2990878514663599E-03  -1.3154282326999387E-03
  -1.3319741455695270E-03  -1.3487281751515922E-03  -1.3656929390314743E-03
  -1.3828710877120168E-03  -1.4002653050273280E-03  -1.4178783085617237E-03
  -1.4357128500739490E-03  -1.4537717159267014E-03  -1.4720577275215566E-03
  -1.4905737417393579E-03  -1.5093226513861119E-03  -1.5283073856444990E-03
  -1.5475309105310367E-03  -1.5669962293589821E-03  -1.5867063832070405E-03
  -1.6066644513939503E-03  -1.6268735519590401E-03  -1.6473368421487718E-03
  -1.6680575189094279E-03  -1.6890388193859557E-03  -1.7102840214270644E-03
  -1.7317964440966749E-03  -1.7535794481917529E-03  -1.7756364367666545E-03
  -1.7979708556640445E-03  -1.8205861940524494E-03  -1.8434859849705788E-03
  -1.8666738058784338E-03  -1.8901532792153452E-03  -1.9139280729650022E-03
  -1.9380019012275322E-03  -1.9623785247987998E-03  -1.9870617517568951E-03
  -2.0120554380560259E-03  -2.0373634881278154E-03  -2.0629898554901304E-03
  -2.0889385433635489E-03  -2.1152136052955254E-03  -2.1418191457923774E-03
  -2.1687593209591812E-03  -2.1960383391476722E-03  -2.2236604616122620E-03
  -2.2516300031742479E-03  -2.2799513328943298E-03  -2.3086288747535609E-03
  -2.3376671083427782E-03  -2.3670705695606957E-03  -2.3968438513206776E-03
  -2.4269916042663816E-03  -2.4575185374963331E-03  -2.4884294192975462E-03
  -2.5197290778883261E-03  -2.5514224021703242E-03  -2.5835143424900162E-03
  -2.6160099114096625E-03  -2.6489141844879059E-03  -2.6822323010701186E-03
  -2.7159694650885835E-03  -2.7501309458726896E-03  -2.7847220789692260E-03
  -2.8197482669728878E-03  -2.8552149803671707E-03  -2.8911277583757123E-03
  -2.9274922098242581E-03  -2.9643140140133842E-03  -3.0015989216020575E-03
  -3.0393527555022336E-03  -3.0775814117845702E-03  -3.1162908605954116E-03
  -3.1554871470852119E-03  -3.1951763923484711E-03  -3.2353647943753963E-03
  -3.2760586290153642E-03  -3.3172642509523842E-03  -3.3589880946926572E-03
  -3.4012366755644375E-03  -3.4440165907302749E-03  -3.4873345202118436E-03
  -3.5311972279274684E-03  -3.5756115627425590E-03  -3.6205844595330349E-03
  -3.6661229402619464E-03  -3.7122341150694427E-03  -3.7589251833762246E-03
  -3.8062034350006772E-03  -3.8540762512898285E-03  -3.9025511062642862E-03
  -3.9516355677773549E-03  -4.0013372986884479E-03  -4.0516640580510457E-03
  -4.1026237023152681E-03  -4.1542241865453614E-03  -4.2064735656521307E-03
  -4.2593799956406279E-03  -4.3129517348731907E-03  -4.3671971453480632E-03
  -4.4221246939937326E-03  -4.4777429539792132E-03  -4.5340606060404335E-03
  -4.5910864398229388E-03  -4.6488293552410928E-03  -4.7072983638539404E-03
  -4.7665025902579811E-03  -4.8264512734969870E-03  -4.8871537684891386E-03
  -4.9486195474715876E-03  -5.0108582014627510E-03  -5.0738794417424316E-03
  -5.1376931013500347E-03  -5.2023091366011137E-03  -5.2677376286223926E-03
  -5.3339887849054857E-03  -5.4010729408795546E-03  -5.4690005615031165E-03
  -5.5377822428751954E-03  -5.6074287138660377E-03  -5.6779508377676610E-03
  -5.7493596139643437E-03  -5.8216661796234217E-03  -5.8948818114065221E-03
  -5.9690179272014789E-03  -6.0440860878751921E-03  -6.1200979990475770E-03
  -6.1970655128869645E-03  -6.2750006299270621E-03  -6.3539155009057933E-03
  -6.4338224286262071E-03  -6.5147338698396820E-03  -6.5966624371517589E-03
  -6.6796209009506897E-03  -6.7636221913591000E-03  -6.8486794002089076E-03
  -6.9348057830397611E-03  -7.0220147611212798E-03  -7.1103199234993069E-03
  -7.1997350290664277E-03  -7.2902740086570328E-03  -7.3819509671671207E-03
  -7.4747801856991421E-03  -7.5687761237321219E-03  -7.6639534213173138E-03
  -7.7603269012996101E-03  -7.8579115715650249E-03  -7.9567226273144099E-03
  -8.0567754533637827E-03  -8.1580856264714362E-03  -8.2606689176920652E-03
  -8.3645412947582331E-03  -8.4697189244894427E-03  -8.5762181752289425E-03
  -8.6840556193086837E-03  -8.7932480355426123E-03  -8.9038124117484865E-03
  -9.0157659472986148E-03  -9.1291260556996025E-03  -9.2439103672014942E-03
  -9.3601367314365691E-03  -9.4778232200878193E-03  -9.5969881295876920E-03
  -9.7176499838470612E-03  -9.8398275370148360E-03  -9.9635397762683816E-03
  -1.0088805924634939E-02  -1.0215645443844491E-02  -1.0344078037213969E-02
  -1.0474123652563398E-02  -1.0605802485163952E-02  -1.0739134980718172E-02
  -1.0874141838372740E-02  -1.1010844013763774E-02  -1.1149262722095085E-02
  -1.1289419441249421E-02  -1.1431335914933012E-02  -1.1575034155853569E-02
  -1.1720536448931883E-02  -1.1867865354547320E-02  -1.2017043711817298E-02
  -1.2168094641910777E-02  -1.2321041551396445E-02  -1.2475908135624950E-02
  -1.2632718382145931E-02  -1.2791496574160007E-02  -1.2952267294005173E-02
  -1.3115055426678681E-02  -1.3279886163393709E-02  -1.3446785005171111E-02
  -1.3615777766466860E-02  -1.3786890578834244E-02  -1.3960149894621895E-02
  -1.4135582490707047E-02  -1.4313215472263937E-02  -1.4493076276568316E-02
  -1.4675192676836563E-02  -1.4859592786100792E-02  -1.5046305061119137E-02
  -1.5235358306320952E-02  -1.5426781677787870E-02  -1.5620604687269286E-02
  -1.5816857206233104E-02  -1.6015569469951359E-02  -1.6216772081619996E-02
  -1.6420496016513648E-02  -1.6626772626174076E-02  -1.6835633642632811E-02
  -1.7047111182667198E-02  -1.7261237752089927E-02  -1.7478046250071318E-02
  -1.7697569973494285E-02  -1.7919842621341272E-02  -1.8144898299113123E-02
  -1.8372771523278663E-02  -1.8603497225755328E-02  -1.8837110758419495E-02
  -1.9073647897646533E-02  -1.9313144848879225E-02  -1.9555638251224410E-02
  -1.9801165182077016E-02  -2.0049763161769773E-02  -2.0301470158249596E-02
  -2.0556324591777440E-02  -2.0814365339652315E-02  -2.1075631740957886E-02
  -2.1340163601329891E-02  -2.1608001197744617E-02  -2.1879185283325480E-02
  -2.2153757092167537E-02  -2.2431758344178512E-02  -2.2713231249933612E-02
  -2.2998218515544532E-02  -2.3286763347539000E-02  -2.3578909457750138E-02
  -2.3874701068214293E-02  -2.4174182916073622E-02  -2.4477400258483488E-02
  -2.4784398877520961E-02  -2.5095225085092387E-02  -2.5409925727838848E-02
  -2.5728548192035027E-02  -2.6051140408480482E-02  -2.6377750857379995E-02
  -2.6708428573209295E-02  -2.7043223149565046E-02  -2.7382184743993537E-02
  -2.7725364082796605E-02  -2.8072812465810337E-02  -2.8424581771152813E-02
  -2.8780724459937894E-02  -2.9141293580949881E-02  -2.9506342775275456E-02
  -2.9875926280888900E-02  -3.0250098937184468E-02  -3.0628916189453043E-02
  -3.1012434093296379E-02  -3.1400709318974547E-02  -3.1793799155680848E-02
  -3.2191761515738049E-02  -3.2594654938710658E-02  -3.3002538595425825E-02
  -3.3415472291897980E-02  -3.3833516473148008E-02  -3.4256732226912154E-02
  -3.4685181287231637E-02  -3.5118926037915013E-02  -3.5558029515867208E-02
  -3.6002555414273378E-02  -3.6452568085631826E-02  -3.6908132544625008E-02
  -3.7369314470818912E-02  -3.7836180211182277E-02  -3.8308796782412745E-02
  -3.8787231873061004E-02  -3.9271553845441072E-02  -3.9761831737313659E-02
  -4.0258135263331982E-02  -4.0760534816235774E-02  -4.1269101467779949E-02
  -4.1783906969385859E-02  -4.2305023752497214E-02  -4.2832524928628872E-02
  -4.3366484289090380E-02  -4.3906976304367684E-02  -4.4454076123148681E-02
  -4.5007859570970032E-02  -4.5568403148471021E-02  -4.6135784029232636E-02
  -4.6710080057181552E-02  -4.7291369743539910E-02  -4.7879732263296740E-02
  -4.8475247451179315E-02  -4.9077995797101884E-02  -4.9688058441063693E-02
  -5.0305517167475118E-02  -5.0930454398881497E-02  -5.1562953189058527E-02
  -5.2203097215450835E-02  -5.2850970770921615E-02  -5.3506658754784497E-02
  -5.4170246663083212E-02  -5.4841820578086425E-02  -5.5521467156961823E-02
  -5.6209273619592943E-02  -5.6905327735501103E-02  -5.7609717809832442E-02
  -5.8322532668369440E-02  -5.9043861641522394E-02  -5.9773794547260173E-02
  -6.0512421672928786E-02  -6.1259833755914150E-02  -6.2016121963097449E-02
  -6.2781377869049346E-02  -6.3555693432913202E-02  -6.4339160973916676E-02
  -6.5131873145455987E-02  -6.5933922907692954E-02  -6.6745403498597963E-02
  -6.7566408403378353E-02  -6.8397031322221039E-02  -6.9237366136277956E-02
  -7.0087506871825717E-02  -7.0947547662515723E-02  -7.1817582709643654E-02
  -7.2697706240349422E-02  -7.3588012463664657E-02  -7.4488595524320980E-02
  -7.5399549454222045E-02  -7.6320968121488447E-02  -7.7252945176972593E-02
  -7.8195573998140991E-02  -7.9148947630218250E-02  -8.0113158724479189E-02
  -8.1088299473574807E-02  -8.2074461543771696E-02  -8.3071736003979421E-02
  -8.4080213251437899E-02  -8.5099982933929508E-02  -8.6131133868376966E-02
  -8.7173753955681457E-02  -8.8227930091651946E-02  -8.9293748073869916E-02
  -9.0371292504326364E-02  -9.1460646687666430E-02  -9.2561892524862702E-02
  -9.3675110402143200E-02  -9.4800379074981719E-02  -9.5937775546958259E-02
  -9.7087374943290478E-02  -9.8249250378822359E-02  -9.9423472820259859E-02
  -1.0061011094242585E-01  -1.0180923097830111E-01  -1.0302089656261554E-01
  -1.0424516856873357E-01  -1.0548210493858075E-01  -1.0673176050534235E-01
  -1.0799418680865309E-01  -1.0926943190199942E-01  -1.1055754015202723E-01
  -1.1185855202945404E-01  -1.1317250389126818E-01  -1.1449942775387753E-01
  -1.1583935105687924E-01  -1.1719229641708781E-01  -1.1855828137246092E-01
  -1.1993731811555156E-01  -1.2132941321608652E-01  -1.2273456733228180E-01
  -1.2415277491047065E-01  -1.2558402387261794E-01  -1.2702829529128348E-01
  -1.2848556305157041E-01  -1.2995579349959396E-01  -1.3143894507698298E-01
  -1.3293496794091261E-01  -1.3444380356915844E-01  -1.3596538434963504E-01
  -1.3749963315387820E-01  -1.3904646289390848E-01  -1.4060577606189661E-01
  -1.4217746425204245E-01  -1.4376140766405301E-01  -1.4535747458760234E-01
  -1.4696552086712514E-01  -1.4858538934629389E-01  -1.5021690929150552E-01
  -1.5185989579369003E-01  -1.5351414914774200E-01  -1.5517945420885254E-01
  -1.5685557972501776E-01  -1.5854227764497447E-01  -1.6023928240080615E-01
  -1.6194631016445238E-01  -1.6366305807733672E-01  -1.6538920345232544E-01
  -1.6712440294721628E-01  -1.6886829170894754E-01  -1.7062048248772024E-01
  -1.7238056472020855E-01  -1.7414810358104429E-01  -1.7592263900175631E-01
  -1.7770368465634387E-01  -1.7949072691268111E-01  -1.8128322374894232E-01
  -1.8308060363426201E-01  -1.8488226437285932E-01  -1.8668757191086308E-01
  -1.8849585910512165E-01  -1.9030642445328544E-01  -1.9211853078450492E-01
  -1.9393140391012406E-01  -1.9574423123378443E-01  -1.9755616032043191E-01
  -1.9936629742376083E-01  -2.0117370597170969E-01  -2.0297740500971351E-01
  -2.0477636760148191E-01  -2.0656951918720293E-01  -2.0835573589916509E-01
  -2.1013384283491682E-01  -2.1190261228823964E-01  -2.1366076193833122E-01
  -2.1540695299779761E-01  -2.1713978832021327E-01  -2.1885781046822034E-01
  -2.2055949974336495E-01  -2.2224327217909473E-01  -2.2390747749862194E-01
  -2.2555039703963092E-01  -2.2717024164812322E-01  -2.2876514954403099E-01
  -2.3033318416158968E-01  -2.3187233196785495E-01  -2.3338050026317286E-01
  -2.3485551496786236E-01  -2.3629511839986464E-01  -2.3769696704862969E-01
  -2.3905862935107913E-01  -2.4037758347607524E-01  -2.4165121512447196E-01
  -2.4287681535250247E-01  -2.4405157842697861E-01  -2.4517259972155445E-01
  -2.4623687366410874E-01  -2.4724129174617424E-01  -2.4818264060624301E-01
  -2.4905760019973461E-01  -2.4986274206943013E-01  -2.5059452773121493E-01
  -2.5124930719109367E-01  -2.5182331761058696E-01  -2.5231268213882124E-01
  -2.5271340893087224E-01  -2.5302139037321819E-01  -2.5323240253848256E-01
  -2.5334210489303399E-01  -2.5334604028240115E-01  -2.5323963522091020E-01
  -2.5301820051340096E-01  -2.5267693223836313E-01  -2.5221091312331056E-01
  -2.5161511434470041E-01  -2.5088439778617244E-01  -2.5001351879033268E-01
  -2.4899712944072164E-01  -2.4782978241194947E-01  -2.4650593542729352E-01
  -2.4501995636422694E-01  -2.4336612904945124E-01  -2.4153865978596339E-01
  -2.3953168465546712E-01  -2.3733927764007406E-01  -2.3495545960761610E-01
  -2.3237420820504120E-01  -2.2958946870423669E-01  -2.2659516584414977E-01
  -2.2338521671227041E-01  -2.1995354470731318E-01  -2.1629409462326374E-01
  -2.1240084889280222E-01  -2.0826784502539408E-01  -2.0388919427205587E-01
  -1.9925910154484144E-01  -1.9437188661446844E-01  -1.8922200660408697E-01
  -1.8380407979100821E-01  -1.7811291072112659E-01  -1.7214351663280703E-01
  -1.6589115517806163E-01  -1.5935135341887852E-01  -1.5251993806556916E-01
  -1.4539306691190093E-01  -1.3796726140853308E-01  -1.3023944030195264E-01
  -1.2220695425051384E-01  -1.1386762131252653E-01  -1.0521976318351357E-01
  -9.6262242040730361E-02  -8.6994497833084120E-02  -7.7416585833503318E-02
  -6.7529214248834193E-02  -5.7333781659698185E-02  -4.6832414039217257E-02
  -3.6028001075803423E-02  -2.4924231501037026E-02  -1.3525627099581541E-02
  -1.8375750544138236E-03   1.0133641742580971E-02   2.2380816806534608E-02
   3.4895795014494010E-02   4.7669450830362184E-02   6.0691670246803012E-02
   7.3951336904001991E-02   8.7436322854112777E-02   1.0113348444466637E-01
   1.1502866379349459E-01   1.2910669632062749E-01   1.4335142478881605E-01
   1.5774572028254169E-01   1.7227151052481282E-01   1.8690981589104039E-01
   2.0164079342852700E-01   2.1644378912823989E-01   2.3129739862147511E-01
   2.4617953638726292E-01   2.6106751345650925E-01   2.7593812348539148E-01
   2.9076773694367608E-01   3.0553240302348583E-01   3.2020795872139152E-01
   3.3477014438257352E-01   3.4919472482190606E-01   3.6345761495532669E-01
   3.7753500868871243E-01   3.9140350962441250E-01   4.0504026196194481E-01
   4.1842307979458759E-01   4.3153057284403162E-01   4.4434226653780895E-01
   4.5683871422741490E-01   4.6900159927732238E-01   4.8081382473652667E-01
   4.9225958834492772E-01   5.0332444073719174E-01   5.1399532489764865E-01
   5.2426059520108936E-01   5.3411001475553121E-01   5.4353473025205556E-01
   5.5252722412894317E-01   5.6108124457581632E-01   5.6919171473686647E-01
   5.7685462341493787E-01   5.8406690061905853E-01   5.9082628241885793E-01
   5.9713117075018696E-01   6.0298049530215181E-01   6.0837358580294176E-01
   6.1331006144747013E-01   6.1778974925646990E-01   6.2181267651989036E-01
   6.2537926681163392E-01   6.2849046877354464E-01   6.3114775198267659E-01
   6.3335310137735357E-01   6.3510901029158973E-01   6.3641847313358335E-01
   6.3728497762547953E-01   6.3771249655813056E-01   6.3770547903369157E-01
   6.3726884118342686E-01   6.3640795636128011E-01   6.3512864482527620E-01
   6.3343716292846552E-01   6.3134019184892665E-01   6.2884482589443258E-01
   6.2595856042191922E-01   6.2268927941514807E-01   6.1904524276609318E-01
   6.1503507330683871E-01   6.1066774363918641E-01   6.0595256280894838E-01
   6.0089916287084943E-01   5.9551748538814508E-01   5.8981776790826201E-01
   5.8381053045171749E-01   5.7750656204610162E-01   5.7091690732959577E-01
   5.6405285323902243E-01   5.5692591578552730E-01   5.4954782690620840E-01
   5.4193052136231068E-01   5.3408612363379715E-01   5.2602693473628004E-01
   5.1776541886009886E-01   5.0931418970314535E-01   5.0068599634037447E-01
   4.9189370844531555E-01   4.8295030065421357E-01   4.7386883584462131E-01
   4.6466244708956994E-01   4.5534431804751946E-01   4.4592766157547181E-01
   4.3642569635223327E-01   4.2685162138981075E-01   4.1721858834613468E-01
   4.0753967164760407E-01   3.9782783652402998E-01   3.8809590516319797E-01
   3.7835652129954173E-01   3.6862211365434655E-01   3.5890485873626571E-01
   3.4921664358449023E-01   3.3956902908668568E-01   3.2997321452661943E-01
   3.2044000401028289E-01   3.1097977538491173E-01   3.0160245220532284E-01
   2.9231747922039236E-01   2.8313380175488784E-01   2.7405984925397342E-01
   2.6510352314551644E-01   2.5627218906430199E-01   2.4757267337700789E-01
   2.3901126385108068E-01   2.3059371422696906E-01   2.2232525238326681E-01
   2.1421059172877779E-01   2.0625394541435982E-01   1.9845904293019692E-01
   1.9082914863973063E-01   1.8336708179903746E-01   1.7607523761854416E-01
   1.6895560894146883E-01   1.6200980813925675E-01   1.5523908885714974E-01
   1.4864436728209221E-01   1.4222624264923014E-01   1.3598501675112509E-01
   1.2992071226458340E-01   1.2403308976206688E-01   1.1832166332696119E-01
   1.1278571474301353E-01   1.0742430627711942E-01   1.0223629212277813E-01
   9.7220328517738028E-02   9.2374883332196386E-02   8.7698242745808772E-02
   8.3188520556232395E-02   7.8843663702713201E-02   7.4661458873793565E-02
   7.0639538637786353E-02   6.6775387481577492E-02   6.3066347927249702E-02
   5.9509626852789287E-02   5.6102302118453740E-02   5.2841329574935876E-02
   4.9723550503865184E-02   4.6745699516387365E-02   4.3904412912561024E-02
   4.1196237483649985E-02   3.8617639721518861E-02   3.6165015384574201E-02
   3.3834699358016730E-02   3.1622975737620733E-02   2.9526088060602650E-02
   2.7540249604166962E-02   2.5661653671716661E-02   2.3886483788149029E-02
   2.2210923728799827E-02   2.0631167311108867E-02   1.9143427883639631E-02
   1.7743947453419701E-02   1.6429005399399652E-02   1.5194926726954393E-02
   1.4038089825554812E-02   1.2954933698884548E-02   1.1941964643625968E-02
   1.0995762359781598E-02   1.0112985481686267E-02   9.2903765247003139E-03
   8.5247662479631843E-03   7.8130774384810482E-03   7.1523281262112657E-03
   6.5396342437185435E-03   5.9722117473806867E-03   5.4473782200686327E-03
   4.9625539777163382E-03   4.5152627042506855E-03   4.1031316410169274E-03
   3.7238913581113370E-03   3.3753751359670726E-03   3.0555179861564662E-03
   2.7623553406885167E-03   2.4940214391418738E-03   2.2487474427893787E-03
   2.0248593044750506E-03   1.8207754224253147E-03   1.6350041054247579E-03
   1.4661408758999471E-03   1.3128656364420031E-03   1.1739397241838363E-03
       </PP_GIPAW_WFS_PS>
     </PP_GIPAW_ORBITAL.4>
   </PP_GIPAW_ORBITALS>
   <PP_GIPAW_VLOCAL>
     <PP_GIPAW_VLOCAL_AE size="1164">
   0.0000000000000000E+00  -7.3998189846829362E+01  -7.3998165192499329E+01
  -7.3998140560088686E+01  -7.3998115579714806E+01  -7.3998090295049096E+01
  -7.3998064696016002E+01  -7.3998038778899016E+01  -7.3998012540452535E+01
  -7.3997985977427916E+01  -7.3997959086567988E+01  -7.3997931864608248E+01
  -7.3997904308277853E+01  -7.3997876414300904E+01  -7.3997848179396982E+01
  -7.3997819600282838E+01  -7.3997790673673578E+01  -7.3997761396283650E+01
  -7.3997731764828359E+01  -7.3997701776025210E+01  -7.3997671426595517E+01
  -7.3997640713265483E+01  -7.3997609632768103E+01  -7.3997578181844716E+01
  -7.3997546357246691E+01  -7.3997514155736937E+01  -7.3997481574092149E+01
  -7.3997448609104197E+01  -7.3997415257582389E+01  -7.3997381516355574E+01
  -7.3997347382273915E+01  -7.3997312852211280E+01  -7.3997277923067472E+01
  -7.3997242591770501E+01  -7.3997206855278975E+01  -7.3997170710584697E+01
  -7.3997134154715184E+01  -7.3997097184736333E+01  -7.3997059797755227E+01
  -7.3997021990922747E+01  -7.3996983761436994E+01  -7.3996945106545809E+01
  -7.3996906023550267E+01  -7.3996866509807717E+01  -7.3996826562735151E+01
  -7.3996786179812773E+01  -7.3996745358587432E+01  -7.3996704096676211E+01
  -7.3996662391770315E+01  -7.3996620241638880E+01  -7.3996577644132969E+01
  -7.3996534597189722E+01  -7.3996491098836430E+01  -7.3996447147195113E+01
  -7.3996402740486502E+01  -7.3996357877035365E+01  -7.3996312555274443E+01
  -7.3996266773749724E+01  -7.3996220531125260E+01  -7.3996173826188141E+01
  -7.3996126657853949E+01  -7.3996079025171767E+01  -7.3996030927329883E+01
  -7.3995982363661270E+01  -7.3995933333649177E+01  -7.3995883836933231E+01
  -7.3995833873315235E+01  -7.3995783442765230E+01  -7.3995732545427998E+01
  -7.3995681181628811E+01  -7.3995629351880723E+01  -7.3995577056890625E+01
  -7.3995524297565993E+01  -7.3995471075021953E+01  -7.3995417390588244E+01
  -7.3995363245816165E+01  -7.3995308642485639E+01  -7.3995253582612989E+01
  -7.3995198068458095E+01  -7.3995142102531631E+01  -7.3995085687603222E+01
  -7.3995028826708776E+01  -7.3994971523158426E+01  -7.3994913780544337E+01
  -7.3994855602748530E+01  -7.3994796993951411E+01  -7.3994737958639135E+01
  -7.3994678501612057E+01  -7.3994618627993034E+01  -7.3994558343235170E+01
  -7.3994497653130551E+01  -7.3994436563817814E+01  -7.3994375081790764E+01
  -7.3994313213906409E+01  -7.3994250967392873E+01  -7.3994188349857751E+01
  -7.3994125369295759E+01  -7.3994062034096771E+01  -7.3993998353053627E+01
  -7.3993934335369502E+01  -7.3993869990665715E+01  -7.3993805328988586E+01
  -7.3993740360816886E+01  -7.3993675097068348E+01  -7.3993609549106409E+01
  -7.3993543728746573E+01  -7.3993477648261958E+01  -7.3993411320389328E+01
  -7.3993344758334089E+01  -7.3993277975775044E+01  -7.3993210986868775E+01
  -7.3993143806253329E+01  -7.3993076449051543E+01  -7.3993008930873657E+01
  -7.3992941267819518E+01  -7.3992873476479588E+01  -7.3992805573935769E+01
  -7.3992737577761105E+01  -7.3992669506019098E+01  -7.3992601377260826E+01
  -7.3992533210523732E+01  -7.3992465025325870E+01  -7.3992396841662057E+01
  -7.3992328679997712E+01  -7.3992260561261062E+01  -7.3992192506835153E+01
  -7.3992124538546989E+01  -7.3992056678656994E+01  -7.3991988949846203E+01
  -7.3991921375200775E+01  -7.3991853978197256E+01  -7.3991786782683405E+01
  -7.3991719812859827E+01  -7.3991653093256929E+01  -7.3991586648713039E+01
  -7.3991520504347207E+01  -7.3991454685532233E+01  -7.3991389217864239E+01
  -7.3991324127130866E+01  -7.3991259439274913E+01  -7.3991195180358574E+01
  -7.3991131376522148E+01  -7.3991068053941689E+01  -7.3991005238783032E+01
  -7.3990942957154033E+01  -7.3990881235051305E+01  -7.3990820098307054E+01
  -7.3990759572530123E+01  -7.3990699683045179E+01  -7.3990640454828295E+01
  -7.3990581912437150E+01  -7.3990524079941451E+01  -7.3990466980846307E+01
  -7.3990410638013316E+01  -7.3990355073577177E+01  -7.3990300308859588E+01
  -7.3990246364278079E+01  -7.3990193259251015E+01  -7.3990141012099343E+01
  -7.3990089639942767E+01  -7.3990039158593248E+01  -7.3989989582443869E+01
  -7.3989940924351927E+01  -7.3989893195522214E+01  -7.3989846405379495E+01
  -7.3989800561442209E+01  -7.3989755669192590E+01  -7.3989711731933397E+01
  -7.3989668750655483E+01  -7.3989626723888605E+01  -7.3989585647552545E+01
  -7.3989545514807659E+01  -7.3989506315895341E+01  -7.3989468037982277E+01
  -7.3989430664993151E+01  -7.3989394177446826E+01  -7.3989358552286561E+01
  -7.3989323762704345E+01  -7.3989289777970811E+01  -7.3989256563252681E+01
  -7.3989224079435814E+01  -7.3989192282942469E+01  -7.3989161125546445E+01
  -7.3989130554190837E+01  -7.3989100510802999E+01  -7.3989070932101612E+01
  -7.3989041749423293E+01  -7.3989012888521557E+01  -7.3988984269393626E+01
  -7.3988955806092804E+01  -7.3988927406541734E+01  -7.3988898972360474E+01
  -7.3988870398682337E+01  -7.3988841573985809E+01  -7.3988812379919395E+01
  -7.3988782691140713E+01  -7.3988752375153467E+01  -7.3988721292154352E+01
  -7.3988689294883415E+01  -7.3988656228487017E+01  -7.3988621930377207E+01
  -7.3988586230115288E+01  -7.3988548949287619E+01  -7.3988509901406417E+01
  -7.3988468891811593E+01  -7.3988425717580625E+01  -7.3988380167465763E+01
  -7.3988332021823098E+01  -7.3988281052573271E+01  -7.3988227023163276E+01
  -7.3988169688544218E+01  -7.3988108795175947E+01  -7.3988044081024853E+01
  -7.3987975275604214E+01  -7.3987902100007645E+01  -7.3987824266969909E+01
  -7.3987741480951371E+01  -7.3987653438228094E+01  -7.3987559827004304E+01
  -7.3987460327548277E+01  -7.3987354612340383E+01  -7.3987242346243619E+01
  -7.3987123186688521E+01  -7.3986996783889921E+01  -7.3986862781058718E+01
  -7.3986720814659591E+01  -7.3986570514670234E+01  -7.3986411504861991E+01
  -7.3986243403103202E+01  -7.3986065821675922E+01  -7.3985878367610908E+01
  -7.3985680643043338E+01  -7.3985472245578080E+01  -7.3985252768674556E+01
  -7.3985021802048763E+01  -7.3984778932076850E+01  -7.3984523742234813E+01
  -7.3984255813523802E+01  -7.3983974724920515E+01  -7.3983680053846371E+01
  -7.3983371376614386E+01  -7.3983048268921522E+01  -7.3982710306323085E+01
  -7.3982357064706392E+01  -7.3981988120796288E+01  -7.3981603052630945E+01
  -7.3981201440055528E+01  -7.3980782865217932E+01  -7.3980346913034325E+01
  -7.3979893171699743E+01  -7.3979421233132214E+01  -7.3978930693462274E+01
  -7.3978421153486678E+01  -7.3977892219106522E+01  -7.3977343501776630E+01
  -7.3976774618921439E+01  -7.3976185194337859E+01  -7.3975574858601831E+01
  -7.3974943249415219E+01  -7.3974290011985559E+01  -7.3973614799348084E+01
  -7.3972917272669335E+01  -7.3972197101556716E+01  -7.3971453964300750E+01
  -7.3970687548134649E+01  -7.3969897549437320E+01  -7.3969083673931607E+01
  -7.3968245636840223E+01  -7.3967383163019591E+01  -7.3966495987073756E+01
  -7.3965583853431326E+01  -7.3964646516386878E+01  -7.3963683740140354E+01
  -7.3962695298771678E+01  -7.3961680976220720E+01  -7.3960640566216640E+01
  -7.3959573872188514E+01  -7.3958480707150272E+01  -7.3957360893547772E+01
  -7.3956214263095106E+01  -7.3955040656576998E+01  -7.3953839923616414E+01
  -7.3952611922443907E+01  -7.3951356519614279E+01  -7.3950073589724752E+01
  -7.3948763015101761E+01  -7.3947424685462138E+01  -7.3946058497571869E+01
  -7.3944664354872145E+01  -7.3943242167098063E+01  -7.3941791849880914E+01
  -7.3940313324329367E+01  -7.3938806516619479E+01  -7.3937271357542471E+01
  -7.3935707782075710E+01  -7.3934115728920617E+01  -7.3932495140050236E+01
  -7.3930845960243261E+01  -7.3929168136614692E+01  -7.3927461618149337E+01
  -7.3925726355229514E+01  -7.3923962299159314E+01  -7.3922169401702718E+01
  -7.3920347614606698E+01  -7.3918496889143427E+01  -7.3916617175650742E+01
  -7.3914708423068518E+01  -7.3912770578504634E+01  -7.3910803586785136E+01
  -7.3908807390024819E+01  -7.3906781927205614E+01  -7.3904727133760176E+01
  -7.3902642941173511E+01  -7.3900529276586312E+01  -7.3898386062418325E+01
  -7.3896213215999126E+01  -7.3894010649209321E+01  -7.3891778268142502E+01
  -7.3889515972770425E+01  -7.3887223656628152E+01  -7.3884901206511259E+01
  -7.3882548502181805E+01  -7.3880165416097952E+01  -7.3877751813145252E+01
  -7.3875307550391042E+01  -7.3872832476845133E+01  -7.3870326433240834E+01
  -7.3867789251822444E+01  -7.3865220756150237E+01  -7.3862620760915661E+01
  -7.3859989071770030E+01  -7.3857325485165802E+01  -7.3854629788207831E+01
  -7.3851901758518252E+01  -7.3849141164110719E+01  -7.3846347763276086E+01
  -7.3843521304478472E+01  -7.3840661526260163E+01  -7.3837768157157996E+01
  -7.3834840915625463E+01  -7.3831879509967223E+01  -7.3828883638277887E+01
  -7.3825852988391190E+01  -7.3822787237835072E+01  -7.3819686053793134E+01
  -7.3816549093073832E+01  -7.3813376002083203E+01  -7.3810166416804577E+01
  -7.3806919962783610E+01  -7.3803636255114483E+01  -7.3800314898436753E+01
  -7.3796955486926564E+01  -7.3793557604300020E+01  -7.3790120823814007E+01
  -7.3786644708269989E+01  -7.3783128810023570E+01  -7.3779572670990930E+01
  -7.3775975822658268E+01  -7.3772337786096472E+01  -7.3768658071968758E+01
  -7.3764936180545689E+01  -7.3761171601716910E+01  -7.3757363815001980E+01
  -7.3753512289567865E+01  -7.3749616484232575E+01  -7.3745675847483810E+01
  -7.3741689817483177E+01  -7.3737657822076628E+01  -7.3733579278803262E+01
  -7.3729453594896626E+01  -7.3725280167296560E+01  -7.3721058382642255E+01
  -7.3716787617277603E+01  -7.3712467237248518E+01  -7.3708096598297558E+01
  -7.3703675045859256E+01  -7.3699201915049969E+01  -7.3694676530655130E+01
  -7.3690098207119817E+01  -7.3685466248526012E+01  -7.3680779948579627E+01
  -7.3676038590582664E+01  -7.3671241447412086E+01  -7.3666387781495246E+01
  -7.3661476844770675E+01  -7.3656507878665806E+01  -7.3651480114051495E+01
  -7.3646392771209804E+01  -7.3641245059791700E+01  -7.3636036178768279E+01
  -7.3630765316391916E+01  -7.3625431650137557E+01  -7.3620034346655515E+01
  -7.3614572561716059E+01  -7.3609045440149757E+01  -7.3603452115785416E+01
  -7.3597791711394009E+01  -7.3592063338613400E+01  -7.3586266097886863E+01
  -7.3580399078390030E+01  -7.3574461357954632E+01  -7.3568452003001582E+01
  -7.3562370068449638E+01  -7.3556214597651135E+01  -7.3549984622295440E+01
  -7.3543679162331131E+01  -7.3537297225879186E+01  -7.3530837809139982E+01
  -7.3524299896309898E+01  -7.3517682459479872E+01  -7.3510984458544613E+01
  -7.3504204841109186E+01  -7.3497342542384715E+01  -7.3490396485090841E+01
  -7.3483365579354810E+01  -7.3476248722605618E+01  -7.3469044799475185E+01
  -7.3461752681682370E+01  -7.3454371227933947E+01  -7.3446899283809842E+01
  -7.3439335681654555E+01  -7.3431679240468668E+01  -7.3423928765788148E+01
  -7.3416083049581985E+01  -7.3408140870123574E+01  -7.3400100991886944E+01
  -7.3391962165421418E+01  -7.3383723127240245E+01  -7.3375382599695754E+01
  -7.3366939290867762E+01  -7.3358391894435002E+01  -7.3349739089564125E+01
  -7.3340979540778960E+01  -7.3332111897846744E+01  -7.3323134795653729E+01
  -7.3314046854078910E+01  -7.3304846677882395E+01  -7.3295532856568599E+01
  -7.3286103964275085E+01  -7.3276558559642027E+01  -7.3266895185693684E+01
  -7.3257112369715543E+01  -7.3247208623127293E+01  -7.3237182441366230E+01
  -7.3227032303759273E+01  -7.3216756673403552E+01  -7.3206353997046222E+01
  -7.3195822704961387E+01  -7.3185161210826266E+01  -7.3174367911610304E+01
  -7.3163441187444576E+01  -7.3152379401509833E+01  -7.3141180899918140E+01
  -7.3129844011590080E+01  -7.3118367048148485E+01  -7.3106748303790596E+01
  -7.3094986055187192E+01  -7.3083078561356729E+01  -7.3071024063561708E+01
  -7.3058820785195209E+01  -7.3046466931668888E+01  -7.3033960690311773E+01
  -7.3021300230255349E+01  -7.3008483702332796E+01  -7.2995509238974648E+01
  -7.2982374954107499E+01  -7.2969078943049880E+01  -7.2955619282419647E+01
  -7.2941994030030457E+01  -7.2928201224803999E+01  -7.2914238886669125E+01
  -7.2900105016477482E+01  -7.2885797595909182E+01  -7.2871314587389634E+01
  -7.2856653934003830E+01  -7.2841813559411150E+01  -7.2826791367768948E+01
  -7.2811585243651322E+01  -7.2796193051973177E+01  -7.2780612637920356E+01
  -7.2764841826873479E+01  -7.2748878424345534E+01  -7.2732720215908913E+01
  -7.2716364967136869E+01  -7.2699810423540839E+01  -7.2683054310512077E+01
  -7.2666094333263857E+01  -7.2648928176783272E+01  -7.2631553505774150E+01
  -7.2613967964615014E+01  -7.2596169177308113E+01  -7.2578154747440919E+01
  -7.2559922258144283E+01  -7.2541469272052908E+01  -7.2522793331276404E+01
  -7.2503891957358945E+01  -7.2484762651255096E+01  -7.2465402893299782E+01
  -7.2445810143184232E+01  -7.2425981839933854E+01  -7.2405915401886745E+01
  -7.2385608226675586E+01  -7.2365057691215227E+01  -7.2344261151683511E+01
  -7.2323215943514384E+01  -7.2301919381386199E+01  -7.2280368759212749E+01
  -7.2258561350141576E+01  -7.2236494406542349E+01  -7.2214165160010964E+01
  -7.2191570821362291E+01  -7.2168708580631758E+01  -7.2145575607076282E+01
  -7.2122169049172228E+01  -7.2098486034622354E+01  -7.2074523670351709E+01
  -7.2050279042513452E+01  -7.2025749216490652E+01  -7.2000931236897870E+01
  -7.1975822127580983E+01  -7.1950418891621922E+01  -7.1924718511332287E+01
  -7.1898717948258195E+01  -7.1872414143170431E+01  -7.1845804016064136E+01
  -7.1818884466148674E+01  -7.1791652371837316E+01  -7.1764104590737489E+01
  -7.1736237959629804E+01  -7.1708049294451385E+01  -7.1679535390270999E+01
  -7.1650693021260452E+01  -7.1621518940664046E+01  -7.1592009880755839E+01
  -7.1562162552801780E+01  -7.1531973647005103E+01  -7.1501439832453599E+01
  -7.1470557757055929E+01  -7.1439324047471374E+01  -7.1407735309032489E+01
  -7.1375788125661302E+01  -7.1343479059772264E+01  -7.1310804652171782E+01
  -7.1277761421944746E+01  -7.1244345866332424E+01  -7.1210554460602651E+01
  -7.1176383657902775E+01  -7.1141829889111705E+01  -7.1106889562669764E+01
  -7.1071559064405349E+01  -7.1035834757345683E+01  -7.0999712981514804E+01
  -7.0963190053722926E+01  -7.0926262267336654E+01  -7.0888925892042451E+01
  -7.0851177173592362E+01  -7.0813012333538410E+01  -7.0774427568953058E+01
  -7.0735419052135924E+01  -7.0695982930306002E+01  -7.0656115325284006E+01
  -7.0615812333153912E+01  -7.0575070023920105E+01  -7.0533884441143698E+01
  -7.0492251601571425E+01  -7.0450167494749991E+01  -7.0407628082626829E+01
  -7.0364629299144596E+01  -7.0321167049818357E+01  -7.0277237211308361E+01
  -7.0232835630981327E+01  -7.0187958126462505E+01  -7.0142600485185909E+01
  -7.0096758463929930E+01  -7.0050427788357382E+01  -7.0003604152547837E+01
  -6.9956283218528426E+01  -6.9908460615806362E+01  -6.9860131940904381E+01
  -6.9811292756895739E+01  -6.9761938592953626E+01  -6.9712064943897744E+01
  -6.9661667269763726E+01  -6.9610740995375835E+01  -6.9559281509942181E+01
  -6.9507284166666622E+01  -6.9454744282379380E+01  -6.9401657137198214E+01
  -6.9348017974210975E+01  -6.9293821999193227E+01  -6.9239064380359054E+01
  -6.9183740248147600E+01  -6.9127844695051579E+01  -6.9071372775491881E+01
  -6.9014319505734576E+01  -6.8956679863864920E+01  -6.8898448789811326E+01
  -6.8839621185428868E+01  -6.8780191914645854E+01  -6.8720155803669428E+01
  -6.8659507641266188E+01  -6.8598242179107373E+01  -6.8536354132192173E+01
  -6.8473838179347567E+01  -6.8410688963807374E+01  -6.8346901093879268E+01
  -6.8282469143692609E+01  -6.8217387654045297E+01  -6.8151651133338689E+01
  -6.8085254058618659E+01  -6.8018190876715650E+01  -6.7950456005501621E+01
  -6.7882043835260674E+01  -6.7812948730190726E+01  -6.7743165030039947E+01
  -6.7672687051895593E+01  -6.7601509092138059E+01  -6.7529625428578754E+01
  -6.7457030322805494E+01  -6.7383718022756980E+01  -6.7309682765564503E+01
  -6.7234918780687380E+01  -6.7159420293392529E+01  -6.7083181528618326E+01
  -6.7006196715279032E+01  -6.6928460091071244E+01  -6.6849965907841892E+01
  -6.6770708437595360E+01  -6.6690681979209657E+01  -6.6609880865941548E+01
  -6.6528299473798938E+01  -6.6445932230856002E+01  -6.6362773627580552E+01
  -6.6278818228234769E+01  -6.6194060683389083E+01  -6.6108495743572405E+01
  -6.6022118274046491E+01  -6.5934923270654267E+01  -6.5846905876649714E+01
  -6.5758061400348339E+01  -6.5668385333386894E+01  -6.5577873369293059E+01
  -6.5486521421991924E+01  -6.5394325643794815E+01  -6.5301282442311248E+01
  -6.5207388495667928E+01  -6.5112640765327001E+01  -6.5017036505720043E+01
  -6.4920573269920752E+01  -6.4823248910508354E+01  -6.4725061574835948E+01
  -6.4626009693978858E+01  -6.4526091964711242E+01  -6.4425307324061308E+01
  -6.4323654916167328E+01  -6.4221134051394543E+01  -6.4117744158000377E+01
  -6.4013484726871738E+01  -6.3908355250179376E+01  -6.3802355155198796E+01
  -6.3695483734783551E+01  -6.3587740075769503E+01  -6.3479122987692378E+01
  -6.3369630933273363E+01  -6.3259261962707484E+01  -6.3148013653452352E+01
  -6.3035883057089563E+01  -6.2922866654543142E+01  -6.2808960320616514E+01
  -6.2694159298509931E+01  -6.2578458184644866E+01  -6.2461850923819355E+01
  -6.2344330814565431E+01  -6.2225890524336712E+01  -6.2106522114178745E+01
  -6.1986217072438890E+01  -6.1864966357123748E+01  -6.1742760446527775E+01
  -6.1619589397701887E+01  -6.1495442912252464E+01  -6.1370310408786864E+01
  -6.1244181101011513E+01  -6.1117044080201595E+01  -6.0988888400387950E+01
  -6.0859703164264900E+01  -6.0729477607656584E+01  -6.0598201180236472E+01
  -6.0465863620314920E+01  -6.0332455021799547E+01  -6.0197965891792883E+01
  -6.0062387197889969E+01  -5.9925710404772154E+01  -5.9787927500242112E+01
  -5.9649031011370397E+01  -5.9509014011728731E+01  -5.9367870120949313E+01
  -5.9225593497938334E+01  -5.9082178828998302E+01  -5.8937621312056073E+01
  -5.8791916637958927E+01  -5.8645060969617539E+01  -5.8497050919603900E+01
  -5.8347883526584418E+01  -5.8197556230879002E+01  -5.8046066849329961E+01
  -5.7893413549569871E+01  -5.7739594823814471E+01  -5.7584609462240238E+01
  -5.7428456526052422E+01  -5.7271135320375109E+01  -5.7112645367081178E+01
  -5.6952986377738576E+01  -5.6792158226849388E+01  -5.6630160925548672E+01
  -5.6466994595985859E+01  -5.6302659446549995E+01  -5.6137155748144771E+01
  -5.5970483811704511E+01  -5.5802643967108928E+01  -5.5633636543694962E+01
  -5.5463461852522727E+01  -5.5292120170555904E+01  -5.5119611726933194E+01
  -5.4945936691476525E+01  -5.4771095165590900E+01  -5.4595087175725496E+01
  -5.4417912669523922E+01  -5.4239571514824910E+01  -5.4060063501659684E+01
  -5.3879388347361719E+01  -5.3697545704946585E+01  -5.3514535174857230E+01
  -5.3330356320205603E+01  -5.3145008685607984E+01  -5.2958491819705209E+01
  -5.2770805301468023E+01  -5.2581948770368008E+01  -5.2391921960498806E+01
  -5.2200724738757252E+01  -5.2008357147179055E+01  -5.1814819449570706E+01
  -5.1620112182607549E+01  -5.1424236211579583E+01  -5.1227192791043883E+01
  -5.1028983630648618E+01  -5.0829610966420326E+01  -5.0629077637830711E+01
  -5.0427387170868741E+01  -5.0224543867277639E+01  -5.0020552899898910E+01
  -4.9815420413743411E+01  -4.9609153631986416E+01  -4.9401760965436594E+01
  -4.9193252123250780E+01  -4.8983638221727794E+01  -4.8772931886866154E+01
  -4.8561147345224860E+01  -4.8348300496395666E+01  -4.8134408959282304E+01
  -4.7919492083547816E+01  -4.7703570917027882E+01  -4.7486668119916509E+01
  -4.7268807817057791E+01  -4.7050015380787542E+01  -4.6830317138395230E+01
  -4.6609740000904409E+01  -4.6388311010953025E+01  -4.6166056813484516E+01
  -4.5943003053098018E+01  -4.5719173709630290E+01  -4.5494590388610057E+01
  -4.5269271592883520E+01  -4.5043232012411316E+01  -4.4816481886141062E+01
  -4.4589026497712958E+01  -4.4360865884008135E+01  -4.4131994830288200E+01
  -4.3902403215468148E+01  -4.3672076739199035E+01  -4.3440998015732880E+01
  -4.3209147963525396E+01  -4.2976507366208715E+01  -4.2743058443739223E+01
  -4.2508786263271212E+01  -4.2273679841652324E+01  -4.2037732840963393E+01
  -4.1800943823132293E+01  -4.1563316094430959E+01  -4.1324857222153597E+01
  -4.1085578335839543E+01  -4.0845493332401098E+01  -4.0604618092035494E+01
  -4.0362969786493885E+01  -4.0120566330442458E+01  -3.9877425996359655E+01
  -3.9633567187898635E+01  -3.9389008348187645E+01  -3.9143767968597210E+01
  -3.8897864659581579E+01  -3.8651317246919042E+01  -3.8404144862297152E+01
  -3.8156367005152475E+01  -3.7908003561260273E+01  -3.7659074771703125E+01
  -3.7409601152679848E+01  -3.7159603371673754E+01  -3.6909102088813988E+01
  -3.6658117773917645E+01  -3.6406670510018095E+01  -3.6154779793630205E+01
  -3.5902464340785968E+01  -3.5649741906434031E+01  -3.5396629123301594E+01
  -3.5143141364873365E+01  -3.4889292635943924E+01  -3.4635095493163035E+01
  -3.4380560997149288E+01  -3.4125698697129891E+01  -3.3870516648489613E+01
  -3.3615021463195689E+01  -3.3359218392670748E+01  -3.3103111442286135E+01
  -3.2846703516320183E+01  -3.2589996591846599E+01  -3.2332991919700028E+01
  -3.2075690250448389E+01  -3.1818092083171130E+01  -3.1560197935020618E+01
  -3.1302008630044270E+01  -3.1043525606725087E+01  -3.0784751245346410E+01
  -3.0525689218592269E+01  -3.0266344871869240E+01  -3.0006725643531670E+01
  -2.9746841539146388E+01  -2.9486705677584208E+01  -2.9226334929057796E+01
  -2.8965750664830029E+01  -2.8704979633571678E+01  -2.8444054968296236E+01
  -2.8183017307902677E+01  -2.7921915991138132E+01  -2.7660810238244260E+01
  -2.7399770194511355E+01  -2.7138877653521984E+01  -2.6878226227573617E+01
  -2.6617920680655757E+01  -2.6358075100676572E+01  -2.6098809566709431E+01
  -2.5840244988590580E+01  -2.5582495889822507E+01  -2.5325661145270256E+01
  -2.5069813120208625E+01  -2.4814986338466987E+01  -2.4561167635844495E+01
  -2.4308290452964421E+01  -2.4056236019293756E+01  -2.3804843219765125E+01
  -2.3553926834173346E+01  -2.3303301186701507E+01  -2.3052804192170978E+01
  -2.2802316432098984E+01  -2.2551771521658949E+01  -2.2301156861076873E+01
  -2.2050506567160301E+01  -2.1799889900917730E+01  -2.1549398588748986E+01
  -2.1299135518807972E+01  -2.1049206064555111E+01  -2.0799712264870841E+01
  -2.0550749484308675E+01  -2.0302404953497390E+01  -2.0054757607255407E+01
  -1.9807878756417697E+01  -1.9561833257261771E+01  -1.9316680940159149E+01
  -1.9072478121978943E+01  -1.8829279066138284E+01  -1.8587137283481294E+01
  -1.8346106595351110E+01  -1.8106241910434136E+01  -1.7867599697805183E+01
  -1.7630238166805238E+01  -1.7394217186797079E+01  -1.7159597994536433E+01
  -1.6926442743732469E+01  -1.6694813951387012E+01  -1.6464773890520874E+01
  -1.6236383970983187E+01  -1.6009704140896840E+01  -1.5784792332300983E+01
  -1.5561703966563464E+01  -1.5340491528528682E+01  -1.5121204213282883E+01
  -1.4903887645750542E+01  -1.4688583670809759E+01  -1.4475330210085643E+01
  -1.4264161180674243E+01  -1.4055106470665098E+01  -1.3848191966237888E+01
  -1.3643439625172675E+01  -1.3440867591797403E+01  -1.3240490348583986E+01
  -1.3042318899782174E+01  -1.2846360982654312E+01  -1.2652621301993195E+01
  -1.2461101783699457E+01  -1.2271801843299205E+01  -1.2084718665295426E+01
  -1.1899847489554974E+01  -1.1717181900344752E+01  -1.1536714115002646E+01
  -1.1358435267874894E+01  -1.1182335686446260E+01  -1.1008405156208509E+01
  -1.0836633171172823E+01  -1.0667009166614047E+01  -1.0499522731685058E+01
  -1.0334163797902299E+01  -1.0170922800634743E+01  -1.0009790809224192E+01
  -9.8507596215154791E+00  -9.6938218170821226E+00  -9.5389707630857696E+00
  -9.3862005658670533E+00  -9.2355059611206460E+00  -9.0868821363425898E+00
  -8.9403244799816832E+00  -8.7958282558480292E+00  -8.6533882047937549E+00
  -8.5129980822978712E+00  -8.3746501477375350E+00  -8.2383346290709181E+00
  -8.1040391943086707E+00  -7.9717484671835095E+00  -7.8414436276170569E+00
  -7.7131021367462544E+00  -7.5866976205840757E+00  -7.4621999359208004E+00
  -7.3395754274870209E+00  -7.2187873683556969E+00  -7.0997965583389746E+00
  -6.9825620401174744E+00  -6.8670418823457906E+00  -6.7531939744859608E+00
  -6.6409767800897743E+00  -6.5303500031309891E+00  -6.4212751341740182E+00
  -6.3137158575463230E+00  -6.2076383151334005E+00  -6.1030112349181875E+00
  -5.9998059418281304E+00  -5.8979962741654210E+00  -5.7975584310191604E+00
  -5.6984707752322405E+00  -5.6007136134889359E+00  -5.5042689708855796E+00
  -5.4091203727471164E+00  -5.3152526420421298E+00  -5.2226517169935631E+00
  -5.1313044905486596E+00  -5.0411986712810117E+00  -4.9523226640296691E+00
  -4.8646654679411281E+00  -4.7782165894151847E+00  -4.6929659676583499E+00
  -4.6089039108778200E+00  -4.5260210416054436E+00  -4.4443082500654718E+00
  -4.3637566548633595E+00  -4.2843575705827801E+00  -4.2061024820634492E+00
  -4.1289830252348825E+00  -4.0529909744308066E+00  -3.9781182360457246E+00
  -3.9043568483270161E+00  -3.8316989869724245E+00  -3.7601369761162005E+00
  -3.6896633039626985E+00  -3.6202706425750972E+00  -3.5519518707388529E+00
  -3.4847000991155026E+00  -3.4185086966178493E+00  -3.3533713169920216E+00
  -3.2892819245660103E+00  -3.2262348181411249E+00  -3.1642246520994757E+00
  -3.1032464535469666E+00  -3.0432956363637391E+00  -2.9843680069385781E+00
  -2.9264597681713620E+00  -2.8695675142428345E+00  -2.8136882198235176E+00
  -2.7588192217145653E+00  -2.7049581926615365E+00  -2.6521031065706335E+00
  -2.6002521942669903E+00  -2.5494038887266970E+00  -2.4995567585108147E+00
  -2.4507094280285808E+00  -2.4028604832286793E+00  -2.3560083614884459E+00
  -2.3101512249173082E+00  -2.2652868169702889E+00  -2.2214123033466078E+00
  -2.1785240994848398E+00  -2.1366176885518562E+00  -2.0956874355775184E+00
  -2.0557264050305042E+00  -2.0167261905650093E+00  -1.9786767666039744E+00
  -1.9415663716274505E+00  -1.9053814324277656E+00  -1.8701065370197247E+00
  -1.8357244614444044E+00  -1.8022162525616758E+00  -1.7695613653325690E+00
  -1.7377378494261766E+00  -1.7067225766850940E+00  -1.6764914982286772E+00
  -1.6470199186721128E+00  -1.6182827731642324E+00  -1.5902548958005962E+00
  -1.5629112664749234E+00  -1.5362272280667109E+00  -1.5101786671746611E+00
  -1.4847421549495063E+00  -1.4598950471975429E+00  -1.4356155453012376E+00
  -1.4118827213216907E+00  -1.3886765118812481E+00  -1.3659776861257940E+00
  -1.3437677932021541E+00  -1.3220290944503137E+00  -1.3007444849949250E+00
  -1.2798974086696151E+00  -1.2594717694709459E+00  -1.2394518419386920E+00
  -1.2198221821765047E+00  -1.2005675406639038E+00  -1.1816727775549438E+00
  -1.1631227808989866E+00  -1.1449023880954892E+00  -1.1269963108900232E+00
  -1.1093890644267170E+00  -1.0920649011283792E+00  -1.0750077506045779E+00
  -1.0582011673286358E+00  -1.0416282884013288E+00  -1.0252718044479499E+00
  -1.0091139474121065E+00  -9.9313649973519735E-01  -9.7732083012987236E-01
  -9.6164796167649946E-01  -9.4609867832338723E-01  -9.3065367587166048E-01
  -9.1529376301318588E-01  -9.0000011694572690E-01  -8.8475459624315733E-01
  -8.6954011102515227E-01  -8.5434104701406699E-01  -8.3914373571280687E-01
  -8.2393695886558849E-01  -8.0871246587459533E-01  -7.9346549122314081E-01
  -7.7819522956803611E-01  -7.6290525412396970E-01  -7.4760383807661657E-01
  -7.3230415331033394E-01  -7.1702432058851717E-01  -7.0178729264225093E-01
  -6.8662056033682284E-01  -6.7155568223015838E-01  -6.5662764850827582E-01
  -6.4187410035076198E-01  -6.2733443434522351E-01  -6.1304882779889602E-01
  -5.9905722422326912E-01  -5.8539831878369497E-01  -5.7210858130364173E-01
  -5.5922135000031159E-01  -5.4676602316657608E-01  -5.3476736922900447E-01
  -5.2324496870190340E-01  -5.1221279508706974E-01  -5.0167893616455494E-01
  -4.9164545260459130E-01  -4.8210836748516772E-01  -4.7305777806651805E-01
  -4.6447807986424683E-01  -4.5634829248619979E-01  -4.4864247658083939E-01
  -4.4133023134172228E-01  -4.3437726214185213E-01  -4.2774600781794980E-01
  -4.2139631682671791E-01  -4.1528616089395010E-01  -4.0937237388780118E-01
  -4.0361140259803113E-01  -3.9796005499734105E-01  -3.9237623060285781E-01
  -3.8681961694932943E-01  -3.8125233608586812E-01  -3.7563952562823710E-01
  -3.6994984049583324E-01  -3.6415586201700573E-01  -3.5823443001026473E-01
  -3.5216418441884756E-01  -3.4594229202881849E-01  -3.3953957500841325E-01
  -3.3296670182237709E-01  -3.2621669324814723E-01  -3.1929307062181639E-01
  -3.1220232495883071E-01  -3.0495411243493364E-01  -2.9756086036885576E-01
  -2.9003732430405083E-01  -2.8240014126263868E-01  -2.7466739180146671E-01
  -2.6685818142415113E-01  -2.5899224976853674E-01  -2.5108961382447759E-01
  -2.4317024936285250E-01  -2.3525381286365152E-01  -2.2735940458413387E-01
  -2.1950537203856593E-01  -2.1170915207889224E-01  -2.0398714896245698E-01
  -1.9635464524422577E-01  -1.8882574200563368E-01  -1.8141332479503322E-01
  -1.7412905166730580E-01  -1.6698335983911317E-01  -1.5998548768797374E-01
  -1.5314350909096455E-01  -1.4646437739895354E-01  -1.3995397665598686E-01
  -1.3361717798658237E-01  -1.2745789937562044E-01  -1.2147916734866541E-01
  -1.1568317932032660E-01  -1.1007136561218814E-01  -1.0464445034856544E-01
  -9.9402510618659637E-02  -9.4345033448342316E-02  -8.9470970255615345E-02
  -8.4778788573031089E-02  -8.0266520909872963E-02  -7.5931810699315774E-02
  -7.1771955333187837E-02  -6.7783946331337525E-02  -6.3964506726193512E-02
  -6.0310125767389623E-02  -5.6817091068044848E-02  -5.3481518324869901E-02
  -5.0299378749758927E-02  -4.7266524352194937E-02  -4.4378711210360439E-02
  -4.1631620865128741E-02  -3.9020879965789422E-02  -3.6542078289817981E-02
  -3.4190785251808062E-02  -3.1962565009076391E-02  -2.9852990263707302E-02
     </PP_GIPAW_VLOCAL_AE>
     <PP_GIPAW_VLOCAL_PS size="1164">
   0.0000000000000000E+00  -9.1234753178446343E-05  -9.2335093872048497E-05
  -9.3516713882745009E-05  -9.4695182848449137E-05  -9.5887679725522299E-05
  -9.7093257509900299E-05  -9.8313777076211706E-05  -9.9551491440843013E-05
  -1.0080295297562344E-04  -1.0207192532677395E-04  -1.0335494837450736E-04
  -1.0465511566804640E-04  -1.0597187597159053E-04  -1.0730456724808805E-04
  -1.0865508351079388E-04  -1.1002055266660522E-04  -1.1140518917535548E-04
  -1.1280678686420666E-04  -1.1422494193119738E-04  -1.1566257498503255E-04
  -1.1711695720479537E-04  -1.1858987319611437E-04  -1.2008206198719601E-04
  -1.2159252905346557E-04  -1.2312200584717285E-04  -1.2467023880887991E-04
  -1.2623865981462097E-04  -1.2782676438288632E-04  -1.2943453983926655E-04
  -1.3106276351206977E-04  -1.3271100400953661E-04  -1.3438070450337087E-04
  -1.3607057948635605E-04  -1.3778230873266685E-04  -1.3951565064016368E-04
  -1.4127066895881633E-04  -1.4304716315133851E-04  -1.4484664923039572E-04
  -1.4666871285383778E-04  -1.4851387979544894E-04  -1.5038146004287990E-04
  -1.5227309303530128E-04  -1.5418845010664600E-04  -1.5612837990887162E-04
  -1.5809181486802905E-04  -1.6008044539951761E-04  -1.6209424524282995E-04
  -1.6413296566305925E-04  -1.6619740003390119E-04  -1.6828825331464994E-04
  -1.7040471332877390E-04  -1.7254835397879697E-04  -1.7471873147969474E-04
  -1.7691674087989554E-04  -1.7914160963747132E-04  -1.8139490694517253E-04
  -1.8367723196724796E-04  -1.8598683620194668E-04  -1.8832679369165211E-04
  -1.9069529150482904E-04  -1.9309425532968325E-04  -1.9552289023322942E-04
  -1.9798275602121089E-04  -2.0047244219911618E-04  -2.0299452019899297E-04
  -2.0554754115510864E-04  -2.0813333050543215E-04  -2.1075106468604590E-04
  -2.1340198596688249E-04  -2.1608677074694919E-04  -2.1880430240256332E-04
  -2.2155682036776832E-04  -2.2434341729497649E-04  -2.2716548135590084E-04
  -2.3002284466999478E-04  -2.3291627026535361E-04  -2.3584601290258509E-04
  -2.3881249317688052E-04  -2.4181607508983065E-04  -2.4485820840837870E-04
  -2.4793823701529526E-04  -2.5105664183251031E-04  -2.5421469978086005E-04
  -2.5741227783374814E-04  -2.6064992525660029E-04  -2.6392895128552840E-04
  -2.6724851882533338E-04  -2.7061026245385310E-04  -2.7401371802862341E-04
  -2.7746073331854726E-04  -2.8095080184413143E-04  -2.8448448224927523E-04
  -2.8806308257024683E-04  -2.9168639595353264E-04  -2.9535535276539737E-04
  -2.9907067386147494E-04  -3.0283217527937213E-04  -3.0664167658084232E-04
  -3.1049856281925434E-04  -3.1440416294377653E-04  -3.1835906816283279E-04
  -3.2236328364806206E-04  -3.2641831333502137E-04  -3.3052410918408290E-04
  -3.3468153497733763E-04  -3.3889145447725316E-04  -3.4315396935561429E-04
  -3.4747052627993251E-04  -3.5184115316898236E-04  -3.5626657164517867E-04
  -3.6074809004972038E-04  -3.6528554933362440E-04  -3.6988041316601621E-04
  -3.7453300767748541E-04  -3.7924397734066329E-04  -3.8401417713811962E-04
  -3.8884474094705632E-04  -3.9373568934167357E-04  -3.9868816651699384E-04
  -4.0370311256954499E-04  -4.0878114043187711E-04  -4.1392301322829971E-04
  -4.1912939082336940E-04  -4.2440148728806583E-04  -4.2973983876702963E-04
  -4.3514512944887074E-04  -4.4061885408240917E-04  -4.4616091860436171E-04
  -4.5177308003450895E-04  -4.5745567288468531E-04  -4.6320976026768557E-04
  -4.6903612198206913E-04  -4.7493609523484488E-04  -4.8090980450653020E-04
  -4.8695907705375142E-04  -4.9308422671252362E-04  -4.9928647390416660E-04
  -5.0556670742968270E-04  -5.1192594160047043E-04  -5.1836523114916124E-04
  -5.2488553719706179E-04  -5.3148764650907542E-04  -5.3817301974503707E-04
  -5.4494233577393565E-04  -5.5179690808932239E-04  -5.5873766970964312E-04
  -5.6576577055550425E-04  -5.7288222887332831E-04  -5.8008814961879845E-04
  -5.8738476329779252E-04  -5.9477316087124931E-04  -6.0225456843560044E-04
  -6.0982987852980998E-04  -6.1750068512345601E-04  -6.2526795017175084E-04
  -6.3313265632807154E-04  -6.4109663451410572E-04  -6.4916066229189231E-04
  -6.5732600805733048E-04  -6.6559420908905047E-04  -6.7396638115376525E-04
  -6.8244374274739920E-04  -6.9102799048648372E-04  -6.9971986115390785E-04
  -7.0852145941524168E-04  -7.1743341876345237E-04  -7.2645762380701723E-04
  -7.3559540913677374E-04  -7.4484806880037869E-04  -7.5421702320940408E-04
  -7.6370397672898503E-04  -7.7331009451837417E-04  -7.8303732340719424E-04
  -7.9288656811663091E-04  -8.0285995315848124E-04  -8.1295863013640748E-04
  -8.2318439434764907E-04  -8.3353878110422187E-04  -8.4402345950348805E-04
  -8.5463998691762686E-04  -8.6538993087278537E-04  -8.7627524825697762E-04
  -8.8729755752898196E-04  -8.9845817564709635E-04  -9.0975954612588898E-04
  -9.2120286572194214E-04  -9.3279012862173194E-04  -9.4452329771720902E-04
  -9.5640379914236490E-04  -9.6843397884160932E-04  -9.8061535089686474E-04
  -9.9295003240817666E-04  -1.0054396961827426E-03  -1.0180866982249319E-03
  -1.0308925302706757E-03  -1.0438596470690085E-03  -1.0569897816962374E-03
  -1.0702850335715798E-03  -1.0837476146514742E-03  -1.0973794893928113E-03
  -1.1111827253000089E-03  -1.1251597779800757E-03  -1.1393125514079882E-03
  -1.1536432994522475E-03  -1.1681544291774581E-03  -1.1828478884212280E-03
  -1.1977263495224436E-03  -1.2127918957384911E-03  -1.2280469177020469E-03
  -1.2434938861003433E-03  -1.2591350610953026E-03  -1.2749730527297032E-03
  -1.2910102624006025E-03  -1.3072491546241907E-03  -1.3236923662682128E-03
  -1.3403423175662188E-03  -1.3572017605798473E-03  -1.3742732667414335E-03
  -1.3915595342450114E-03  -1.4090631426927252E-03  -1.4267869893323203E-03
  -1.4447337714324898E-03  -1.4629063179132948E-03  -1.4813073276227862E-03
  -1.4999399768565774E-03  -1.5188068579151711E-03  -1.5379111243759419E-03
  -1.5572556074468689E-03  -1.5768435320502269E-03  -1.5966777584610454E-03
  -1.6167614881023944E-03  -1.6370978499941256E-03  -1.6576900473647951E-03
  -1.6785411461780239E-03  -1.6996546383054852E-03  -1.7210336662253430E-03
  -1.7426816237023806E-03  -1.7646018318538850E-03  -1.7867977753943513E-03
  -1.8092729776583475E-03  -1.8320307819226181E-03  -1.8550749360276078E-03
  -1.8784088922471529E-03  -1.9020363583581029E-03  -1.9259609924468426E-03
  -1.9501866946049988E-03  -1.9747169730283272E-03  -1.9995558637554401E-03
  -2.0247071620566994E-03  -2.0501748389478080E-03  -2.0759629071076613E-03
  -2.1020752722103703E-03  -2.1285161545158454E-03  -2.1552895359358481E-03
  -2.1823998116742853E-03  -2.2098509664794344E-03  -2.2376475001656916E-03
  -2.2657936340643131E-03  -2.2942938275322343E-03  -2.3231524721416355E-03
  -2.3523741511185113E-03  -2.3819633483282364E-03  -2.4119247729628228E-03
  -2.4422630727753613E-03  -2.4729829225831976E-03  -2.5040892602181345E-03
  -2.5355867953401863E-03  -2.5674805922698131E-03  -2.5997754658854161E-03
  -2.6324766591822456E-03  -2.6655891225361964E-03  -2.6991180898380575E-03
  -2.7330688632315053E-03  -2.7674466044720907E-03  -2.8022567799535548E-03
  -2.8375048607500353E-03  -2.8731962995601386E-03  -2.9093366419660409E-03
  -2.9459315637826652E-03  -2.9829868382426363E-03  -3.0205082013850786E-03
  -3.0585015237167366E-03  -3.0969727098908140E-03  -3.1359278690742476E-03
  -3.1753729621995228E-03  -3.2153142388387916E-03  -3.2557579179041244E-03
  -3.2967102937759992E-03  -3.3381778649476195E-03  -3.3801668964838403E-03
  -3.4226842032187006E-03  -3.4657362597857624E-03  -3.5093298487348283E-03
  -3.5534718053864753E-03  -3.5981689647689948E-03  -3.6434283539905649E-03
  -3.6892570550050119E-03  -3.7356621658620501E-03  -3.7826510483700659E-03
  -3.8302309373355490E-03  -3.8784092836809930E-03  -3.9271936781665488E-03
  -3.9765917109149066E-03  -4.0266110488724619E-03  -4.0772596010245537E-03
  -4.1285452102648550E-03  -4.1804759008822415E-03  -4.2330598208316179E-03
  -4.2863051771112543E-03  -4.3402202249887807E-03  -4.3948134906112938E-03
  -4.4500934359432117E-03  -4.5060687304207519E-03  -4.5627480872609122E-03
  -4.6201403849474142E-03  -4.6782546096174431E-03  -4.7370997872948324E-03
  -4.7966851880307994E-03  -4.8570200514066108E-03  -4.9181138321782291E-03
  -4.9799760835520478E-03  -5.0426164996340830E-03  -5.1060447769518749E-03
  -5.1702709236254533E-03  -5.2353049144425266E-03  -5.3011569465356767E-03
  -5.3678372928991965E-03  -5.4353563709941422E-03  -5.5037247307081370E-03
  -5.5729530648017268E-03  -5.6430521861448660E-03  -5.7140330301533801E-03
  -5.7859067172582219E-03  -5.8586844665508009E-03  -5.9323776546600891E-03
  -6.0069977537932388E-03  -6.0825564985128797E-03  -6.1590656141073501E-03
  -6.2365371364114467E-03  -6.3149831076391863E-03  -6.3944158087636364E-03
  -6.4748476571827142E-03  -6.5562912190745013E-03  -6.6387591825797501E-03
  -6.7222645140776107E-03  -6.8068201596299914E-03  -6.8924394265454268E-03
  -6.9791356408807166E-03  -7.0669223461800280E-03  -7.1558132817194954E-03
  -7.2458223261586832E-03  -7.3369635402250914E-03  -7.4292511764983919E-03
  -7.5226996456418749E-03  -7.6173235495424606E-03  -7.7131376867691798E-03
  -7.8101569904360261E-03  -7.9083966652010642E-03  -8.0078720407139644E-03
  -8.1085986639035067E-03  -8.2105922770538305E-03  -8.3138687960260232E-03
  -8.4184443789286339E-03  -8.5243353660286823E-03  -8.6315582866986363E-03
  -8.7401299204828628E-03  -8.8500672034965630E-03  -8.9613873355031230E-03
  -9.0741076967174681E-03  -9.1882459061057194E-03  -9.3038197896928767E-03
  -9.4208474356357839E-03  -9.5393470777405329E-03  -9.6593372878872857E-03
  -9.7808367717235785E-03  -9.9038645343632221E-03  -1.0028439795397793E-02
  -1.0154582015297502E-02  -1.0282310909091855E-02  -1.0411646458208143E-02
  -1.0542608814668666E-02  -1.0675218484274876E-02  -1.0809496179849975E-02
  -1.0945462876474292E-02  -1.1083139828128970E-02  -1.1222548540461060E-02
  -1.1363710799208046E-02  -1.1506648649677875E-02  -1.1651384442972670E-02
  -1.1797940789540242E-02  -1.1946340582493400E-02  -1.2096607013066637E-02
  -1.2248763567562521E-02  -1.2402834010108917E-02  -1.2558842420368038E-02
  -1.2716813170796665E-02  -1.2876770944346182E-02  -1.3038740745465410E-02
  -1.3202747872718528E-02  -1.3368817952412028E-02  -1.3536976932284660E-02
  -1.3707251090983304E-02  -1.3879667031081231E-02  -1.4054251705597473E-02
  -1.4231032373384736E-02  -1.4410036659066814E-02  -1.4591292563615884E-02
  -1.4774828356429716E-02  -1.4960672757274807E-02  -1.5148854795277710E-02
  -1.5339403856362262E-02  -1.5532349735742634E-02  -1.5727722568556673E-02
  -1.5925552894787302E-02  -1.6125871605124999E-02  -1.6328710017565654E-02
  -1.6534099820794658E-02  -1.6742073105088583E-02  -1.6952662369712278E-02
  -1.7165900514025258E-02  -1.7381820863754709E-02  -1.7600457148367495E-02
  -1.7821843539592847E-02  -1.8046014624387569E-02  -1.8273005431759175E-02
  -1.8502851420012126E-02  -1.8735588522079242E-02  -1.8971253080212313E-02
  -1.9209881933131025E-02  -1.9451512362779436E-02  -1.9696182121122278E-02
  -1.9943929450050312E-02  -2.0194793039143136E-02  -2.0448812105904886E-02
  -2.0706026322944382E-02  -2.0966475901488823E-02  -2.1230201520256977E-02
  -2.1497244390566002E-02  -2.1767646247199447E-02  -2.2041449325290560E-02
  -2.2318696414342837E-02  -2.2599430838192068E-02  -2.2883696454290565E-02
  -2.3171537688538558E-02  -2.3462999501763740E-02  -2.3758127454903445E-02
  -2.4056967649279112E-02  -2.4359566767794074E-02  -2.4665972113529985E-02
  -2.4976231559886534E-02  -2.5290393561631864E-02  -2.5608507241385015E-02
  -2.5930622274541747E-02  -2.6256789005841177E-02  -2.6587058395399731E-02
  -2.6921482052836850E-02  -2.7260112226025361E-02  -2.7603001826728948E-02
  -2.7950204434572960E-02  -2.8301774292275463E-02  -2.8657766344781770E-02
  -2.9018236203429547E-02  -2.9383240200496170E-02  -2.9752835365898289E-02
  -3.0127079440800179E-02  -3.0506030912959815E-02  -3.0889748986005508E-02
  -3.1278293610573778E-02  -3.1671725511074736E-02  -3.2070106149097090E-02
  -3.2473497773121363E-02  -3.2881963416711284E-02  -3.3295566900890222E-02
  -3.3714372845997202E-02  -3.4138446694558504E-02  -3.4567854706259352E-02
  -3.5002663980511162E-02  -3.5442942446531941E-02  -3.5888758902164038E-02
  -3.6340183004305852E-02  -3.6797285288077464E-02  -3.7260137177919463E-02
  -3.7728810986881973E-02  -3.8203379946925825E-02  -3.8683918212512589E-02
  -3.9170500858805822E-02  -3.9663203923366884E-02  -4.0162104380821739E-02
  -4.0667280184395999E-02  -4.1178810271768708E-02  -4.1696774566375258E-02
  -4.2221253993996621E-02  -4.2752330503908982E-02  -4.3290087082830539E-02
  -4.3834607745432831E-02  -4.4385977572348308E-02  -4.4944282717521440E-02
  -4.5509610406517395E-02  -4.6082048979623223E-02  -4.6661687865281590E-02
  -4.7248617644668353E-02  -4.7842930010053124E-02  -4.8444717827258357E-02
  -4.9054075118612539E-02  -4.9671097100232382E-02  -5.0295880168360473E-02
  -5.0928521950709314E-02  -5.1569121289319168E-02  -5.2217778280597545E-02
  -5.2874594263833022E-02  -5.3539671869869639E-02  -5.4213115012600642E-02
  -5.4895028907300081E-02  -5.5585520104825183E-02  -5.6284696489754017E-02
  -5.6992667299006317E-02  -5.7709543152003918E-02  -5.8435436053337786E-02
  -5.9170459416190799E-02  -5.9914728088644238E-02  -6.0668358347469649E-02
  -6.1431467949960579E-02  -6.2204176119595105E-02  -6.2986603586290657E-02
  -6.3778872599083117E-02  -6.4581106937702581E-02  -6.5393431950190428E-02
  -6.6215974548024040E-02  -6.7048863249796212E-02  -6.7892228180376851E-02
  -6.8746201109531363E-02  -6.9610915460347450E-02  -7.0486506331905466E-02
  -7.1373110530054157E-02  -7.2270866568605499E-02  -7.3179914716550262E-02
  -7.4100396996147858E-02  -7.5032457224500596E-02  -7.5976241016911084E-02
  -7.6931895832091785E-02  -7.7899570973967686E-02  -7.8879417628537285E-02
  -7.9871588877951982E-02  -8.0876239737558281E-02  -8.1893527165363314E-02
  -8.2923610093218358E-02  -8.3966649455285383E-02  -8.5022808210166056E-02
  -8.6092251357413344E-02  -8.7175145983004715E-02  -8.8271661263380000E-02
  -8.9381968507978624E-02  -9.0506241181061223E-02  -9.1644654926401087E-02
  -9.2797387592938763E-02  -9.3964619272198416E-02  -9.5146532315064272E-02
  -9.6343311371102996E-02  -9.7555143403202357E-02  -9.8782217729967384E-02
  -1.0002472605596482E-01  -1.0128286248264162E-01  -1.0255682356465222E-01
  -1.0384680832094841E-01  -1.0515301827410763E-01  -1.0647565748231563E-01
  -1.0781493256785539E-01  -1.0917105274780918E-01  -1.1054422987825895E-01
  -1.1193467846721326E-01  -1.1334261572796554E-01  -1.1476826160423025E-01
  -1.1621183879876003E-01  -1.1767357281963678E-01  -1.1915369200807183E-01
  -1.2065242757535172E-01  -1.2217001364099285E-01  -1.2370668726412577E-01
  -1.2526268848709082E-01  -1.2683826037039819E-01  -1.2843364902501550E-01
  -1.3004910366111566E-01  -1.3168487661688622E-01  -1.3334122340596236E-01
  -1.3501840275206903E-01  -1.3671667662803799E-01  -1.3843631030547937E-01
  -1.4017757238512712E-01  -1.4194073484418016E-01  -1.4372607308170371E-01
  -1.4553386595209292E-01  -1.4736439582006866E-01  -1.4921794859484908E-01
  -1.5109481378093528E-01  -1.5299528451926525E-01  -1.5491965763685758E-01
  -1.5686823368751598E-01  -1.5884131700504947E-01  -1.6083921574351520E-01
  -1.6286224193463478E-01  -1.6491071152416570E-01  -1.6698494443263298E-01
  -1.6908526459814791E-01  -1.7121200002755843E-01  -1.7336548284925302E-01
  -1.7554604936938162E-01  -1.7775404010761420E-01  -1.7998979987351757E-01
  -1.8225367779890955E-01  -1.8454602740695208E-01  -1.8686720665824488E-01
  -1.8921757801052752E-01  -1.9159750847596560E-01  -1.9400736967111293E-01
  -1.9644753788542016E-01  -1.9891839413191045E-01  -2.0142032420448386E-01
  -2.0395371875016335E-01  -2.0651897331233088E-01  -2.0911648840753022E-01
  -2.1174666957834287E-01  -2.1440992745836340E-01  -2.1710667783919965E-01
  -2.1983734172991998E-01  -2.2260234542662158E-01  -2.2540212057541423E-01
  -2.2823710424091920E-01  -2.3110773897474618E-01  -2.3401447288146957E-01
  -2.3695775968790633E-01  -2.3993805882103034E-01  -2.4295583546590002E-01
  -2.4601156064956453E-01  -2.4910571130668643E-01  -2.5223877035819492E-01
  -2.5541122677995470E-01  -2.5862357568596567E-01  -2.6187631839814945E-01
  -2.6516996252753983E-01  -2.6850502205315868E-01  -2.7188201739660373E-01
  -2.7530147550893885E-01  -2.7876392994802729E-01  -2.8226992096085185E-01
  -2.8581999556767002E-01  -2.8941470764916910E-01  -2.9305461802405403E-01
  -2.9674029454551704E-01  -3.0047231218103870E-01  -3.0425125310324314E-01
  -3.0807770678167667E-01  -3.1195227006968945E-01  -3.1587554729951872E-01
  -3.1984815037363029E-01  -3.2387069885817460E-01  -3.2794382008063694E-01
  -3.3206814922262595E-01  -3.3624432942047128E-01  -3.4047301186240703E-01
  -3.4475485588833710E-01  -3.4909052909101668E-01  -3.5348070742071308E-01
  -3.5792607528206533E-01  -3.6242732564818025E-01  -3.6698516015805460E-01
  -3.7160028922918686E-01  -3.7627343216411463E-01  -3.8100531726007808E-01
  -3.8579668192034627E-01  -3.9064827276894015E-01  -3.9556084575835943E-01
  -4.0053516629354424E-01  -4.0557200933926074E-01  -4.1067215954437203E-01
  -4.1583641136010707E-01  -4.2106556915640253E-01  -4.2636044734980266E-01
  -4.3172187052361055E-01  -4.3715067355235049E-01  -4.4264770173178747E-01
  -4.4821381090240958E-01  -4.5384986758118884E-01  -4.5955674909354338E-01
  -4.6533534370174068E-01  -4.7118655074283688E-01  -4.7711128076439374E-01
  -4.8311045565495225E-01  -4.8918500879259291E-01  -4.9533588517705890E-01
  -5.0156404157403389E-01  -5.0787044666146752E-01  -5.1425608116890786E-01
  -5.2072193802959599E-01  -5.2726902252576535E-01  -5.3389835243819350E-01
  -5.4061095820082095E-01  -5.4740788305043409E-01  -5.5429018318436496E-01
  -5.6125892791689624E-01  -5.6831519983569656E-01  -5.7546009496481920E-01
  -5.8269472292574498E-01  -5.9002020709919567E-01  -5.9743768479411863E-01
  -6.0494830741242756E-01  -6.1255324061897409E-01  -6.2025366451294761E-01
  -6.2805077379961816E-01  -6.3594577796586482E-01  -6.4393990145603142E-01
  -6.5203438385082657E-01  -6.6023048004718610E-01  -6.6852946043974049E-01
  -6.7693261110548220E-01  -6.8544123399009582E-01  -6.9405664709342885E-01
  -7.0278018466224390E-01  -7.1161319737891748E-01  -7.2055705255608260E-01
  -7.2961313433255626E-01  -7.3878284386944038E-01  -7.4806759954970181E-01
  -7.5746883717987190E-01  -7.6698801019137330E-01  -7.7662658984844701E-01
  -7.8638606545197998E-01  -7.9626794454962269E-01  -8.0627375314737881E-01
  -8.1640503592041780E-01  -8.2666335642931055E-01  -8.3705029733552627E-01
  -8.4756746062009936E-01  -8.5821646780430594E-01  -8.6899896017105582E-01
  -8.7991659898964714E-01  -8.9097106574150020E-01  -9.0216406234708824E-01
  -9.1349731139743995E-01  -9.2497255638361719E-01  -9.3659156193039295E-01
  -9.4835611403230802E-01  -9.6026802028919533E-01  -9.7232911014448009E-01
  -9.8454123512691560E-01  -9.9690626909035474E-01  -1.0094261084586942E+00
  -1.0221026724703655E+00  -1.0349379034244499E+00  -1.0479337669300419E+00
  -1.0610922521541652E+00  -1.0744153720745266E+00  -1.0879051637306503E+00
  -1.1015636884776705E+00  -1.1153930322423611E+00  -1.1293953057781709E+00
  -1.1435726449225576E+00  -1.1579272108566787E+00  -1.1724611903628395E+00
  -1.1871767960866257E+00  -1.2020762667967793E+00  -1.2171618676471521E+00
  -1.2324358904406201E+00  -1.2479006538897779E+00  -1.2635585038829495E+00
  -1.2794118137464376E+00  -1.2954629845088568E+00  -1.3117144451662068E+00
  -1.3281686529452124E+00  -1.3448280935670718E+00  -1.3616952815125503E+00
  -1.3787727602836608E+00  -1.3960631026672450E+00  -1.4135689109968912E+00
  -1.4312928174126598E+00  -1.4492374841226956E+00  -1.4674056036596814E+00
  -1.4857998991393619E+00  -1.5044231245142847E+00  -1.5232780648281254E+00
  -1.5423675364649141E+00  -1.5616943873996623E+00  -1.5812614974415076E+00
  -1.6010717784786292E+00  -1.6211281747154100E+00  -1.6414336629101023E+00
  -1.6619912526050931E+00  -1.6828039863551443E+00  -1.7038749399496484E+00
  -1.7252072226314235E+00  -1.7468039773078747E+00  -1.7686683807589814E+00
  -1.7908036438369148E+00  -1.8132130116599303E+00  -1.8358997637995704E+00
  -1.8588672144589959E+00  -1.8821187126445889E+00  -1.9056576423279799E+00
  -1.9294874225986003E+00  -1.9536115078079543E+00  -1.9780333877015752E+00
  -2.0027565875408269E+00  -2.0277846682134468E+00  -2.0531212263302483E+00
  -2.0787698943100685E+00  -2.1047343404498244E+00  -2.1310182689797315E+00
  -2.1576254201039258E+00  -2.1845595700231182E+00  -2.2118245309407074E+00
  -2.2394241510505264E+00  -2.2673623145044726E+00  -2.2956429413601294E+00
  -2.3242699875070589E+00  -2.3532474445689839E+00  -2.3825793397841633E+00
  -2.4122697358580139E+00  -2.4423227307911350E+00  -2.4727424576786157E+00
  -2.5035330844790362E+00  -2.5346988137546065E+00  -2.5662438823765035E+00
  -2.5981725611975950E+00  -2.6304891546886702E+00  -2.6631980005368288E+00
  -2.6963034692048202E+00  -2.7298099634484125E+00  -2.7637219177897405E+00
  -2.7980437979464567E+00  -2.8327801002110125E+00  -2.8679353507808383E+00
  -2.9035141050357978E+00  -2.9395209467594969E+00  -2.9759604873038485E+00
  -3.0128373646922002E+00  -3.0501562426591819E+00  -3.0879218096243131E+00
  -3.1261387775955365E+00  -3.1648118810003005E+00  -3.2039458754404717E+00
  -3.2435455363668932E+00  -3.2836156576717430E+00  -3.3241610501923318E+00
  -3.3651865401250318E+00  -3.4066969673433833E+00  -3.4486971836165714E+00
  -3.4911920507246101E+00  -3.5341864384646016E+00  -3.5776852225436739E+00
  -3.6216932823542907E+00  -3.6662154986257001E+00  -3.7112567509466050E+00
  -3.7568219151547622E+00  -3.8029158605853994E+00  -3.8495434471749146E+00
  -3.8967095224125057E+00  -3.9444189181335014E+00  -3.9926764471485434E+00
  -4.0414868997012947E+00  -4.0908550397478498E+00  -4.1407856010514790E+00
  -4.1912832830839193E+00  -4.2423527467275299E+00  -4.2939986097691003E+00
  -4.3462254421778370E+00  -4.3990377611601836E+00  -4.4524400259818373E+00
  -4.5064366325494261E+00  -4.5610319077433159E+00  -4.6162301034912989E+00
  -4.6720353905766077E+00  -4.7284518521685053E+00  -4.7854834770681034E+00
  -4.8431341526594407E+00  -4.9014076575558372E+00  -4.9603076539331568E+00
  -5.0198376795394513E+00  -5.0800011393716753E+00  -5.1408012970105972E+00
  -5.2022412656032948E+00  -5.2643239984848753E+00  -5.3270522794297266E+00
  -5.3904287125230796E+00  -5.4544557116446830E+00  -5.5191354895553522E+00
  -5.5844700465788693E+00  -5.6504611588710674E+00  -5.7171103662690435E+00
  -5.7844189597140074E+00  -5.8523879682413176E+00  -5.9210181455330426E+00
  -5.9903099560281952E+00  -6.0602635605872877E+00  -6.1308788017093425E+00
  -6.2021551882989385E+00  -6.2740918799853000E+00  -6.3466876709928535E+00
  -6.4199409735680826E+00  -6.4938498009669656E+00  -6.5684117500092274E+00
  -6.6436239832092712E+00  -6.7194832104941336E+00  -6.7959856705217492E+00
  -6.8731271116163777E+00  -6.9509027723393109E+00  -7.0293073617162571E+00
  -7.1083350391480309E+00  -7.1879793940304086E+00  -7.2682334251169918E+00
  -7.3490895196603185E+00  -7.4305394323693603E+00  -7.5125742642300626E+00
  -7.5951844412338509E+00  -7.6783596930696909E+00  -7.7620890318358349E+00
  -7.8463607308325658E+00  -7.9311623035071674E+00  -8.0164804826196256E+00
  -8.1023011997084602E+00  -8.1886095649436133E+00  -8.2753898474511303E+00
  -8.3626254561973266E+00  -8.4502989215586002E+00  -8.5383918776424146E+00
  -8.6268850455056736E+00  -8.7157582173657016E+00  -8.8049902419281629E+00
  -8.8945590109635440E+00  -8.9844414472477645E+00  -9.0746134940124961E+00
  -9.1650501060326448E+00  -9.2557252424861378E+00  -9.3466118617333755E+00
  -9.4376819181462182E+00  -9.5289063611272162E+00  -9.6202551364617097E+00
  -9.7116971901217468E+00  -9.8032004746652923E+00  -9.8947319583427493E+00
  -9.9862576370230371E+00  -1.0077742549052134E+01  -1.0169150793122572E+01
  -1.0260445549236890E+01  -1.0351589102826829E+01  -1.0442542872057027E+01
  -1.0533267438343131E+01  -1.0623722580071464E+01  -1.0713867309480468E+01
  -1.0803659912656483E+01  -1.0893057992523088E+01  -1.0982018514714431E+01
  -1.1070497856152622E+01  -1.1158451856117516E+01  -1.1245835869575110E+01
  -1.1332604822461535E+01  -1.1418713268598783E+01  -1.1504115447880492E+01
  -1.1588765345307891E+01  -1.1672616750451667E+01  -1.1755623316873169E+01
  -1.1837738621016815E+01  -1.1918916220102963E+01  -1.1999109708536796E+01
  -1.2078272772383450E+01  -1.2156359241535181E+01  -1.2233323139233487E+01
  -1.2309118728770153E+01  -1.2383700557311103E+01  -1.2457023496986155E+01
  -1.2529042783652129E+01  -1.2599714053985872E+01  -1.2668993381932891E+01
  -1.2736837315912179E+01  -1.2803202918573676E+01  -1.2868047811391952E+01
  -1.2931330226766462E+01  -1.2993009070833008E+01  -1.3053044000432767E+01
  -1.3111395518157391E+01  -1.3168025089446999E+01  -1.3222895285860847E+01
  -1.3275969958426193E+01  -1.3327214444716033E+01  -1.3376595812703167E+01
  -1.3424083143717267E+01  -1.3469647855913900E+01  -1.3513264068518723E+01
  -1.3554909005924669E+01  -1.3594563439320494E+01  -1.3632212162018572E+01
  -1.3667844493016716E+01  -1.3701454801365422E+01  -1.3733043041725013E+01
  -1.3762615288920513E+01  -1.3790184256315296E+01  -1.3815769779677554E+01
  -1.3839399244964417E+01  -1.3861107935651029E+01  -1.3880939273393427E+01
  -1.3898944925485278E+01  -1.3915184754447568E+01  -1.3929726589517399E+01
  -1.3942645806899817E+01  -1.3954024715301273E+01  -1.3963951754662848E+01
  -1.3972520528361231E+01  -1.3979828701168213E+01  -1.3985976805613742E+01
  -1.3991067006950775E+01  -1.3995201880339849E+01  -1.3998483252245617E+01
  -1.4001011150482084E+01  -1.4002882893134808E+01  -1.4004192325442979E+01
  -1.4005029185810121E+01  -1.4005478548452880E+01  -1.4005620252722789E+01
  -1.4005528202442663E+01  -1.4005269392946436E+01  -1.4004902279025872E+01
  -1.4004474665871289E+01  -1.4004021516131877E+01  -1.4003572234964423E+01
  -1.4003147902928442E+01  -1.4002766767398105E+01  -1.4002449435252784E+01
  -1.4002214257627069E+01  -1.4002002929301753E+01  -1.4001742939006355E+01
  -1.4001447716330150E+01  -1.4001133195476063E+01  -1.4000817026379202E+01
  -1.4000516857253963E+01  -1.4000248815355592E+01  -1.4000026161547465E+01
  -1.3999858204340086E+01  -1.3999749554263053E+01  -1.3999699784957631E+01
  -1.3999703544615301E+01  -1.3999751128913196E+01  -1.3999829485418342E+01
  -1.3999923573180279E+01  -1.4000017955711201E+01  -1.4000098467588630E+01
  -1.4000153771123978E+01  -1.4000176615257709E+01  -1.4000164627392705E+01
  -1.4000120511218800E+01  -1.4000051588092784E+01  -1.3999968701688552E+01
  -1.3999884597586718E+01  -1.3999811979655696E+01  -1.3999761518506084E+01
  -1.3999740127128909E+01  -1.3999749809711409E+01  -1.3999787322321335E+01
  -1.3999844760213396E+01  -1.3999911021147026E+01  -1.3999973915600977E+01
  -1.4000022533505319E+01  -1.4000049089819614E+01  -1.4000048609939448E+01
  -1.3999954812832605E+01  -1.3999961125021271E+01  -1.3999966279640669E+01
  -1.3999971936931898E+01  -1.3999977348389770E+01  -1.3999982452620795E+01
  -1.3999987214533581E+01  -1.3999991606161975E+01  -1.3999995606756480E+01
  -1.3999999202796126E+01  -1.4000002387888800E+01  -1.4000005162536075E+01
  -1.4000007533751168E+01  -1.4000009514528635E+01  -1.4000011123180062E+01
  -1.4000012382557472E+01  -1.4000013319196178E+01  -1.4000013962412883E+01
  -1.4000014343395971E+01  -1.4000014494323723E+01  -1.4000014447541338E+01
  -1.4000014234821817E+01  -1.4000013886728453E+01  -1.4000013432089526E+01
  -1.4000012897588702E+01  -1.4000012307469046E+01  -1.4000011683343418E+01
  -1.4000011044101022E+01  -1.4000010405897264E+01  -1.4000009782213564E+01
  -1.4000009183973408E+01  -1.4000008619701125E+01  -1.4000008095712593E+01
  -1.4000007616325684E+01  -1.4000007184083280E+01  -1.4000006799980184E+01
  -1.4000006463688450E+01  -1.4000006173776201E+01  -1.4000005927916506E+01
  -1.4000005723083387E+01  -1.4000005555732974E+01  -1.4000005421968320E+01
  -1.4000005317686986E+01  -1.4000005238551994E+01  -1.4000005218210497E+01
  -1.4000002545922349E+01  -1.4000008821265931E+01  -1.4000004253482059E+01
  -1.4000004980240025E+01  -1.4000005019725947E+01  -1.4000005026182409E+01
  -1.4000005028937943E+01  -1.4000005026788170E+01  -1.4000005018656761E+01
  -1.4000005003718339E+01  -1.4000004981383681E+01  -1.4000004951280891E+01
  -1.4000004913233788E+01  -1.4000004867238621E+01  -1.4000004813440052E+01
  -1.4000004752107321E+01  -1.4000004683611214E+01  -1.4000004608402435E+01
  -1.4000004526991605E+01  -1.4000004439931406E+01  -1.4000004347800656E+01
  -1.4000004251190667E+01  -1.4000004150693613E+01  -1.4000004046892901E+01
  -1.4000003940355441E+01  -1.4000003831625525E+01  -1.4000003721220285E+01
  -1.4000003609626399E+01  -1.4000003497297925E+01  -1.4000003384655127E+01
  -1.4000003272084090E+01  -1.4000003159936879E+01  -1.4000003048532349E+01
  -1.4000002938157216E+01  -1.4000002829067483E+01  -1.4000002721490057E+01
  -1.4000002615624473E+01  -1.4000002511644722E+01  -1.4000002409701072E+01
  -1.4000002309921934E+01  -1.4000002212415556E+01  -1.4000002117271825E+01
  -1.4000002024563818E+01  -1.4000001934349459E+01  -1.4000001846672802E+01
  -1.4000001761565505E+01  -1.4000001679048038E+01  -1.4000001599130801E+01
  -1.4000001521815184E+01  -1.4000001447094542E+01  -1.4000001374955042E+01
  -1.4000001305376465E+01  -1.4000001238332921E+01  -1.4000001173793478E+01
  -1.4000001111722781E+01  -1.4000001052081537E+01  -1.4000000994827012E+01
     </PP_GIPAW_VLOCAL_PS>
   </PP_GIPAW_VLOCAL>
 </PP_GIPAW>
</UPF>
