<UPF version="2.0.1">
  <PP_INFO>

 This pseudopotential file has been produced using the code
 ONCVPSP  (Optimized Norm-Conservinng Vanderbilt PSeudopotential)
 scalar-relativistic version 4.0.1 06/20/2107 by D. R. Hamann
 The code is available through a link at URL www.mat-simresearch.com.
 Documentation with the package provides a full discription of the
 input data below.


 While it is not required under the terms of the GNU GPL, it is
 suggested that you cite D. R. Hamann, Phys. Rev. B 88, 085117 (2013)
 in any publication using these pseudopotentials.

    <PP_INPUTFILE>
# ATOM AND REFERENCE CONFIGURATION
# atsym  z   nc   nv     iexc    psfile
  Ge 32.00    5    3       4      upf
#
#   n    l    f        energy (Ha)
    1    0    2.00
    2    0    2.00
    2    1    6.00
    3    0    2.00
    3    1    6.00
    3    2   10.00
    4    0    2.00
    4    1    2.00
#
# PSEUDOPOTENTIAL AND OPTIMIZATION
# lmax
    2
#
#   l,   rc,      ep,       ncon, nbas, qcut
    0   2.31500  -0.43112    4    7   3.62547
    1   2.18440  -0.14315    4    7   6.39783
    2   2.31500  -1.07715    4    7   6.95957
#
# LOCAL POTENTIAL
# lloc, lpopt,  rc(5),   dvloc0
    4    5   1.29017      0.00000
#
# VANDERBILT-KLEINMAN-BYLANDER PROJECTORs
# l, nproj, debl
    0    2   3.00000
    1    2   2.50000
    2    2   1.50000
#
# MODEL CORE CHARGE
# icmod, fcfact, rcfact
    3   5.00000   1.40000
#
# LOG DERIVATIVE ANALYSIS
# epsh1, epsh2, depsh
  -12.00   12.00    0.02
#
# OUTPUT GRID
# rlmax, drl
    6.00    0.01
#
# TEST CONFIGURATIONS
# ncnf
    0
# nvcnf
#   n    l    f
    </PP_INPUTFILE>
  </PP_INFO>
  <!--                               -->
  <!-- END OF HUMAN READABLE SECTION -->
  <!--                               -->
    <PP_HEADER
       generated="Generated using ONCVPSP code by D. R. Hamann"
       author="anonymous"
       date="260127"
       comment=""
       element="Ge"
       pseudo_type="NC"
       relativistic="scalar"
       is_ultrasoft="F"
       is_paw="F"
       is_coulomb="F"
       has_so="F"
       has_wfc="F"
       has_gipaw="T"
       core_correction="T"
       functional="PBE"
       z_valence="   14.00"
       total_psenergy="  -1.46602299621E+02"
       rho_cutoff="   1.55780307691E+01"
       l_max="2"
       l_local="-1"
       mesh_size="  1106"
       number_of_wfc="3"
       number_of_proj="6"/>
 <PP_MESH dx="  1.25000000000000E-02" xmin=" -1.10666383623418E+01" mesh="1106">
   <PP_R type="real"  size="1106" columns="4">
    1.5625000000E-05    1.5821538305E-05    1.6020548758E-05    1.6222062454E-05
    1.6426110881E-05    1.6632725921E-05    1.6841939858E-05    1.7053785382E-05
    1.7268295595E-05    1.7485504014E-05    1.7705444579E-05    1.7928151656E-05
    1.8153660043E-05    1.8382004976E-05    1.8613222135E-05    1.8847347647E-05
    1.9084418096E-05    1.9324470524E-05    1.9567542440E-05    1.9813671825E-05
    2.0062897136E-05    2.0315257315E-05    2.0570791795E-05    2.0829540503E-05
    2.1091543868E-05    2.1356842831E-05    2.1625478843E-05    2.1897493881E-05
    2.2172930447E-05    2.2451831578E-05    2.2734240853E-05    2.3020202400E-05
    2.3309760901E-05    2.3602961599E-05    2.3899850307E-05    2.4200473416E-05
    2.4504877898E-05    2.4813111317E-05    2.5125221836E-05    2.5441258221E-05
    2.5761269855E-05    2.6085306739E-05    2.6413419506E-05    2.6745659423E-05
    2.7082078404E-05    2.7422729015E-05    2.7767664483E-05    2.8116938705E-05
    2.8470606256E-05    2.8828722397E-05    2.9191343085E-05    2.9558524979E-05
    2.9930325453E-05    3.0306802602E-05    3.0688015250E-05    3.1074022962E-05
    3.1464886054E-05    3.1860665599E-05    3.2261423437E-05    3.2667222188E-05
    3.3078125260E-05    3.3494196855E-05    3.3915501987E-05    3.4342106485E-05
    3.4774077008E-05    3.5211481050E-05    3.5654386958E-05    3.6102863937E-05
    3.6556982061E-05    3.7016812289E-05    3.7482426468E-05    3.7953897353E-05
    3.8431298612E-05    3.8914704839E-05    3.9404191568E-05    3.9899835282E-05
    4.0401713427E-05    4.0909904421E-05    4.1424487672E-05    4.1945543582E-05
    4.2473153570E-05    4.3007400074E-05    4.3548366571E-05    4.4096137590E-05
    4.4650798720E-05    4.5212436628E-05    4.5781139071E-05    4.6356994910E-05
    4.6940094124E-05    4.7530527823E-05    4.8128388264E-05    4.8733768864E-05
    4.9346764214E-05    4.9967470096E-05    5.0595983497E-05    5.1232402624E-05
    5.1876826918E-05    5.2529357071E-05    5.3190095044E-05    5.3859144077E-05
    5.4536608710E-05    5.5222594800E-05    5.5917209533E-05    5.6620561443E-05
    5.7332760432E-05    5.8053917780E-05    5.8784146172E-05    5.9523559706E-05
    6.0272273917E-05    6.1030405794E-05    6.1798073796E-05    6.2575397872E-05
    6.3362499482E-05    6.4159501611E-05    6.4966528793E-05    6.5783707127E-05
    6.6611164300E-05    6.7449029602E-05    6.8297433952E-05    6.9156509915E-05
    7.0026391724E-05    7.0907215299E-05    7.1799118270E-05    7.2702240000E-05
    7.3616721603E-05    7.4542705968E-05    7.5480337783E-05    7.6429763554E-05
    7.7391131631E-05    7.8364592230E-05    7.9350297456E-05    8.0348401327E-05
    8.1359059800E-05    8.2382430791E-05    8.3418674204E-05    8.4467951955E-05
    8.5530427996E-05    8.6606268340E-05    8.7695641089E-05    8.8798716461E-05
    8.9915666813E-05    9.1046666670E-05    9.2191892755E-05    9.3351524010E-05
    9.4525741631E-05    9.5714729092E-05    9.6918672174E-05    9.8137758995E-05
    9.9372180041E-05    1.0062212819E-04    1.0188779876E-04    1.0316938949E-04
    1.0446710066E-04    1.0578113502E-04    1.0711169790E-04    1.0845899721E-04
    1.0982324345E-04    1.1120464979E-04    1.1260343209E-04    1.1401980890E-04
    1.1545400155E-04    1.1690623411E-04    1.1837673351E-04    1.1986572952E-04
    1.2137345479E-04    1.2290014491E-04    1.2444603842E-04    1.2601137689E-04
    1.2759640488E-04    1.2920137008E-04    1.3082652325E-04    1.3247211833E-04
    1.3413841246E-04    1.3582566598E-04    1.3753414253E-04    1.3926410908E-04
    1.4101583593E-04    1.4278959679E-04    1.4458566881E-04    1.4640433264E-04
    1.4824587244E-04    1.5011057597E-04    1.5199873457E-04    1.5391064329E-04
    1.5584660086E-04    1.5780690977E-04    1.5979187634E-04    1.6180181071E-04
    1.6383702695E-04    1.6589784305E-04    1.6798458103E-04    1.7009756694E-04
    1.7223713095E-04    1.7440360735E-04    1.7659733468E-04    1.7881865569E-04
    1.8106791749E-04    1.8334547151E-04    1.8565167364E-04    1.8798688422E-04
    1.9035146814E-04    1.9274579485E-04    1.9517023849E-04    1.9762517788E-04
    2.0011099660E-04    2.0262808308E-04    2.0517683060E-04    2.0775763742E-04
    2.1037090680E-04    2.1301704705E-04    2.1569647166E-04    2.1840959927E-04
    2.2115685383E-04    2.2393866460E-04    2.2675546624E-04    2.2960769889E-04
    2.3249580820E-04    2.3542024546E-04    2.3838146761E-04    2.4137993735E-04
    2.4441612319E-04    2.4749049955E-04    2.5060354681E-04    2.5375575138E-04
    2.5694760580E-04    2.6017960881E-04    2.6345226541E-04    2.6676608696E-04
    2.7012159126E-04    2.7351930260E-04    2.7695975190E-04    2.8044347672E-04
    2.8397102140E-04    2.8754293713E-04    2.9115978203E-04    2.9482212124E-04
    2.9853052700E-04    3.0228557877E-04    3.0608786327E-04    3.0993797463E-04
    3.1383651442E-04    3.1778409181E-04    3.2178132361E-04    3.2582883440E-04
    3.2992725660E-04    3.3407723061E-04    3.3827940487E-04    3.4253443597E-04
    3.4684298877E-04    3.5120573650E-04    3.5562336084E-04    3.6009655205E-04
    3.6462600908E-04    3.6921243966E-04    3.7385656044E-04    3.7855909707E-04
    3.8332078433E-04    3.8814236624E-04    3.9302459618E-04    3.9796823702E-04
    4.0297406121E-04    4.0804285091E-04    4.1317539813E-04    4.1837250486E-04
    4.2363498314E-04    4.2896365524E-04    4.3435935379E-04    4.3982292187E-04
    4.4535521318E-04    4.5095709215E-04    4.5662943408E-04    4.6237312529E-04
    4.6818906324E-04    4.7407815668E-04    4.8004132580E-04    4.8607950236E-04
    4.9219362982E-04    4.9838466355E-04    5.0465357088E-04    5.1100133137E-04
    5.1742893685E-04    5.2393739166E-04    5.3052771275E-04    5.3720092988E-04
    5.4395808574E-04    5.5080023617E-04    5.5772845024E-04    5.6474381053E-04
    5.7184741318E-04    5.7904036816E-04    5.8632379937E-04    5.9369884487E-04
    6.0116665702E-04    6.0872840268E-04    6.1638526339E-04    6.2413843556E-04
    6.3198913063E-04    6.3993857528E-04    6.4798801164E-04    6.5613869744E-04
    6.6439190625E-04    6.7274892765E-04    6.8121106743E-04    6.8977964783E-04
    6.9845600771E-04    7.0724150275E-04    7.1613750572E-04    7.2514540664E-04
    7.3426661299E-04    7.4350255000E-04    7.5285466080E-04    7.6232440667E-04
    7.7191326727E-04    7.8162274090E-04    7.9145434467E-04    8.0140961479E-04
    8.1149010679E-04    8.2169739578E-04    8.3203307665E-04    8.4249876439E-04
    8.5309609427E-04    8.6382672215E-04    8.7469232471E-04    8.8569459973E-04
    8.9683526634E-04    9.0811606527E-04    9.1953875919E-04    9.3110513292E-04
    9.4281699371E-04    9.5467617158E-04    9.6668451954E-04    9.7884391392E-04
    9.9115625466E-04    1.0036234656E-03    1.0162474947E-03    1.0290303146E-03
    1.0419739225E-03    1.0550803410E-03    1.0683516179E-03    1.0817898270E-03
    1.0953970679E-03    1.1091754669E-03    1.1231271767E-03    1.1372543775E-03
    1.1515592766E-03    1.1660441091E-03    1.1807111384E-03    1.1955626563E-03
    1.2106009832E-03    1.2258284690E-03    1.2412474930E-03    1.2568604644E-03
    1.2726698229E-03    1.2886780386E-03    1.3048876128E-03    1.3213010784E-03
    1.3379210000E-03    1.3547499745E-03    1.3717906314E-03    1.3890456334E-03
    1.4065176766E-03    1.4242094910E-03    1.4421238411E-03    1.4602635259E-03
    1.4786313799E-03    1.4972302731E-03    1.5160631115E-03    1.5351328379E-03
    1.5544424319E-03    1.5739949107E-03    1.5937933294E-03    1.6138407816E-03
    1.6341403996E-03    1.6546953555E-03    1.6755088608E-03    1.6965841678E-03
    1.7179245696E-03    1.7395334005E-03    1.7614140371E-03    1.7835698982E-03
    1.8060044457E-03    1.8287211851E-03    1.8517236659E-03    1.8750154823E-03
    1.8986002737E-03    1.9224817253E-03    1.9466635685E-03    1.9711495818E-03
    1.9959435913E-03    2.0210494711E-03    2.0464711439E-03    2.0722125820E-03
    2.0982778076E-03    2.1246708933E-03    2.1513959632E-03    2.1784571930E-03
    2.2058588113E-03    2.2336050994E-03    2.2617003929E-03    2.2901490817E-03
    2.3189556110E-03    2.3481244818E-03    2.3776602518E-03    2.4075675360E-03
    2.4378510076E-03    2.4685153984E-03    2.4995654997E-03    2.5310061632E-03
    2.5628423016E-03    2.5950788893E-03    2.6277209633E-03    2.6607736241E-03
    2.6942420362E-03    2.7281314291E-03    2.7624470981E-03    2.7971944050E-03
    2.8323787793E-03    2.8680057185E-03    2.9040807895E-03    2.9406096289E-03
    2.9775979447E-03    3.0150515161E-03    3.0529761955E-03    3.0913779086E-03
    3.1302626559E-03    3.1696365130E-03    3.2095056323E-03    3.2498762433E-03
    3.2907546542E-03    3.3321472521E-03    3.3740605049E-03    3.4165009614E-03
    3.4594752532E-03    3.5029900950E-03    3.5470522862E-03    3.5916687115E-03
    3.6368463423E-03    3.6825922378E-03    3.7289135458E-03    3.7758175041E-03
    3.8233114416E-03    3.8714027793E-03    3.9200990316E-03    3.9694078073E-03
    4.0193368110E-03    4.0698938443E-03    4.1210868068E-03    4.1729236975E-03
    4.2254126160E-03    4.2785617639E-03    4.3323794457E-03    4.3868740706E-03
    4.4420541535E-03    4.4979283164E-03    4.5545052898E-03    4.6117939138E-03
    4.6698031401E-03    4.7285420326E-03    4.7880197694E-03    4.8482456441E-03
    4.9092290670E-03    4.9709795669E-03    5.0335067925E-03    5.0968205137E-03
    5.1609306236E-03    5.2258471393E-03    5.2915802043E-03    5.3581400895E-03
    5.4255371950E-03    5.4937820517E-03    5.5628853230E-03    5.6328578064E-03
    5.7037104354E-03    5.7754542807E-03    5.8481005525E-03    5.9216606019E-03
    5.9961459228E-03    6.0715681538E-03    6.1479390795E-03    6.2252706333E-03
    6.3035748983E-03    6.3828641097E-03    6.4631506566E-03    6.5444470839E-03
    6.6267660944E-03    6.7101205506E-03    6.7945234768E-03    6.8799880611E-03
    6.9665276575E-03    7.0541557881E-03    7.1428861448E-03    7.2327325921E-03
    7.3237091685E-03    7.4158300893E-03    7.5091097488E-03    7.6035627218E-03
    7.6992037671E-03    7.7960478286E-03    7.8941100384E-03    7.9934057190E-03
    8.0939503854E-03    8.1957597481E-03    8.2988497150E-03    8.4032363940E-03
    8.5089360957E-03    8.6159653361E-03    8.7243408385E-03    8.8340795370E-03
    8.9451985783E-03    9.0577153252E-03    9.1716473585E-03    9.2870124803E-03
    9.4038287168E-03    9.5221143206E-03    9.6418877741E-03    9.7631677922E-03
    9.8859733252E-03    1.0010323562E-02    1.0136237931E-02    1.0263736109E-02
    1.0392838016E-02    1.0523563826E-02    1.0655933963E-02    1.0789969112E-02
    1.0925690216E-02    1.1063118481E-02    1.1202275381E-02    1.1343182659E-02
    1.1485862332E-02    1.1630336695E-02    1.1776628321E-02    1.1924760070E-02
    1.2074755086E-02    1.2226636808E-02    1.2380428967E-02    1.2536155593E-02
    1.2693841018E-02    1.2853509882E-02    1.3015187134E-02    1.3178898034E-02
    1.3344668164E-02    1.3512523426E-02    1.3682490047E-02    1.3854594585E-02
    1.4028863932E-02    1.4205325317E-02    1.4384006313E-02    1.4564934840E-02
    1.4748139167E-02    1.4933647921E-02    1.5121490087E-02    1.5311695018E-02
    1.5504292431E-02    1.5699312422E-02    1.5896785463E-02    1.6096742408E-02
    1.6299214503E-02    1.6504233383E-02    1.6711831082E-02    1.6922040040E-02
    1.7134893100E-02    1.7350423523E-02    1.7568664984E-02    1.7789651586E-02
    1.8013417856E-02    1.8239998760E-02    1.8469429700E-02    1.8701746527E-02
    1.8936985539E-02    1.9175183494E-02    1.9416377610E-02    1.9660605575E-02
    1.9907905550E-02    2.0158316175E-02    2.0411876578E-02    2.0668626378E-02
    2.0928605694E-02    2.1191855146E-02    2.1458415869E-02    2.1728329513E-02
    2.2001638253E-02    2.2278384794E-02    2.2558612377E-02    2.2842364790E-02
    2.3129686369E-02    2.3420622008E-02    2.3715217167E-02    2.4013517877E-02
    2.4315570747E-02    2.4621422976E-02    2.4931122352E-02    2.5244717266E-02
    2.5562256719E-02    2.5883790326E-02    2.6209368328E-02    2.6539041598E-02
    2.6872861646E-02    2.7210880634E-02    2.7553151378E-02    2.7899727357E-02
    2.8250662726E-02    2.8606012318E-02    2.8965831658E-02    2.9330176968E-02
    2.9699105177E-02    3.0072673932E-02    3.0450941604E-02    3.0833967298E-02
    3.1221810861E-02    3.1614532896E-02    3.2012194766E-02    3.2414858607E-02
    3.2822587335E-02    3.3235444659E-02    3.3653495089E-02    3.4076803946E-02
    3.4505437373E-02    3.4939462345E-02    3.5378946679E-02    3.5823959045E-02
    3.6274568978E-02    3.6730846886E-02    3.7192864064E-02    3.7660692702E-02
    3.8134405900E-02    3.8614077677E-02    3.9099782982E-02    3.9591597707E-02
    4.0089598701E-02    4.0593863775E-02    4.1104471723E-02    4.1621502329E-02
    4.2145036379E-02    4.2675155677E-02    4.3211943055E-02    4.3755482386E-02
    4.4305858601E-02    4.4863157697E-02    4.5427466752E-02    4.5998873941E-02
    4.6577468548E-02    4.7163340979E-02    4.7756582778E-02    4.8357286640E-02
    4.8965546426E-02    4.9581457179E-02    5.0205115136E-02    5.0836617744E-02
    5.1476063676E-02    5.2123552849E-02    5.2779186432E-02    5.3443066871E-02
    5.4115297898E-02    5.4795984550E-02    5.5485233187E-02    5.6183151503E-02
    5.6889848552E-02    5.7605434755E-02    5.8330021925E-02    5.9063723279E-02
    5.9806653460E-02    6.0558928552E-02    6.1320666101E-02    6.2091985127E-02
    6.2873006153E-02    6.3663851215E-02    6.4464643882E-02    6.5275509281E-02
    6.6096574111E-02    6.6927966666E-02    6.7769816851E-02    6.8622256208E-02
    6.9485417933E-02    7.0359436895E-02    7.1244449662E-02    7.2140594520E-02
    7.3048011492E-02    7.3966842365E-02    7.4897230707E-02    7.5839321894E-02
    7.6793263130E-02    7.7759203469E-02    7.8737293841E-02    7.9727687076E-02
    8.0730537925E-02    8.1746003084E-02    8.2774241222E-02    8.3815413004E-02
    8.4869681115E-02    8.5937210286E-02    8.7018167321E-02    8.8112721122E-02
    8.9221042715E-02    9.0343305277E-02    9.1479684165E-02    9.2630356939E-02
    9.3795503395E-02    9.4975305589E-02    9.6169947868E-02    9.7379616897E-02
    9.8604501689E-02    9.9844793635E-02    1.0110068653E-01    1.0237237662E-01
    1.0366006260E-01    1.0496394567E-01    1.0628422958E-01    1.0762112061E-01
    1.0897482766E-01    1.1034556225E-01    1.1173353855E-01    1.1313897345E-01
    1.1456208655E-01    1.1600310020E-01    1.1746223958E-01    1.1893973267E-01
    1.2043581033E-01    1.2195070633E-01    1.2348465738E-01    1.2503790316E-01
    1.2661068637E-01    1.2820325275E-01    1.2981585115E-01    1.3144873355E-01
    1.3310215507E-01    1.3477637408E-01    1.3647165217E-01    1.3818825423E-01
    1.3992644849E-01    1.4168650654E-01    1.4346870340E-01    1.4527331753E-01
    1.4710063092E-01    1.4895092908E-01    1.5082450112E-01    1.5272163980E-01
    1.5464264154E-01    1.5658780652E-01    1.5855743865E-01    1.6055184571E-01
    1.6257133932E-01    1.6461623503E-01    1.6668685237E-01    1.6878351486E-01
    1.7090655013E-01    1.7305628989E-01    1.7523307004E-01    1.7743723072E-01
    1.7966911633E-01    1.8192907560E-01    1.8421746166E-01    1.8653463208E-01
    1.8888094891E-01    1.9125677877E-01    1.9366249290E-01    1.9609846718E-01
    1.9856508224E-01    2.0106272351E-01    2.0359178123E-01    2.0615265059E-01
    2.0874573171E-01    2.1137142978E-01    2.1403015507E-01    2.1672232300E-01
    2.1944835424E-01    2.2220867473E-01    2.2500371578E-01    2.2783391411E-01
    2.3069971196E-01    2.3360155711E-01    2.3653990298E-01    2.3951520868E-01
    2.4252793913E-01    2.4557856506E-01    2.4866756314E-01    2.5179541603E-01
    2.5496261247E-01    2.5816964733E-01    2.6141702173E-01    2.6470524307E-01
    2.6803482515E-01    2.7140628820E-01    2.7482015905E-01    2.7827697110E-01
    2.8177726450E-01    2.8532158616E-01    2.8891048991E-01    2.9254453651E-01
    2.9622429378E-01    2.9995033671E-01    3.0372324748E-01    3.0754361563E-01
    3.1141203810E-01    3.1532911933E-01    3.1929547137E-01    3.2331171399E-01
    3.2737847472E-01    3.3149638899E-01    3.3566610026E-01    3.3988826004E-01
    3.4416352804E-01    3.4849257230E-01    3.5287606924E-01    3.5731470377E-01
    3.6180916946E-01    3.6636016856E-01    3.7096841219E-01    3.7563462039E-01
    3.8035952226E-01    3.8514385608E-01    3.8998836940E-01    3.9489381921E-01
    3.9986097198E-01    4.0489060384E-01    4.0998350068E-01    4.1514045827E-01
    4.2036228241E-01    4.2564978901E-01    4.3100380425E-01    4.3642516472E-01
    4.4191471751E-01    4.4747332036E-01    4.5310184184E-01    4.5880116140E-01
    4.6457216958E-01    4.7041576810E-01    4.7633287004E-01    4.8232439996E-01
    4.8839129406E-01    4.9453450028E-01    5.0075497853E-01    5.0705370076E-01
    5.1343165116E-01    5.1988982631E-01    5.2642923529E-01    5.3305089992E-01
    5.3975585483E-01    5.4654514770E-01    5.5341983935E-01    5.6038100398E-01
    5.6742972929E-01    5.7456711664E-01    5.8179428127E-01    5.8911235244E-01
    5.9652247362E-01    6.0402580265E-01    6.1162351194E-01    6.1931678864E-01
    6.2710683486E-01    6.3499486779E-01    6.4298211996E-01    6.5106983940E-01
    6.5925928983E-01    6.6755175086E-01    6.7594851820E-01    6.8445090388E-01
    6.9306023641E-01    7.0177786101E-01    7.1060513983E-01    7.1954345214E-01
    7.2859419459E-01    7.3775878136E-01    7.4703864444E-01    7.5643523382E-01
    7.6595001776E-01    7.7558448294E-01    7.8534013477E-01    7.9521849760E-01
    8.0522111494E-01    8.1534954971E-01    8.2560538451E-01    8.3599022183E-01
    8.4650568432E-01    8.5715341505E-01    8.6793507775E-01    8.7885235706E-01
    8.8990695885E-01    9.0110061040E-01    9.1243506077E-01    9.2391208096E-01
    9.3553346430E-01    9.4730102665E-01    9.5921660670E-01    9.7128206631E-01
    9.8349929071E-01    9.9587018888E-01    1.0083966938E+00    1.0210807627E+00
    1.0339243776E+00    1.0469295453E+00    1.0600982979E+00    1.0734326929E+00
    1.0869348140E+00    1.1006067709E+00    1.1144506999E+00    1.1284687640E+00
    1.1426631536E+00    1.1570360868E+00    1.1715898091E+00    1.1863265947E+00
    1.2012487463E+00    1.2163585955E+00    1.2316585031E+00    1.2471508599E+00
    1.2628380866E+00    1.2787226342E+00    1.2948069849E+00    1.3110936518E+00
    1.3275851798E+00    1.3442841457E+00    1.3611931586E+00    1.3783148608E+00
    1.3956519275E+00    1.4132070677E+00    1.4309830243E+00    1.4489825749E+00
    1.4672085320E+00    1.4856637434E+00    1.5043510928E+00    1.5232735001E+00
    1.5424339220E+00    1.5618353524E+00    1.5814808227E+00    1.6013734026E+00
    1.6215162003E+00    1.6419123633E+00    1.6625650784E+00    1.6834775726E+00
    1.7046531137E+00    1.7260950103E+00    1.7478066127E+00    1.7697913135E+00
    1.7920525478E+00    1.8145937939E+00    1.8374185740E+00    1.8605304545E+00
    1.8839330467E+00    1.9076300072E+00    1.9316250388E+00    1.9559218907E+00
    1.9805243595E+00    2.0054362891E+00    2.0306615723E+00    2.0562041505E+00
    2.0820680148E+00    2.1082572064E+00    2.1347758175E+00    2.1616279917E+00
    2.1888179246E+00    2.2163498648E+00    2.2442281142E+00    2.2724570288E+00
    2.3010410194E+00    2.3299845523E+00    2.3592921501E+00    2.3889683921E+00
    2.4190179153E+00    2.4494454149E+00    2.4802556453E+00    2.5114534208E+00
    2.5430436159E+00    2.5750311668E+00    2.6074210716E+00    2.6402183912E+00
    2.6734282502E+00    2.7070558379E+00    2.7411064086E+00    2.7755852827E+00
    2.8104978477E+00    2.8458495587E+00    2.8816459395E+00    2.9178925833E+00
    2.9545951537E+00    2.9917593857E+00    3.0293910861E+00    3.0674961351E+00
    3.1060804866E+00    3.1451501695E+00    3.1847112885E+00    3.2247700251E+00
    3.2653326386E+00    3.3064054669E+00    3.3479949279E+00    3.3901075198E+00
    3.4327498230E+00    3.4759285003E+00    3.5196502985E+00    3.5639220492E+00
    3.6087506700E+00    3.6541431654E+00    3.7001066282E+00    3.7466482401E+00
    3.7937752734E+00    3.8414950918E+00    3.8898151517E+00    3.9387430031E+00
    3.9882862911E+00    4.0384527569E+00    4.0892502392E+00    4.1406866752E+00
    4.1927701019E+00    4.2455086574E+00    4.2989105823E+00    4.3529842208E+00
    4.4077380219E+00    4.4631805410E+00    4.5193204411E+00    4.5761664943E+00
    4.6337275828E+00    4.6920127006E+00    4.7510309550E+00    4.8107915677E+00
    4.8713038763E+00    4.9325773360E+00    4.9946215210E+00    5.0574461258E+00
    5.1210609668E+00    5.1854759840E+00    5.2507012424E+00    5.3167469335E+00
    5.3836233772E+00    5.4513410229E+00    5.5199104518E+00    5.5893423779E+00
    5.6596476502E+00    5.7308372539E+00    5.8029223126E+00    5.8759140897E+00
    5.9498239903E+00    6.0246635630E+00    6.1004445017E+00    6.1771786473E+00
    6.2548779895E+00    6.3335546692E+00    6.4132209797E+00    6.4938893690E+00
    6.5755724418E+00    6.6582829611E+00    6.7420338506E+00    6.8268381967E+00
    6.9127092501E+00    6.9996604285E+00    7.0877053180E+00    7.1768576758E+00
    7.2671314323E+00    7.3585406929E+00    7.4510997404E+00    7.5448230374E+00
    7.6397252284E+00    7.7358211419E+00    7.8331257933E+00    7.9316543865E+00
    8.0314223168E+00    8.1324451733E+00    8.2347387408E+00    8.3383190030E+00
    8.4432021445E+00    8.5494045535E+00    8.6569428244E+00    8.7658337602E+00
    8.8760943754E+00    8.9877418983E+00    9.1007937742E+00    9.2152676677E+00
    9.3311814655E+00    9.4485532794E+00    9.5674014489E+00    9.6877445444E+00
    9.8096013697E+00    9.9329909652E+00    1.0057932611E+01    1.0184445829E+01
    1.0312550387E+01    1.0442266302E+01    1.0573613843E+01    1.0706613532E+01
    1.0841286152E+01    1.0977652744E+01    1.1115734617E+01    1.1255553347E+01
    1.1397130779E+01    1.1540489036E+01    1.1685650518E+01    1.1832637907E+01
    1.1981474169E+01    1.2132182562E+01    1.2284786632E+01    1.2439310225E+01
    1.2595777486E+01    1.2754212863E+01    1.2914641111E+01    1.3077087299E+01
    1.3241576808E+01    1.3408135340E+01    1.3576788921E+01    1.3747563902E+01
    1.3920486968E+01    1.4095585139E+01    1.4272885774E+01    1.4452416576E+01
    1.4634205597E+01    1.4818281243E+01    1.5004672276E+01    1.5193407819E+01
    1.5384517363E+01    1.5578030769E+01
   </PP_R>
   <PP_RAB type="real"  size="1106" columns="4">
    1.9531250000E-07    1.9776922882E-07    2.0025685948E-07    2.0277578068E-07
    2.0532638601E-07    2.0790907401E-07    2.1052424822E-07    2.1317231727E-07
    2.1585369494E-07    2.1856880018E-07    2.2131805724E-07    2.2410189570E-07
    2.2692075053E-07    2.2977506220E-07    2.3266527668E-07    2.3559184559E-07
    2.3855522620E-07    2.4155588156E-07    2.4459428051E-07    2.4767089781E-07
    2.5078621420E-07    2.5394071644E-07    2.5713489744E-07    2.6036925628E-07
    2.6364429835E-07    2.6696053539E-07    2.7031848554E-07    2.7371867351E-07
    2.7716163058E-07    2.8064789472E-07    2.8417801067E-07    2.8775253000E-07
    2.9137201126E-07    2.9503701998E-07    2.9874812884E-07    3.0250591770E-07
    3.0631097373E-07    3.1016389147E-07    3.1406527295E-07    3.1801572776E-07
    3.2201587318E-07    3.2606633424E-07    3.3016774382E-07    3.3432074279E-07
    3.3852598005E-07    3.4278411269E-07    3.4709580604E-07    3.5146173381E-07
    3.5588257820E-07    3.6035902997E-07    3.6489178856E-07    3.6948156224E-07
    3.7412906817E-07    3.7883503252E-07    3.8360019062E-07    3.8842528703E-07
    3.9331107568E-07    3.9825831998E-07    4.0326779296E-07    4.0834027735E-07
    4.1347656574E-07    4.1867746069E-07    4.2394377484E-07    4.2927633107E-07
    4.3467596260E-07    4.4014351313E-07    4.4567983698E-07    4.5128579921E-07
    4.5696227577E-07    4.6271015361E-07    4.6853033085E-07    4.7442371691E-07
    4.8039123265E-07    4.8643381049E-07    4.9255239460E-07    4.9874794103E-07
    5.0502141784E-07    5.1137380527E-07    5.1780609590E-07    5.2431929478E-07
    5.3091441962E-07    5.3759250092E-07    5.4435458214E-07    5.5120171987E-07
    5.5813498400E-07    5.6515545785E-07    5.7226423839E-07    5.7946243638E-07
    5.8675117655E-07    5.9413159779E-07    6.0160485330E-07    6.0917211080E-07
    6.1683455267E-07    6.2459337620E-07    6.3244979372E-07    6.4040503280E-07
    6.4846033647E-07    6.5661696339E-07    6.6487618805E-07    6.7323930096E-07
    6.8170760888E-07    6.9028243500E-07    6.9896511916E-07    7.0775701804E-07
    7.1665950539E-07    7.2567397225E-07    7.3480182715E-07    7.4404449632E-07
    7.5340342396E-07    7.6288007242E-07    7.7247592245E-07    7.8219247340E-07
    7.9203124352E-07    8.0199377014E-07    8.1208160991E-07    8.2229633909E-07
    8.3263955374E-07    8.4311287002E-07    8.5371792440E-07    8.6445637394E-07
    8.7532989655E-07    8.8634019124E-07    8.9748897838E-07    9.0877800000E-07
    9.2020902004E-07    9.3178382460E-07    9.4350422229E-07    9.5537204443E-07
    9.6738914539E-07    9.7955740288E-07    9.9187871820E-07    1.0043550166E-06
    1.0169882475E-06    1.0297803849E-06    1.0427334276E-06    1.0558493994E-06
    1.0691303499E-06    1.0825783542E-06    1.0961955136E-06    1.1099839558E-06
    1.1239458352E-06    1.1380833334E-06    1.1523986594E-06    1.1668940501E-06
    1.1815717704E-06    1.1964341136E-06    1.2114834022E-06    1.2267219874E-06
    1.2421522505E-06    1.2577766024E-06    1.2735974844E-06    1.2896173687E-06
    1.3058387583E-06    1.3222641878E-06    1.3388962238E-06    1.3557374651E-06
    1.3727905431E-06    1.3900581224E-06    1.4075429011E-06    1.4252476113E-06
    1.4431750193E-06    1.4613279264E-06    1.4797091689E-06    1.4983216189E-06
    1.5171681848E-06    1.5362518113E-06    1.5555754803E-06    1.5751422111E-06
    1.5949550610E-06    1.6150171260E-06    1.6353315406E-06    1.6559014792E-06
    1.6767301557E-06    1.6978208247E-06    1.7191767817E-06    1.7408013635E-06
    1.7626979491E-06    1.7848699598E-06    1.8073208601E-06    1.8300541580E-06
    1.8530734055E-06    1.8763821996E-06    1.8999841821E-06    1.9238830411E-06
    1.9480825107E-06    1.9725863722E-06    1.9973984543E-06    2.0225226339E-06
    2.0479628369E-06    2.0737230382E-06    2.0998072629E-06    2.1262195868E-06
    2.1529641368E-06    2.1800450919E-06    2.2074666835E-06    2.2352331962E-06
    2.2633489686E-06    2.2918183939E-06    2.3206459205E-06    2.3498360528E-06
    2.3793933517E-06    2.4093224357E-06    2.4396279812E-06    2.4703147235E-06
    2.5013874576E-06    2.5328510385E-06    2.5647103825E-06    2.5969704678E-06
    2.6296363350E-06    2.6627130882E-06    2.6962058957E-06    2.7301199909E-06
    2.7644606729E-06    2.7992333075E-06    2.8344433280E-06    2.8700962361E-06
    2.9061976025E-06    2.9427530682E-06    2.9797683451E-06    3.0172492168E-06
    3.0552015399E-06    3.0936312444E-06    3.1325443351E-06    3.1719468922E-06
    3.2118450725E-06    3.2522451101E-06    3.2931533176E-06    3.3345760870E-06
    3.3765198907E-06    3.4189912826E-06    3.4619968987E-06    3.5055434589E-06
    3.5496377675E-06    3.5942867141E-06    3.6394972754E-06    3.6852765155E-06
    3.7316315875E-06    3.7785697346E-06    3.8260982909E-06    3.8742246829E-06
    3.9229564303E-06    3.9723011477E-06    4.0222665452E-06    4.0728604300E-06
    4.1240907075E-06    4.1759653826E-06    4.2284925608E-06    4.2816804496E-06
    4.3355373597E-06    4.3900717062E-06    4.4452920105E-06    4.5012069006E-06
    4.5578251135E-06    4.6151554958E-06    4.6732070055E-06    4.7319887134E-06
    4.7915098041E-06    4.8517795780E-06    4.9128074523E-06    4.9746029628E-06
    5.0371757651E-06    5.1005356363E-06    5.1646924767E-06    5.2296563107E-06
    5.2954372892E-06    5.3620456905E-06    5.4294919224E-06    5.4977865234E-06
    5.5669401648E-06    5.6369636519E-06    5.7078679260E-06    5.7796640661E-06
    5.8523632905E-06    5.9259769586E-06    6.0005165726E-06    6.0759937795E-06
    6.1524203728E-06    6.2298082943E-06    6.3081696361E-06    6.3875166421E-06
    6.4678617107E-06    6.5492173958E-06    6.6315964094E-06    6.7150116235E-06
    6.7994760718E-06    6.8850029521E-06    6.9716056281E-06    7.0592976316E-06
    7.1480926648E-06    7.2380046020E-06    7.3290474921E-06    7.4212355608E-06
    7.5145832127E-06    7.6091050335E-06    7.7048157924E-06    7.8017304445E-06
    7.8998641328E-06    7.9992321910E-06    8.0998501455E-06    8.2017337180E-06
    8.3048988281E-06    8.4093615956E-06    8.5151383429E-06    8.6222455979E-06
    8.7307000963E-06    8.8405187844E-06    8.9517188215E-06    9.0643175830E-06
    9.1783326624E-06    9.2937818750E-06    9.4106832600E-06    9.5290550833E-06
    9.6489158409E-06    9.7702842612E-06    9.8931793084E-06    1.0017620185E-05
    1.0143626335E-05    1.0271217447E-05    1.0400413458E-05    1.0531234555E-05
    1.0663701178E-05    1.0797834027E-05    1.0933654059E-05    1.1071182497E-05
    1.1210440829E-05    1.1351450816E-05    1.1494234490E-05    1.1638814161E-05
    1.1785212421E-05    1.1933452145E-05    1.2083556494E-05    1.2235548924E-05
    1.2389453183E-05    1.2545293320E-05    1.2703093684E-05    1.2862878932E-05
    1.3024674031E-05    1.3188504263E-05    1.3354395224E-05    1.3522372838E-05
    1.3692463349E-05    1.3864693336E-05    1.4039089709E-05    1.4215679718E-05
    1.4394490957E-05    1.4575551364E-05    1.4758889230E-05    1.4944533203E-05
    1.5132512290E-05    1.5322855863E-05    1.5515593663E-05    1.5710755806E-05
    1.5908372786E-05    1.6108475482E-05    1.6311095161E-05    1.6516263481E-05
    1.6724012500E-05    1.6934374681E-05    1.7147382893E-05    1.7363070417E-05
    1.7581470957E-05    1.7802618638E-05    1.8026548013E-05    1.8253294074E-05
    1.8482892249E-05    1.8715378413E-05    1.8950788894E-05    1.9189160474E-05
    1.9430530399E-05    1.9674936384E-05    1.9922416618E-05    2.0173009770E-05
    2.0426754996E-05    2.0683691943E-05    2.0943860760E-05    2.1207302098E-05
    2.1474057120E-05    2.1744167506E-05    2.2017675464E-05    2.2294623728E-05
    2.2575055572E-05    2.2859014814E-05    2.3146545824E-05    2.3437693529E-05
    2.3732503422E-05    2.4031021566E-05    2.4333294606E-05    2.4639369773E-05
    2.4949294892E-05    2.5263118389E-05    2.5580889299E-05    2.5902657275E-05
    2.6228472595E-05    2.6558386166E-05    2.6892449540E-05    2.7230714913E-05
    2.7573235141E-05    2.7920063743E-05    2.8271254912E-05    2.8626863522E-05
    2.8986945137E-05    2.9351556022E-05    2.9720753147E-05    3.0094594200E-05
    3.0473137595E-05    3.0856442480E-05    3.1244568746E-05    3.1637577040E-05
    3.2035528770E-05    3.2438486116E-05    3.2846512041E-05    3.3259670301E-05
    3.3678025453E-05    3.4101642864E-05    3.4530588726E-05    3.4964930063E-05
    3.5404734741E-05    3.5850071481E-05    3.6301009868E-05    3.6757620362E-05
    3.7219974308E-05    3.7688143952E-05    3.8162202444E-05    3.8642223858E-05
    3.9128283198E-05    3.9620456412E-05    4.0118820403E-05    4.0623453042E-05
    4.1134433177E-05    4.1651840651E-05    4.2175756311E-05    4.2706262018E-05
    4.3243440665E-05    4.3787376188E-05    4.4338153577E-05    4.4895858893E-05
    4.5460579279E-05    4.6032402972E-05    4.6611419322E-05    4.7197718802E-05
    4.7791393020E-05    4.8392534742E-05    4.9001237895E-05    4.9617597591E-05
    5.0241710138E-05    5.0873673054E-05    5.1513585085E-05    5.2161546219E-05
    5.2817657700E-05    5.3482022048E-05    5.4154743071E-05    5.4835925882E-05
    5.5525676919E-05    5.6224103955E-05    5.6931316122E-05    5.7647423923E-05
    5.8372539251E-05    5.9106775408E-05    5.9850247118E-05    6.0603070551E-05
    6.1365363337E-05    6.2137244586E-05    6.2918834906E-05    6.3710256422E-05
    6.4511632795E-05    6.5323089242E-05    6.6144752554E-05    6.6976751119E-05
    6.7819214937E-05    6.8672275646E-05    6.9536066537E-05    7.0410722581E-05
    7.1296380442E-05    7.2193178509E-05    7.3101256906E-05    7.4020757524E-05
    7.4951824035E-05    7.5894601922E-05    7.6849238494E-05    7.7815882917E-05
    7.8794686229E-05    7.9785801371E-05    8.0789383208E-05    8.1805588549E-05
    8.2834576181E-05    8.3876506883E-05    8.4931543460E-05    8.5999850764E-05
    8.7081595719E-05    8.8176947351E-05    8.9286076810E-05    9.0409157401E-05
    9.1546364606E-05    9.2697876117E-05    9.3863871860E-05    9.5044534023E-05
    9.6240047089E-05    9.7450597857E-05    9.8676375480E-05    9.9917571487E-05
    1.0117437982E-04    1.0244699685E-04    1.0373562144E-04    1.0504045492E-04
    1.0636170120E-04    1.0769956670E-04    1.0905426048E-04    1.1042599421E-04
    1.1181498223E-04    1.1322144156E-04    1.1464559198E-04    1.1608765600E-04
    1.1754785896E-04    1.1902642901E-04    1.2052359718E-04    1.2203959740E-04
    1.2357466656E-04    1.2512904452E-04    1.2670297414E-04    1.2829670136E-04
    1.2991047520E-04    1.3154454782E-04    1.3319917454E-04    1.3487461390E-04
    1.3657112770E-04    1.3828898101E-04    1.4002844226E-04    1.4178978323E-04
    1.4357327915E-04    1.4537920868E-04    1.4720785401E-04    1.4905950087E-04
    1.5093443858E-04    1.5283296010E-04    1.5475536209E-04    1.5670194491E-04
    1.5867301273E-04    1.6066887353E-04    1.6268983917E-04    1.6473622543E-04
    1.6680835206E-04    1.6890654283E-04    1.7103112559E-04    1.7318243232E-04
    1.7536079915E-04    1.7756656646E-04    1.7980007892E-04    1.8206168550E-04
    1.8435173958E-04    1.8667059901E-04    1.8901862609E-04    1.9139618772E-04
    1.9380365539E-04    1.9624140528E-04    1.9870981829E-04    2.0120928011E-04
    2.0374018129E-04    2.0630291728E-04    2.0889788853E-04    2.1152550050E-04
    2.1418616376E-04    2.1688029404E-04    2.1960831231E-04    2.2237064482E-04
    2.2516772320E-04    2.2799998449E-04    2.3086787125E-04    2.3377183158E-04
    2.3671231924E-04    2.3968979367E-04    2.4270472013E-04    2.4575756969E-04
    2.4884881937E-04    2.5197895219E-04    2.5514845722E-04    2.5835782973E-04
    2.6160757117E-04    2.6489818933E-04    2.6823019837E-04    2.7160411892E-04
    2.7502047816E-04    2.7847980992E-04    2.8198265472E-04    2.8552955987E-04
    2.8912107961E-04    2.9275777510E-04    2.9644021458E-04    3.0016897346E-04
    3.0394463434E-04    3.0776778720E-04    3.1163902939E-04    3.1555896582E-04
    3.1952820898E-04    3.2354737908E-04    3.2761710410E-04    3.3173801997E-04
    3.3591077058E-04    3.4013600793E-04    3.4441439222E-04    3.4874659197E-04
    3.5313328407E-04    3.5757515397E-04    3.6207289572E-04    3.6662721209E-04
    3.7123881471E-04    3.7590842416E-04    3.8063677005E-04    3.8542459122E-04
    3.9027263576E-04    3.9518166120E-04    4.0015243457E-04    4.0518573258E-04
    4.1028234168E-04    4.1544305824E-04    4.2066868861E-04    4.2596004933E-04
    4.3131796717E-04    4.3674327931E-04    4.4223683349E-04    4.4779948807E-04
    4.5343211223E-04    4.5913558608E-04    4.6491080080E-04    4.7075865878E-04
    4.7668007375E-04    4.8267597096E-04    4.8874728727E-04    4.9489497134E-04
    5.0111998376E-04    5.0742329719E-04    5.1380589654E-04    5.2026877911E-04
    5.2681295474E-04    5.3343944596E-04    5.4014928818E-04    5.4694352983E-04
    5.5382323251E-04    5.6078947121E-04    5.6784333439E-04    5.7498592426E-04
    5.8221835684E-04    5.8954176223E-04    5.9695728472E-04    6.0446608300E-04
    6.1206933033E-04    6.1976821474E-04    6.2756393920E-04    6.3545772179E-04
    6.4345079595E-04    6.5154441061E-04    6.5973983040E-04    6.6803833589E-04
    6.7644122373E-04    6.8494980688E-04    6.9356541483E-04    7.0228939379E-04
    7.1112310690E-04    7.2006793444E-04    7.2912527406E-04    7.3829654099E-04
    7.4758316825E-04    7.5698660690E-04    7.6650832626E-04    7.7614981409E-04
    7.8591257692E-04    7.9579814018E-04    8.0580804852E-04    8.1594386601E-04
    8.2620717639E-04    8.3659958332E-04    8.4712271064E-04    8.5777820261E-04
    8.6856772416E-04    8.7949296119E-04    8.9055562078E-04    9.0175743150E-04
    9.1310014365E-04    9.2458552956E-04    9.3621538384E-04    9.4799152368E-04
    9.5991578912E-04    9.7199004336E-04    9.8421617302E-04    9.9659608845E-04
    1.0091317241E-03    1.0218250385E-03    1.0346780153E-03    1.0476926626E-03
    1.0608710139E-03    1.0742151286E-03    1.0877270915E-03    1.1014090140E-03
    1.1152630339E-03    1.1292913160E-03    1.1434960521E-03    1.1578794617E-03
    1.1724437924E-03    1.1871913199E-03    1.2021243483E-03    1.2172452112E-03
    1.2325562711E-03    1.2480599204E-03    1.2637585817E-03    1.2796547077E-03
    1.2957507825E-03    1.3120493209E-03    1.3285528697E-03    1.3452640076E-03
    1.3621853457E-03    1.3793195281E-03    1.3966692319E-03    1.4142371682E-03
    1.4320260819E-03    1.4500387525E-03    1.4682779947E-03    1.4867466583E-03
    1.5054476291E-03    1.5243838292E-03    1.5435582173E-03    1.5629737895E-03
    1.5826335796E-03    1.6025406594E-03    1.6226981394E-03    1.6431091693E-03
    1.6637769384E-03    1.6847046760E-03    1.7058956521E-03    1.7273531779E-03
    1.7490806061E-03    1.7710813318E-03    1.7933587925E-03    1.8159164692E-03
    1.8387578865E-03    1.8618866134E-03    1.8853062640E-03    1.9090204975E-03
    1.9330330193E-03    1.9573475814E-03    1.9819679831E-03    2.0068980714E-03
    2.0321417415E-03    2.0577029379E-03    2.0835856546E-03    2.1097939358E-03
    2.1363318766E-03    2.1632036236E-03    2.1904133755E-03    2.2179653840E-03
    2.2458639541E-03    2.2741134450E-03    2.3027182708E-03    2.3316829010E-03
    2.3610118614E-03    2.3907097347E-03    2.4207811612E-03    2.4512308397E-03
    2.4820635281E-03    2.5132840439E-03    2.5448972654E-03    2.5769081324E-03
    2.6093216464E-03    2.6421428723E-03    2.6753769384E-03    2.7090290376E-03
    2.7431044280E-03    2.7776084341E-03    2.8125464472E-03    2.8479239264E-03
    2.8837463995E-03    2.9200194639E-03    2.9567487872E-03    2.9939401085E-03
    3.0315992391E-03    3.0697320632E-03    3.1083445392E-03    3.1474427004E-03
    3.1870326559E-03    3.2271205917E-03    3.2677127717E-03    3.3088155384E-03
    3.3504353143E-03    3.3925786026E-03    3.4352519881E-03    3.4784621388E-03
    3.5222158062E-03    3.5665198271E-03    3.6113811239E-03    3.6568067063E-03
    3.7028036723E-03    3.7493792088E-03    3.7965405935E-03    3.8442951954E-03
    3.8926504762E-03    3.9416139916E-03    3.9911933922E-03    4.0413964249E-03
    4.0922309339E-03    4.1437048624E-03    4.1958262532E-03    4.2486032504E-03
    4.3020441005E-03    4.3561571538E-03    4.4109508655E-03    4.4664337972E-03
    4.5226146182E-03    4.5795021071E-03    4.6371051524E-03    4.6954327548E-03
    4.7544940282E-03    4.8142982009E-03    4.8748546176E-03    4.9361727401E-03
    4.9982621497E-03    5.0611325480E-03    5.1247937585E-03    5.1892557284E-03
    5.2545285301E-03    5.3206223626E-03    5.3875475532E-03    5.4553145590E-03
    5.5239339688E-03    5.5934165046E-03    5.6637730230E-03    5.7350145175E-03
    5.8071521197E-03    5.8801971012E-03    5.9541608755E-03    6.0290549996E-03
    6.1048911757E-03    6.1816812535E-03    6.2594372316E-03    6.3381712595E-03
    6.4178956395E-03    6.4986228288E-03    6.5803654412E-03    6.6631362490E-03
    6.7469481854E-03    6.8318143462E-03    6.9177479919E-03    7.0047625498E-03
    7.0928716161E-03    7.1820889580E-03    7.2724285159E-03    7.3639044056E-03
    7.4565309203E-03    7.5503225331E-03    7.6452938992E-03    7.7414598580E-03
    7.8388354357E-03    7.9374358474E-03    8.0372764995E-03    8.1383729925E-03
    8.2407411228E-03    8.3443968857E-03    8.4493564776E-03    8.5556362986E-03
    8.6632529551E-03    8.7722232626E-03    8.8825642478E-03    8.9942931518E-03
    9.1074274323E-03    9.2219847669E-03    9.3379830554E-03    9.4554404228E-03
    9.5743752219E-03    9.6948060367E-03    9.8167516846E-03    9.9402312200E-03
    1.0065263937E-02    1.0191869371E-02    1.0320067306E-02    1.0449877773E-02
    1.0581321054E-02    1.0714417688E-02    1.0849188472E-02    1.0985654463E-02
    1.1123836986E-02    1.1263757630E-02    1.1405438260E-02    1.1548901012E-02
    1.1694168304E-02    1.1841262833E-02    1.1990207584E-02    1.2141025829E-02
    1.2293741134E-02    1.2448377361E-02    1.2604958672E-02    1.2763509534E-02
    1.2924054720E-02    1.3086619316E-02    1.3251228723E-02    1.3417908662E-02
    1.3586685176E-02    1.3757584637E-02    1.3930633748E-02    1.4105859550E-02
    1.4283289421E-02    1.4462951084E-02    1.4644872614E-02    1.4829082434E-02
    1.5015609329E-02    1.5204482443E-02    1.5395731289E-02    1.5589385749E-02
    1.5785476082E-02    1.5984032928E-02    1.6185087312E-02    1.6388670648E-02
    1.6594814748E-02    1.6803551821E-02    1.7014914483E-02    1.7228935760E-02
    1.7445649094E-02    1.7665088346E-02    1.7887287803E-02    1.8112282186E-02
    1.8340106650E-02    1.8570796793E-02    1.8804388660E-02    1.9040918752E-02
    1.9280424026E-02    1.9522941905E-02    1.9768510284E-02    2.0017167532E-02
    2.0268952504E-02    2.0523904541E-02    2.0782063479E-02    2.1043469658E-02
    2.1308163921E-02    2.1576187628E-02    2.1847582659E-02    2.2122391419E-02
    2.2400656847E-02    2.2682422424E-02    2.2967732175E-02    2.3256630681E-02
    2.3549163083E-02    2.3845375090E-02    2.4145312985E-02    2.4449023634E-02
    2.4756554493E-02    2.5067953614E-02    2.5383269654E-02    2.5702551881E-02
    2.6025850185E-02    2.6353215080E-02    2.6684697719E-02    2.7020349896E-02
    2.7360224058E-02    2.7704373310E-02    2.8052851427E-02    2.8405712860E-02
    2.8763012742E-02    2.9124806904E-02    2.9491151877E-02    2.9862104901E-02
    3.0237723941E-02    3.0618067686E-02    3.1003195567E-02    3.1393167760E-02
    3.1788045199E-02    3.2187889585E-02    3.2592763394E-02    3.3002729889E-02
    3.3417853128E-02    3.3838197974E-02    3.4263830108E-02    3.4694816034E-02
    3.5131223096E-02    3.5573119484E-02    3.6020574243E-02    3.6473657291E-02
    3.6932439422E-02    3.7396992321E-02    3.7867388577E-02    3.8343701689E-02
    3.8826006083E-02    3.9314377119E-02    3.9808891106E-02    4.0309625314E-02
    4.0816657982E-02    4.1330068337E-02    4.1849936599E-02    4.2376343998E-02
    4.2909372788E-02    4.3449106254E-02    4.3995628731E-02    4.4549025615E-02
    4.5109383375E-02    4.5676789568E-02    4.6251332852E-02    4.6833103001E-02
    4.7422190918E-02    4.8018688648E-02    4.8622689396E-02    4.9234287539E-02
    4.9853578639E-02    5.0480659462E-02    5.1115627990E-02    5.1758583440E-02
    5.2409626274E-02    5.3068858218E-02    5.3736382279E-02    5.4412302760E-02
    5.5096725273E-02    5.5789756762E-02    5.6491505514E-02    5.7202081179E-02
    5.7921594785E-02    5.8650158758E-02    5.9387886938E-02    6.0134894596E-02
    6.0891298453E-02    6.1657216700E-02    6.2432769013E-02    6.3218076572E-02
    6.4013262085E-02    6.4818449800E-02    6.5633765530E-02    6.6459336669E-02
    6.7295292214E-02    6.8141762786E-02    6.8998880648E-02    6.9866779724E-02
    7.0745595627E-02    7.1635465674E-02    7.2536528907E-02    7.3448926121E-02
    7.4372799879E-02    7.5308294538E-02    7.6255556271E-02    7.7214733091E-02
    7.8185974869E-02    7.9169433365E-02    8.0165262246E-02    8.1173617113E-02
    8.2194655522E-02    8.3228537013E-02    8.4275423133E-02    8.5335477459E-02
    8.6408865627E-02    8.7495755356E-02    8.8596316474E-02    8.9710720948E-02
    9.0839142904E-02    9.1981758661E-02    9.3138746755E-02    9.4310287968E-02
    9.5496565355E-02    9.6697764274E-02    9.7914072416E-02    9.9145679831E-02
    1.0039277896E-01    1.0165556467E-01    1.0293423426E-01    1.0422898754E-01
    1.0554002681E-01    1.0686755692E-01    1.0821178530E-01    1.0957292200E-01
    1.1095117969E-01    1.1234677373E-01    1.1375992218E-01    1.1519084585E-01
    1.1663976832E-01    1.1810691599E-01    1.1959251811E-01    1.2109680681E-01
    1.2262001712E-01    1.2416238706E-01    1.2572415763E-01    1.2730557286E-01
    1.2890687984E-01    1.3052832878E-01    1.3217017304E-01    1.3383266915E-01
    1.3551607690E-01    1.3722065930E-01    1.3894668272E-01    1.4069441683E-01
    1.4246413474E-01    1.4425611295E-01    1.4607063148E-01    1.4790797384E-01
    1.4976842712E-01    1.5165228202E-01    1.5355983290E-01    1.5549137782E-01
    1.5744721858E-01    1.5942766079E-01    1.6143301389E-01    1.6346359124E-01
    1.6551971010E-01    1.6760169175E-01    1.6970986151E-01    1.7184454878E-01
    1.7400608711E-01    1.7619481424E-01    1.7841107217E-01    1.8065520720E-01
    1.8292756997E-01    1.8522851554E-01    1.8755840345E-01    1.8991759774E-01
    1.9230646704E-01    1.9472538461E-01
   </PP_RAB>
 </PP_MESH>
  <PP_LOCAL type="real"  size="1106" columns="4">
   -3.8703125361E+01   -3.8703125378E+01   -3.8703125396E+01   -3.8703125413E+01
   -3.8703125430E+01   -3.8703125447E+01   -3.8703125464E+01   -3.8703125480E+01
   -3.8703125497E+01   -3.8703125513E+01   -3.8703125529E+01   -3.8703125544E+01
   -3.8703125560E+01   -3.8703125575E+01   -3.8703125590E+01   -3.8703125605E+01
   -3.8703125620E+01   -3.8703125634E+01   -3.8703125648E+01   -3.8703125662E+01
   -3.8703125676E+01   -3.8703125690E+01   -3.8703125704E+01   -3.8703125717E+01
   -3.8703125730E+01   -3.8703125743E+01   -3.8703125756E+01   -3.8703125769E+01
   -3.8703125782E+01   -3.8703125794E+01   -3.8703125806E+01   -3.8703125818E+01
   -3.8703125830E+01   -3.8703125842E+01   -3.8703125854E+01   -3.8703125865E+01
   -3.8703125876E+01   -3.8703125888E+01   -3.8703125899E+01   -3.8703125909E+01
   -3.8703125920E+01   -3.8703125931E+01   -3.8703125941E+01   -3.8703125951E+01
   -3.8703125962E+01   -3.8703125972E+01   -3.8703125982E+01   -3.8703125991E+01
   -3.8703126001E+01   -3.8703126010E+01   -3.8703126020E+01   -3.8703126029E+01
   -3.8703126038E+01   -3.8703126047E+01   -3.8703126056E+01   -3.8703126065E+01
   -3.8703126073E+01   -3.8703126082E+01   -3.8703126090E+01   -3.8703126098E+01
   -3.8703126107E+01   -3.8703126115E+01   -3.8703126123E+01   -3.8703126130E+01
   -3.8703126138E+01   -3.8703126146E+01   -3.8703126153E+01   -3.8703126160E+01
   -3.8703126168E+01   -3.8703126175E+01   -3.8703126182E+01   -3.8703126189E+01
   -3.8703126196E+01   -3.8703126202E+01   -3.8703126209E+01   -3.8703126215E+01
   -3.8703126222E+01   -3.8703126228E+01   -3.8703126234E+01   -3.8703126240E+01
   -3.8703126246E+01   -3.8703126252E+01   -3.8703126258E+01   -3.8703126264E+01
   -3.8703126269E+01   -3.8703126275E+01   -3.8703126280E+01   -3.8703126286E+01
   -3.8703126291E+01   -3.8703126296E+01   -3.8703126301E+01   -3.8703126306E+01
   -3.8703126311E+01   -3.8703126315E+01   -3.8703126320E+01   -3.8703126325E+01
   -3.8703126329E+01   -3.8703126333E+01   -3.8703126338E+01   -3.8703126342E+01
   -3.8703126346E+01   -3.8703126350E+01   -3.8703126354E+01   -3.8703126358E+01
   -3.8703126361E+01   -3.8703126365E+01   -3.8703126369E+01   -3.8703126372E+01
   -3.8703126375E+01   -3.8703126379E+01   -3.8703126382E+01   -3.8703126385E+01
   -3.8703126388E+01   -3.8703126391E+01   -3.8703126394E+01   -3.8703126396E+01
   -3.8703126399E+01   -3.8703126401E+01   -3.8703126404E+01   -3.8703126406E+01
   -3.8703126408E+01   -3.8703126411E+01   -3.8703126413E+01   -3.8703126415E+01
   -3.8703126416E+01   -3.8703126418E+01   -3.8703126420E+01   -3.8703126421E+01
   -3.8703126423E+01   -3.8703126424E+01   -3.8703126425E+01   -3.8703126427E+01
   -3.8703126428E+01   -3.8703126429E+01   -3.8703126429E+01   -3.8703126430E+01
   -3.8703126431E+01   -3.8703126431E+01   -3.8703126432E+01   -3.8703126432E+01
   -3.8703126432E+01   -3.8703126432E+01   -3.8703126432E+01   -3.8703126432E+01
   -3.8703126432E+01   -3.8703126431E+01   -3.8703126431E+01   -3.8703126430E+01
   -3.8703126429E+01   -3.8703126429E+01   -3.8703126428E+01   -3.8703126426E+01
   -3.8703126425E+01   -3.8703126424E+01   -3.8703126422E+01   -3.8703126420E+01
   -3.8703126419E+01   -3.8703126417E+01   -3.8703126414E+01   -3.8703126412E+01
   -3.8703126410E+01   -3.8703126407E+01   -3.8703126404E+01   -3.8703126402E+01
   -3.8703126398E+01   -3.8703126395E+01   -3.8703126392E+01   -3.8703126388E+01
   -3.8703126385E+01   -3.8703126381E+01   -3.8703126376E+01   -3.8703126372E+01
   -3.8703126368E+01   -3.8703126363E+01   -3.8703126358E+01   -3.8703126353E+01
   -3.8703126348E+01   -3.8703126342E+01   -3.8703126337E+01   -3.8703126331E+01
   -3.8703126325E+01   -3.8703126318E+01   -3.8703126312E+01   -3.8703126305E+01
   -3.8703126298E+01   -3.8703126290E+01   -3.8703126283E+01   -3.8703126275E+01
   -3.8703126267E+01   -3.8703126259E+01   -3.8703126250E+01   -3.8703126241E+01
   -3.8703126232E+01   -3.8703126222E+01   -3.8703126212E+01   -3.8703126202E+01
   -3.8703126192E+01   -3.8703126181E+01   -3.8703126170E+01   -3.8703126159E+01
   -3.8703126147E+01   -3.8703126135E+01   -3.8703126122E+01   -3.8703126109E+01
   -3.8703126096E+01   -3.8703126082E+01   -3.8703126068E+01   -3.8703126054E+01
   -3.8703126039E+01   -3.8703126024E+01   -3.8703126008E+01   -3.8703125992E+01
   -3.8703125975E+01   -3.8703125958E+01   -3.8703125941E+01   -3.8703125923E+01
   -3.8703125904E+01   -3.8703125885E+01   -3.8703125865E+01   -3.8703125845E+01
   -3.8703125824E+01   -3.8703125803E+01   -3.8703125781E+01   -3.8703125759E+01
   -3.8703125736E+01   -3.8703125712E+01   -3.8703125688E+01   -3.8703125663E+01
   -3.8703125637E+01   -3.8703125611E+01   -3.8703125584E+01   -3.8703125556E+01
   -3.8703125527E+01   -3.8703125498E+01   -3.8703125468E+01   -3.8703125437E+01
   -3.8703125406E+01   -3.8703125373E+01   -3.8703125340E+01   -3.8703125306E+01
   -3.8703125270E+01   -3.8703125234E+01   -3.8703125197E+01   -3.8703125159E+01
   -3.8703125120E+01   -3.8703125080E+01   -3.8703125039E+01   -3.8703124997E+01
   -3.8703124954E+01   -3.8703124910E+01   -3.8703124864E+01   -3.8703124817E+01
   -3.8703124770E+01   -3.8703124720E+01   -3.8703124670E+01   -3.8703124618E+01
   -3.8703124565E+01   -3.8703124511E+01   -3.8703124455E+01   -3.8703124398E+01
   -3.8703124339E+01   -3.8703124279E+01   -3.8703124217E+01   -3.8703124154E+01
   -3.8703124089E+01   -3.8703124022E+01   -3.8703123954E+01   -3.8703123883E+01
   -3.8703123811E+01   -3.8703123738E+01   -3.8703123662E+01   -3.8703123584E+01
   -3.8703123505E+01   -3.8703123423E+01   -3.8703123339E+01   -3.8703123253E+01
   -3.8703123165E+01   -3.8703123075E+01   -3.8703122982E+01   -3.8703122887E+01
   -3.8703122790E+01   -3.8703122690E+01   -3.8703122588E+01   -3.8703122482E+01
   -3.8703122375E+01   -3.8703122264E+01   -3.8703122151E+01   -3.8703122035E+01
   -3.8703121915E+01   -3.8703121793E+01   -3.8703121668E+01   -3.8703121539E+01
   -3.8703121408E+01   -3.8703121272E+01   -3.8703121134E+01   -3.8703120992E+01
   -3.8703120846E+01   -3.8703120697E+01   -3.8703120543E+01   -3.8703120386E+01
   -3.8703120225E+01   -3.8703120060E+01   -3.8703119890E+01   -3.8703119717E+01
   -3.8703119539E+01   -3.8703119356E+01   -3.8703119169E+01   -3.8703118977E+01
   -3.8703118780E+01   -3.8703118578E+01   -3.8703118371E+01   -3.8703118158E+01
   -3.8703117941E+01   -3.8703117717E+01   -3.8703117489E+01   -3.8703117254E+01
   -3.8703117013E+01   -3.8703116766E+01   -3.8703116513E+01   -3.8703116254E+01
   -3.8703115988E+01   -3.8703115715E+01   -3.8703115436E+01   -3.8703115149E+01
   -3.8703114855E+01   -3.8703114553E+01   -3.8703114244E+01   -3.8703113927E+01
   -3.8703113602E+01   -3.8703113269E+01   -3.8703112927E+01   -3.8703112577E+01
   -3.8703112217E+01   -3.8703111849E+01   -3.8703111471E+01   -3.8703111084E+01
   -3.8703110687E+01   -3.8703110280E+01   -3.8703109863E+01   -3.8703109434E+01
   -3.8703108996E+01   -3.8703108546E+01   -3.8703108084E+01   -3.8703107611E+01
   -3.8703107126E+01   -3.8703106629E+01   -3.8703106119E+01   -3.8703105596E+01
   -3.8703105060E+01   -3.8703104510E+01   -3.8703103946E+01   -3.8703103369E+01
   -3.8703102776E+01   -3.8703102168E+01   -3.8703101545E+01   -3.8703100907E+01
   -3.8703100252E+01   -3.8703099580E+01   -3.8703098892E+01   -3.8703098186E+01
   -3.8703097462E+01   -3.8703096720E+01   -3.8703095959E+01   -3.8703095179E+01
   -3.8703094379E+01   -3.8703093559E+01   -3.8703092718E+01   -3.8703091855E+01
   -3.8703090971E+01   -3.8703090065E+01   -3.8703089135E+01   -3.8703088182E+01
   -3.8703087205E+01   -3.8703086203E+01   -3.8703085176E+01   -3.8703084123E+01
   -3.8703083043E+01   -3.8703081936E+01   -3.8703080800E+01   -3.8703079636E+01
   -3.8703078443E+01   -3.8703077219E+01   -3.8703075964E+01   -3.8703074678E+01
   -3.8703073359E+01   -3.8703072006E+01   -3.8703070620E+01   -3.8703069198E+01
   -3.8703067740E+01   -3.8703066245E+01   -3.8703064713E+01   -3.8703063141E+01
   -3.8703061530E+01   -3.8703059878E+01   -3.8703058184E+01   -3.8703056448E+01
   -3.8703054667E+01   -3.8703052841E+01   -3.8703050969E+01   -3.8703049050E+01
   -3.8703047082E+01   -3.8703045064E+01   -3.8703042996E+01   -3.8703040874E+01
   -3.8703038699E+01   -3.8703036469E+01   -3.8703034183E+01   -3.8703031839E+01
   -3.8703029435E+01   -3.8703026971E+01   -3.8703024444E+01   -3.8703021853E+01
   -3.8703019196E+01   -3.8703016473E+01   -3.8703013680E+01   -3.8703010816E+01
   -3.8703007881E+01   -3.8703004870E+01   -3.8703001784E+01   -3.8702998619E+01
   -3.8702995375E+01   -3.8702992048E+01   -3.8702988637E+01   -3.8702985140E+01
   -3.8702981554E+01   -3.8702977877E+01   -3.8702974107E+01   -3.8702970242E+01
   -3.8702966279E+01   -3.8702962216E+01   -3.8702958049E+01   -3.8702953778E+01
   -3.8702949398E+01   -3.8702944907E+01   -3.8702940303E+01   -3.8702935582E+01
   -3.8702930741E+01   -3.8702925778E+01   -3.8702920690E+01   -3.8702915472E+01
   -3.8702910122E+01   -3.8702904637E+01   -3.8702899014E+01   -3.8702893247E+01
   -3.8702887335E+01   -3.8702881273E+01   -3.8702875058E+01   -3.8702868685E+01
   -3.8702862151E+01   -3.8702855452E+01   -3.8702848583E+01   -3.8702841540E+01
   -3.8702834319E+01   -3.8702826915E+01   -3.8702819323E+01   -3.8702811540E+01
   -3.8702803559E+01   -3.8702795377E+01   -3.8702786987E+01   -3.8702778385E+01
   -3.8702769565E+01   -3.8702760521E+01   -3.8702751249E+01   -3.8702741742E+01
   -3.8702731995E+01   -3.8702722001E+01   -3.8702711753E+01   -3.8702701247E+01
   -3.8702690474E+01   -3.8702679429E+01   -3.8702668104E+01   -3.8702656492E+01
   -3.8702644586E+01   -3.8702632379E+01   -3.8702619863E+01   -3.8702607030E+01
   -3.8702593873E+01   -3.8702580382E+01   -3.8702566550E+01   -3.8702552367E+01
   -3.8702537826E+01   -3.8702522916E+01   -3.8702507629E+01   -3.8702491955E+01
   -3.8702475885E+01   -3.8702459407E+01   -3.8702442512E+01   -3.8702425190E+01
   -3.8702407429E+01   -3.8702389219E+01   -3.8702370547E+01   -3.8702351403E+01
   -3.8702331774E+01   -3.8702311649E+01   -3.8702291014E+01   -3.8702269857E+01
   -3.8702248164E+01   -3.8702225922E+01   -3.8702203116E+01   -3.8702179734E+01
   -3.8702155760E+01   -3.8702131179E+01   -3.8702105975E+01   -3.8702080134E+01
   -3.8702053639E+01   -3.8702026472E+01   -3.8701998619E+01   -3.8701970060E+01
   -3.8701940778E+01   -3.8701910755E+01   -3.8701879972E+01   -3.8701848410E+01
   -3.8701816048E+01   -3.8701782868E+01   -3.8701748848E+01   -3.8701713967E+01
   -3.8701678202E+01   -3.8701641533E+01   -3.8701603935E+01   -3.8701565385E+01
   -3.8701525860E+01   -3.8701485334E+01   -3.8701443783E+01   -3.8701401180E+01
   -3.8701357498E+01   -3.8701312711E+01   -3.8701266789E+01   -3.8701219706E+01
   -3.8701171431E+01   -3.8701121934E+01   -3.8701071184E+01   -3.8701019149E+01
   -3.8700965798E+01   -3.8700911096E+01   -3.8700855009E+01   -3.8700797503E+01
   -3.8700738541E+01   -3.8700678087E+01   -3.8700616103E+01   -3.8700552550E+01
   -3.8700487388E+01   -3.8700420577E+01   -3.8700352075E+01   -3.8700281839E+01
   -3.8700209826E+01   -3.8700135989E+01   -3.8700060284E+01   -3.8699982663E+01
   -3.8699903078E+01   -3.8699821478E+01   -3.8699737813E+01   -3.8699652030E+01
   -3.8699564076E+01   -3.8699473896E+01   -3.8699381434E+01   -3.8699286632E+01
   -3.8699189430E+01   -3.8699089768E+01   -3.8698987584E+01   -3.8698882814E+01
   -3.8698775393E+01   -3.8698665253E+01   -3.8698552325E+01   -3.8698436540E+01
   -3.8698317825E+01   -3.8698196105E+01   -3.8698071304E+01   -3.8697943346E+01
   -3.8697812149E+01   -3.8697677633E+01   -3.8697539712E+01   -3.8697398301E+01
   -3.8697253311E+01   -3.8697104653E+01   -3.8696952233E+01   -3.8696795956E+01
   -3.8696635724E+01   -3.8696471438E+01   -3.8696302995E+01   -3.8696130289E+01
   -3.8695953214E+01   -3.8695771658E+01   -3.8695585508E+01   -3.8695394648E+01
   -3.8695198959E+01   -3.8694998319E+01   -3.8694792602E+01   -3.8694581681E+01
   -3.8694365423E+01   -3.8694143693E+01   -3.8693916354E+01   -3.8693683264E+01
   -3.8693444276E+01   -3.8693199242E+01   -3.8692948009E+01   -3.8692690421E+01
   -3.8692426316E+01   -3.8692155531E+01   -3.8691877895E+01   -3.8691593236E+01
   -3.8691301377E+01   -3.8691002134E+01   -3.8690695323E+01   -3.8690380751E+01
   -3.8690058223E+01   -3.8689727537E+01   -3.8689388487E+01   -3.8689040861E+01
   -3.8688684444E+01   -3.8688319013E+01   -3.8687944339E+01   -3.8687560191E+01
   -3.8687166328E+01   -3.8686762505E+01   -3.8686348470E+01   -3.8685923965E+01
   -3.8685488726E+01   -3.8685042483E+01   -3.8684584956E+01   -3.8684115860E+01
   -3.8683634905E+01   -3.8683141790E+01   -3.8682636208E+01   -3.8682117845E+01
   -3.8681586378E+01   -3.8681041475E+01   -3.8680482799E+01   -3.8679910001E+01
   -3.8679322725E+01   -3.8678720605E+01   -3.8678103267E+01   -3.8677470326E+01
   -3.8676821391E+01   -3.8676156055E+01   -3.8675473907E+01   -3.8674774521E+01
   -3.8674057464E+01   -3.8673322289E+01   -3.8672568539E+01   -3.8671795747E+01
   -3.8671003431E+01   -3.8670191100E+01   -3.8669358250E+01   -3.8668504363E+01
   -3.8667628908E+01   -3.8666731343E+01   -3.8665811110E+01   -3.8664867638E+01
   -3.8663900342E+01   -3.8662908622E+01   -3.8661891862E+01   -3.8660849432E+01
   -3.8659780685E+01   -3.8658684960E+01   -3.8657561576E+01   -3.8656409839E+01
   -3.8655229033E+01   -3.8654018428E+01   -3.8652777275E+01   -3.8651504804E+01
   -3.8650200228E+01   -3.8648862740E+01   -3.8647491512E+01   -3.8646085696E+01
   -3.8644644422E+01   -3.8643166800E+01   -3.8641651917E+01   -3.8640098836E+01
   -3.8638506597E+01   -3.8636874218E+01   -3.8635200691E+01   -3.8633484982E+01
   -3.8631726034E+01   -3.8629922760E+01   -3.8628074050E+01   -3.8626178763E+01
   -3.8624235732E+01   -3.8622243759E+01   -3.8620201617E+01   -3.8618108050E+01
   -3.8615961769E+01   -3.8613761454E+01   -3.8611505751E+01   -3.8609193274E+01
   -3.8606822602E+01   -3.8604392278E+01   -3.8601900810E+01   -3.8599346670E+01
   -3.8596728289E+01   -3.8594044063E+01   -3.8591292346E+01   -3.8588471451E+01
   -3.8585579652E+01   -3.8582615177E+01   -3.8579576213E+01   -3.8576460902E+01
   -3.8573267338E+01   -3.8569993570E+01   -3.8566637600E+01   -3.8563197379E+01
   -3.8559670807E+01   -3.8556055736E+01   -3.8552349960E+01   -3.8548551224E+01
   -3.8544657215E+01   -3.8540665563E+01   -3.8536573842E+01   -3.8532379564E+01
   -3.8528080183E+01   -3.8523673088E+01   -3.8519155607E+01   -3.8514525000E+01
   -3.8509778462E+01   -3.8504913119E+01   -3.8499926027E+01   -3.8494814171E+01
   -3.8489574461E+01   -3.8484203733E+01   -3.8478698745E+01   -3.8473056179E+01
   -3.8467272634E+01   -3.8461344626E+01   -3.8455268588E+01   -3.8449040867E+01
   -3.8442657719E+01   -3.8436115312E+01   -3.8429409720E+01   -3.8422536923E+01
   -3.8415492801E+01   -3.8408273139E+01   -3.8400873616E+01   -3.8393289810E+01
   -3.8385517189E+01   -3.8377551116E+01   -3.8369386838E+01   -3.8361019490E+01
   -3.8352444089E+01   -3.8343655533E+01   -3.8334648595E+01   -3.8325417925E+01
   -3.8315958041E+01   -3.8306263333E+01   -3.8296328054E+01   -3.8286146318E+01
   -3.8275712098E+01   -3.8265019225E+01   -3.8254061377E+01   -3.8242832083E+01
   -3.8231324716E+01   -3.8219532489E+01   -3.8207448452E+01   -3.8195065487E+01
   -3.8182376307E+01   -3.8169373447E+01   -3.8156049262E+01   -3.8142395926E+01
   -3.8128405420E+01   -3.8114069534E+01   -3.8099379859E+01   -3.8084327782E+01
   -3.8068904482E+01   -3.8053100926E+01   -3.8036907858E+01   -3.8020315800E+01
   -3.8003315043E+01   -3.7985895641E+01   -3.7968047405E+01   -3.7949759899E+01
   -3.7931022429E+01   -3.7911824040E+01   -3.7892153509E+01   -3.7871999334E+01
   -3.7851349731E+01   -3.7830192625E+01   -3.7808515641E+01   -3.7786306096E+01
   -3.7763550993E+01   -3.7740237010E+01   -3.7716350490E+01   -3.7691877436E+01
   -3.7666803496E+01   -3.7641113959E+01   -3.7614793738E+01   -3.7587827368E+01
   -3.7560198986E+01   -3.7531892326E+01   -3.7502890706E+01   -3.7473177017E+01
   -3.7442733706E+01   -3.7411542770E+01   -3.7379585738E+01   -3.7346843662E+01
   -3.7313297099E+01   -3.7278926099E+01   -3.7243710190E+01   -3.7207628364E+01
   -3.7170659062E+01   -3.7132780157E+01   -3.7093968938E+01   -3.7054202097E+01
   -3.7013455710E+01   -3.6971705219E+01   -3.6928925418E+01   -3.6885090437E+01
   -3.6840173719E+01   -3.6794148009E+01   -3.6746985334E+01   -3.6698656986E+01
   -3.6649133505E+01   -3.6598384661E+01   -3.6546379441E+01   -3.6493086029E+01
   -3.6438471793E+01   -3.6382503269E+01   -3.6325146146E+01   -3.6266365256E+01
   -3.6206124559E+01   -3.6144387135E+01   -3.6081115171E+01   -3.6016269958E+01
   -3.5949811884E+01   -3.5881700428E+01   -3.5811894164E+01   -3.5740350757E+01
   -3.5667026974E+01   -3.5591878685E+01   -3.5514860879E+01   -3.5435927677E+01
   -3.5355032351E+01   -3.5272127346E+01   -3.5187164308E+01   -3.5100094115E+01
   -3.5010866918E+01   -3.4919432176E+01   -3.4825738711E+01   -3.4729734754E+01
   -3.4631368009E+01   -3.4530585715E+01   -3.4427334720E+01   -3.4321561552E+01
   -3.4213212509E+01   -3.4102233745E+01   -3.3988571370E+01   -3.3872171549E+01
   -3.3752980620E+01   -3.3630945207E+01   -3.3506012350E+01   -3.3378129638E+01
   -3.3247245354E+01   -3.3113308629E+01   -3.2976269606E+01   -3.2836079610E+01
   -3.2692691345E+01   -3.2546059082E+01   -3.2396138886E+01   -3.2242888835E+01
   -3.2086269279E+01   -3.1926243099E+01   -3.1762775999E+01   -3.1595836814E+01
   -3.1425397848E+01   -3.1251435228E+01   -3.1073929294E+01   -3.0892865017E+01
   -3.0708232438E+01   -3.0520027144E+01   -3.0328250770E+01   -3.0132911531E+01
   -2.9934024775E+01   -2.9731613567E+01   -2.9525709285E+01   -2.9316352229E+01
   -2.9103592242E+01   -2.8887489321E+01   -2.8668114222E+01   -2.8445549032E+01
   -2.8219887717E+01   -2.7991236613E+01   -2.7759714851E+01   -2.7525454709E+01
   -2.7288601876E+01   -2.7049315603E+01   -2.6807768737E+01   -2.6564147635E+01
   -2.6318651926E+01   -2.6071494127E+01   -2.5822899102E+01   -2.5573103343E+01
   -2.5322354082E+01   -2.5070908199E+01   -2.4819030932E+01   -2.4566994360E+01
   -2.4315075639E+01   -2.4063554970E+01   -2.3812713255E+01   -2.3562829420E+01
   -2.3314177356E+01   -2.3067022429E+01   -2.2821617531E+01   -2.2578198631E+01
   -2.2336979790E+01   -2.2098147661E+01   -2.1861855482E+01   -2.1628216657E+01
   -2.1397298042E+01   -2.1169113142E+01   -2.0943615493E+01   -2.0720695405E+01
   -2.0500200792E+01   -2.0281958719E+01   -2.0065780365E+01   -1.9851466598E+01
   -1.9638815626E+01   -1.9427632456E+01   -1.9217739603E+01   -1.9008988260E+01
   -1.8801268943E+01   -1.8594520597E+01   -1.8388737187E+01   -1.8183970966E+01
   -1.7980331746E+01   -1.7777981587E+01   -1.7577124261E+01   -1.7377988674E+01
   -1.7180805358E+01   -1.6985775469E+01   -1.6793032987E+01   -1.6602603418E+01
   -1.6414366086E+01   -1.6228031117E+01   -1.6043144045E+01   -1.5859127991E+01
   -1.5675363931E+01   -1.5491295743E+01   -1.5306534326E+01   -1.5120931350E+01
   -1.4934601641E+01   -1.4747890707E+01   -1.4561301789E+01   -1.4375407033E+01
   -1.4190766712E+01   -1.4007871854E+01   -1.3827114763E+01   -1.3648783454E+01
   -1.3473071955E+01   -1.3300098179E+01   -1.3129922779E+01   -1.2962565301E+01
   -1.2798015947E+01   -1.2636247818E+01   -1.2477218726E+01   -1.2320862491E+01
   -1.2167094648E+01   -1.2015800373E+01   -1.1866620803E+01   -1.1719345323E+01
   -1.1573944432E+01   -1.1430375988E+01   -1.1288597280E+01   -1.1148567159E+01
   -1.1010247884E+01   -1.0873606711E+01   -1.0738616847E+01   -1.0605257686E+01
   -1.0473514303E+01   -1.0343376289E+01   -1.0214836084E+01   -1.0087887046E+01
   -9.9625215147E+00   -9.8387291699E+00   -9.7164959154E+00   -9.5958034571E+00
   -9.4766296228E+00   -9.3589493475E+00   -9.2427361249E+00   -9.1279636525E+00
   -9.0146073590E+00   -8.9026455287E+00   -8.7920591181E+00   -8.6828178821E+00
   -8.5749291652E+00   -8.4684119774E+00   -8.3632168269E+00   -8.2593281504E+00
   -8.1567297937E+00   -8.0554057656E+00   -7.9553402677E+00   -7.8565176930E+00
   -7.7589226236E+00   -7.6625398296E+00   -7.5673542670E+00   -7.4733510759E+00
   -7.3805155788E+00   -7.2888332783E+00   -7.1982898558E+00   -7.1088711691E+00
   -7.0205632506E+00   -6.9333523052E+00   -6.8472247086E+00   -6.7621670052E+00
   -6.6781659059E+00   -6.5952082866E+00   -6.5132811855E+00   -6.4323718022E+00
   -6.3524674946E+00   -6.2735557779E+00   -6.1956243221E+00   -6.1186609504E+00
   -6.0426536370E+00   -5.9675905059E+00   -5.8934598280E+00   -5.8202500205E+00
   -5.7479496439E+00   -5.6765474011E+00   -5.6060321353E+00   -5.5363928283E+00
   -5.4676185986E+00   -5.3996986999E+00   -5.3326225196E+00   -5.2663795767E+00
   -5.2009595203E+00   -5.1363521284E+00   -5.0725473056E+00   -5.0095350822E+00
   -4.9473056121E+00   -4.8858491717E+00   -4.8251561581E+00   -4.7652170875E+00
   -4.7060225942E+00   -4.6475634288E+00   -4.5898304565E+00   -4.5328146563E+00
   -4.4765071191E+00   -4.4208990466E+00   -4.3659817497E+00   -4.3117466472E+00
   -4.2581852647E+00   -4.2052892328E+00   -4.1530502864E+00   -4.1014602628E+00
   -4.0505111008E+00   -4.0001948395E+00   -3.9505036167E+00   -3.9014296681E+00
   -3.8529653255E+00   -3.8051030164E+00   -3.7578352621E+00   -3.7111546769E+00
   -3.6650539669E+00   -3.6195259286E+00   -3.5745634483E+00   -3.5301595006E+00
   -3.4863071471E+00   -3.4429995359E+00   -3.4002299002E+00   -3.3579915485E+00
   -3.3162776977E+00   -3.2750825420E+00   -3.2343986939E+00   -3.1942203336E+00
   -3.1545410826E+00   -3.1153547347E+00   -3.0766551672E+00   -3.0384363331E+00
   -3.0006922609E+00   -2.9634170530E+00   -2.9266048852E+00   -2.8902500054E+00
   -2.8543467332E+00   -2.8188894587E+00   -2.7838726417E+00   -2.7492908106E+00
   -2.7151385621E+00   -2.6814105598E+00   -2.6481015336E+00   -2.6152062790E+00
   -2.5827196561E+00   -2.5506365886E+00   -2.5189520636E+00   -2.4876611304E+00
   -2.4567588995E+00   -2.4262405426E+00   -2.3961012910E+00   -2.3663364355E+00
   -2.3369413251E+00   -2.3079113670E+00   -2.2792420249E+00   -2.2509288194E+00
   -2.2229673264E+00   -2.1953531769E+00   -2.1680820561E+00   -2.1411497028E+00
   -2.1145519088E+00   -2.0882845181E+00   -2.0623434264E+00   -2.0367245803E+00
   -2.0114239768E+00   -1.9864376626E+00   -1.9617617336E+00   -1.9373923341E+00
   -1.9133256564E+00   -1.8895579398E+00   -1.8660854708E+00   -1.8429045816E+00
   -1.8200116502E+00   -1.7974030995E+00
  </PP_LOCAL>
 <PP_NONLOCAL>
   <PP_BETA.1
       type="real"
       size="1106"
       columns="4"
       index="1"
       angular_momentum="0"
       cutoff_radius_index=" 956"
       cutoff_radius="    2.3889683921E+00" >
    0.0000000000E+00    5.7095975935E-05    5.7814154901E-05    5.8541367446E-05
    5.9277727199E-05    6.0023349217E-05    6.0778350005E-05    6.1542847535E-05
    6.2316961259E-05    6.3100812136E-05    6.3894522642E-05    6.4698216798E-05
    6.5512020181E-05    6.6336059951E-05    6.7170464866E-05    6.8015365302E-05
    6.8870893277E-05    6.9737182469E-05    7.0614368238E-05    7.1502587646E-05
    7.2401979478E-05    7.3312684267E-05    7.4234844311E-05    7.5168603701E-05
    7.6114108339E-05    7.7071505960E-05    7.8040946161E-05    7.9022580419E-05
    8.0016562115E-05    8.1023046562E-05    8.2042191024E-05    8.3074154746E-05
    8.4119098974E-05    8.5177186981E-05    8.6248584098E-05    8.7333457730E-05
    8.8431977394E-05    8.9544314733E-05    9.0670643554E-05    9.1811139847E-05
    9.2965981817E-05    9.4135349911E-05    9.5319426844E-05    9.6518397632E-05
    9.7732449616E-05    9.8961772494E-05    1.0020655835E-04    1.0146700168E-04
    1.0274329944E-04    1.0403565105E-04    1.0534425844E-04    1.0666932609E-04
    1.0801106103E-04    1.0936967292E-04    1.1074537405E-04    1.1213837936E-04
    1.1354890653E-04    1.1497717594E-04    1.1642341077E-04    1.1788783699E-04
    1.1937068343E-04    1.2087218178E-04    1.2239256666E-04    1.2393207562E-04
    1.2549094922E-04    1.2706943103E-04    1.2866776770E-04    1.3028620898E-04
    1.3192500773E-04    1.3358442004E-04    1.3526470518E-04    1.3696612571E-04
    1.3868894748E-04    1.4043343967E-04    1.4219987488E-04    1.4398852910E-04
    1.4579968182E-04    1.4763361604E-04    1.4949061831E-04    1.5137097880E-04
    1.5327499130E-04    1.5520295334E-04    1.5715516615E-04    1.5913193478E-04
    1.6113356809E-04    1.6316037885E-04    1.6521268375E-04    1.6729080347E-04
    1.6939506272E-04    1.7152579028E-04    1.7368331910E-04    1.7586798629E-04
    1.7808013322E-04    1.8032010552E-04    1.8258825320E-04    1.8488493067E-04
    1.8721049679E-04    1.8956531492E-04    1.9194975302E-04    1.9436418366E-04
    1.9680898409E-04    1.9928453633E-04    2.0179122718E-04    2.0432944832E-04
    2.0689959635E-04    2.0950207286E-04    2.1213728449E-04    2.1480564300E-04
    2.1750756533E-04    2.2024347366E-04    2.2301379548E-04    2.2581896365E-04
    2.2865941650E-04    2.3153559784E-04    2.3444795708E-04    2.3739694929E-04
    2.4038303526E-04    2.4340668156E-04    2.4646836065E-04    2.4956855092E-04
    2.5270773678E-04    2.5588640874E-04    2.5910506346E-04    2.6236420387E-04
    2.6566433922E-04    2.6900598516E-04    2.7238966383E-04    2.7581590393E-04
    2.7928524083E-04    2.8279821660E-04    2.8635538017E-04    2.8995728735E-04
    2.9360450093E-04    2.9729759082E-04    3.0103713405E-04    3.0482371494E-04
    3.0865792515E-04    3.1254036378E-04    3.1647163747E-04    3.2045236050E-04
    3.2448315485E-04    3.2856465034E-04    3.3269748473E-04    3.3688230377E-04
    3.4111976134E-04    3.4541051956E-04    3.4975524888E-04    3.5415462815E-04
    3.5860934479E-04    3.6312009487E-04    3.6768758318E-04    3.7231252342E-04
    3.7699563824E-04    3.8173765939E-04    3.8653932781E-04    3.9140139377E-04
    3.9632461699E-04    4.0130976672E-04    4.0635762191E-04    4.1146897128E-04
    4.1664461351E-04    4.2188535729E-04    4.2719202150E-04    4.3256543532E-04
    4.3800643835E-04    4.4351588076E-04    4.4909462341E-04    4.5474353800E-04
    4.6046350716E-04    4.6625542467E-04    4.7212019551E-04    4.7805873608E-04
    4.8407197427E-04    4.9016084967E-04    4.9632631368E-04    5.0256932966E-04
    5.0889087309E-04    5.1529193173E-04    5.2177350575E-04    5.2833660792E-04
    5.3498226373E-04    5.4171151158E-04    5.4852540291E-04    5.5542500243E-04
    5.6241138820E-04    5.6948565185E-04    5.7664889876E-04    5.8390224820E-04
    5.9124683350E-04    5.9868380229E-04    6.0621431660E-04    6.1383955308E-04
    6.2156070319E-04    6.2937897338E-04    6.3729558527E-04    6.4531177583E-04
    6.5342879762E-04    6.6164791893E-04    6.6997042401E-04    6.7839761328E-04
    6.8693080349E-04    6.9557132797E-04    7.0432053681E-04    7.1317979711E-04
    7.2215049312E-04    7.3123402654E-04    7.4043181669E-04    7.4974530073E-04
    7.5917593392E-04    7.6872518980E-04    7.7839456047E-04    7.8818555677E-04
    7.9809970857E-04    8.0813856497E-04    8.1830369456E-04    8.2859668566E-04
    8.3901914656E-04    8.4957270579E-04    8.6025901236E-04    8.7107973602E-04
    8.8203656753E-04    8.9313121890E-04    9.0436542371E-04    9.1574093730E-04
    9.2725953712E-04    9.3892302297E-04    9.5073321728E-04    9.6269196542E-04
    9.7480113596E-04    9.8706262097E-04    9.9947833633E-04    1.0120502220E-03
    1.0247802424E-03    1.0376703865E-03    1.0507226686E-03    1.0639391280E-03
    1.0773218297E-03    1.0908728650E-03    1.1045943511E-03    1.1184884320E-03
    1.1325572787E-03    1.1468030896E-03    1.1612280904E-03    1.1758345352E-03
    1.1906247061E-03    1.2056009143E-03    1.2207654997E-03    1.2361208319E-03
    1.2516693100E-03    1.2674133637E-03    1.2833554528E-03    1.2994980684E-03
    1.3158437328E-03    1.3323950000E-03    1.3491544561E-03    1.3661247199E-03
    1.3833084429E-03    1.4007083102E-03    1.4183270404E-03    1.4361673865E-03
    1.4542321361E-03    1.4725241118E-03    1.4910461717E-03    1.5098012100E-03
    1.5287921571E-03    1.5480219804E-03    1.5674936845E-03    1.5872103118E-03
    1.6071749433E-03    1.6273906982E-03    1.6478607354E-03    1.6685882532E-03
    1.6895764905E-03    1.7108287265E-03    1.7323482820E-03    1.7541385193E-03
    1.7762028433E-03    1.7985447015E-03    1.8211675847E-03    1.8440750279E-03
    1.8672706103E-03    1.8907579562E-03    1.9145407355E-03    1.9386226643E-03
    1.9630075053E-03    1.9876990688E-03    2.0127012126E-03    2.0380178435E-03
    2.0636529171E-03    2.0896104389E-03    2.1158944647E-03    2.1425091014E-03
    2.1694585076E-03    2.1967468940E-03    2.2243785244E-03    2.2523577163E-03
    2.2806888413E-03    2.3093763262E-03    2.3384246533E-03    2.3678383615E-03
    2.3976220466E-03    2.4277803622E-03    2.4583180205E-03    2.4892397930E-03
    2.5205505112E-03    2.5522550673E-03    2.5843584151E-03    2.6168655706E-03
    2.6497816131E-03    2.6831116856E-03    2.7168609959E-03    2.7510348172E-03
    2.7856384890E-03    2.8206774181E-03    2.8561570793E-03    2.8920830162E-03
    2.9284608420E-03    2.9652962407E-03    3.0025949677E-03    3.0403628508E-03
    3.0786057911E-03    3.1173297639E-03    3.1565408197E-03    3.1962450851E-03
    3.2364487637E-03    3.2771581371E-03    3.3183795661E-03    3.3601194912E-03
    3.4023844342E-03    3.4451809986E-03    3.4885158714E-03    3.5323958233E-03
    3.5768277103E-03    3.6218184746E-03    3.6673751459E-03    3.7135048420E-03
    3.7602147705E-03    3.8075122294E-03    3.8554046087E-03    3.9038993912E-03
    3.9530041539E-03    4.0027265691E-03    4.0530744054E-03    4.1040555295E-03
    4.1556779066E-03    4.2079496023E-03    4.2608787836E-03    4.3144737203E-03
    4.3687427861E-03    4.4236944599E-03    4.4793373275E-03    4.5356800825E-03
    4.5927315279E-03    4.6505005773E-03    4.7089962566E-03    4.7682277051E-03
    4.8282041769E-03    4.8889350426E-03    4.9504297908E-03    5.0126980292E-03
    5.0757494864E-03    5.1395940134E-03    5.2042415849E-03    5.2697023013E-03
    5.3359863898E-03    5.4031042063E-03    5.4710662370E-03    5.5398830998E-03
    5.6095655462E-03    5.6801244630E-03    5.7515708737E-03    5.8239159406E-03
    5.8971709664E-03    5.9713473956E-03    6.0464568169E-03    6.1225109648E-03
    6.1995217210E-03    6.2775011170E-03    6.3564613353E-03    6.4364147117E-03
    6.5173737371E-03    6.5993510594E-03    6.6823594857E-03    6.7664119839E-03
    6.8515216851E-03    6.9377018855E-03    7.0249660485E-03    7.1133278066E-03
    7.2028009639E-03    7.2933994980E-03    7.3851375621E-03    7.4780294876E-03
    7.5720897859E-03    7.6673331509E-03    7.7637744612E-03    7.8614287824E-03
    7.9603113697E-03    8.0604376698E-03    8.1618233239E-03    8.2644841695E-03
    8.3684362436E-03    8.4736957843E-03    8.5802792343E-03    8.6882032426E-03
    8.7974846679E-03    8.9081405803E-03    9.0201882650E-03    9.1336452241E-03
    9.2485291798E-03    9.3648580771E-03    9.4826500865E-03    9.6019236069E-03
    9.7226972685E-03    9.8449899355E-03    9.9688207093E-03    1.0094208931E-02
    1.0221174186E-02    1.0349736305E-02    1.0479915366E-02    1.0611731703E-02
    1.0745205903E-02    1.0880358813E-02    1.1017211540E-02    1.1155785459E-02
    1.1296102211E-02    1.1438183711E-02    1.1582052148E-02    1.1727729990E-02
    1.1875239988E-02    1.2024605177E-02    1.2175848885E-02    1.2328994728E-02
    1.2484066623E-02    1.2641088786E-02    1.2800085736E-02    1.2961082302E-02
    1.3124103622E-02    1.3289175154E-02    1.3456322673E-02    1.3625572276E-02
    1.3796950391E-02    1.3970483778E-02    1.4146199529E-02    1.4324125081E-02
    1.4504288212E-02    1.4686717051E-02    1.4871440079E-02    1.5058486135E-02
    1.5247884420E-02    1.5439664501E-02    1.5633856317E-02    1.5830490183E-02
    1.6029596793E-02    1.6231207227E-02    1.6435352956E-02    1.6642065845E-02
    1.6851378159E-02    1.7063322568E-02    1.7277932152E-02    1.7495240404E-02
    1.7715281242E-02    1.7938089004E-02    1.8163698462E-02    1.8392144824E-02
    1.8623463738E-02    1.8857691300E-02    1.9094864060E-02    1.9335019023E-02
    1.9578193661E-02    1.9824425915E-02    2.0073754201E-02    2.0326217416E-02
    2.0581854947E-02    2.0840706672E-02    2.1102812970E-02    2.1368214726E-02
    2.1636953336E-02    2.1909070717E-02    2.2184609308E-02    2.2463612083E-02
    2.2746122551E-02    2.3032184769E-02    2.3321843342E-02    2.3615143436E-02
    2.3912130782E-02    2.4212851683E-02    2.4517353022E-02    2.4825682268E-02
    2.5137887485E-02    2.5454017336E-02    2.5774121095E-02    2.6098248652E-02
    2.6426450519E-02    2.6758777843E-02    2.7095282407E-02    2.7436016642E-02
    2.7781033635E-02    2.8130387137E-02    2.8484131570E-02    2.8842322033E-02
    2.9205014318E-02    2.9572264910E-02    2.9944131000E-02    3.0320670493E-02
    3.0701942018E-02    3.1088004932E-02    3.1478919337E-02    3.1874746081E-02
    3.2275546771E-02    3.2681383784E-02    3.3092320273E-02    3.3508420177E-02
    3.3929748234E-02    3.4356369987E-02    3.4788351793E-02    3.5225760838E-02
    3.5668665143E-02    3.6117133575E-02    3.6571235857E-02    3.7031042580E-02
    3.7496625213E-02    3.7968056110E-02    3.8445408528E-02    3.8928756630E-02
    3.9418175501E-02    3.9913741160E-02    4.0415530566E-02    4.0923621633E-02
    4.1438093242E-02    4.1959025251E-02    4.2486498507E-02    4.3020594858E-02
    4.3561397167E-02    4.4108989318E-02    4.4663456236E-02    4.5224883896E-02
    4.5793359333E-02    4.6368970658E-02    4.6951807071E-02    4.7541958870E-02
    4.8139517468E-02    4.8744575407E-02    4.9357226365E-02    4.9977565176E-02
    5.0605687841E-02    5.1241691542E-02    5.1885674654E-02    5.2537736762E-02
    5.3197978673E-02    5.3866502432E-02    5.4543411334E-02    5.5228809942E-02
    5.5922804096E-02    5.6625500933E-02    5.7337008902E-02    5.8057437774E-02
    5.8786898664E-02    5.9525504038E-02    6.0273367737E-02    6.1030604988E-02
    6.1797332420E-02    6.2573668080E-02    6.3359731450E-02    6.4155643462E-02
    6.4961526516E-02    6.5777504492E-02    6.6603702773E-02    6.7440248257E-02
    6.8287269373E-02    6.9144896103E-02    7.0013259994E-02    7.0892494177E-02
    7.1782733385E-02    7.2684113968E-02    7.3596773913E-02    7.4520852861E-02
    7.5456492124E-02    7.6403834701E-02    7.7363025300E-02    7.8334210355E-02
    7.9317538038E-02    8.0313158288E-02    8.1321222819E-02    8.2341885144E-02
    8.3375300592E-02    8.4421626327E-02    8.5481021366E-02    8.6553646597E-02
    8.7639664797E-02    8.8739240655E-02    8.9852540786E-02    9.0979733751E-02
    9.2120990078E-02    9.3276482276E-02    9.4446384862E-02    9.5630874369E-02
    9.6830129376E-02    9.8044330519E-02    9.9273660511E-02    1.0051830417E-01
    1.0177844841E-01    1.0305428231E-01    1.0434599707E-01    1.0565378609E-01
    1.0697784494E-01    1.0831837141E-01    1.0967556551E-01    1.1104962950E-01
    1.1244076790E-01    1.1384918752E-01    1.1527509744E-01    1.1671870910E-01
    1.1818023624E-01    1.1965989495E-01    1.2115790371E-01    1.2267448337E-01
    1.2420985717E-01    1.2576425077E-01    1.2733789228E-01    1.2893101224E-01
    1.3054384365E-01    1.3217662198E-01    1.3382958521E-01    1.3550297380E-01
    1.3719703074E-01    1.3891200154E-01    1.4064813427E-01    1.4240567951E-01
    1.4418489045E-01    1.4598602282E-01    1.4780933494E-01    1.4965508773E-01
    1.5152354468E-01    1.5341497192E-01    1.5532963816E-01    1.5726781475E-01
    1.5922977565E-01    1.6121579743E-01    1.6322615931E-01    1.6526114312E-01
    1.6732103332E-01    1.6940611700E-01    1.7151668386E-01    1.7365302624E-01
    1.7581543906E-01    1.7800421987E-01    1.8021966882E-01    1.8246208863E-01
    1.8473178461E-01    1.8702906462E-01    1.8935423907E-01    1.9170762091E-01
    1.9408952558E-01    1.9650027104E-01    1.9894017767E-01    2.0140956832E-01
    2.0390876825E-01    2.0643810508E-01    2.0899790879E-01    2.1158851167E-01
    2.1421024828E-01    2.1686345539E-01    2.1954847198E-01    2.2226563916E-01
    2.2501530010E-01    2.2779780002E-01    2.3061348611E-01    2.3346270746E-01
    2.3634581500E-01    2.3926316143E-01    2.4221510115E-01    2.4520199017E-01
    2.4822418605E-01    2.5128204778E-01    2.5437593570E-01    2.5750621141E-01
    2.6067323766E-01    2.6387737825E-01    2.6711899788E-01    2.7039846208E-01
    2.7371613706E-01    2.7707238955E-01    2.8046758673E-01    2.8390209600E-01
    2.8737628488E-01    2.9089052085E-01    2.9444517114E-01    2.9804060262E-01
    3.0167718155E-01    3.0535527342E-01    3.0907524274E-01    3.1283745285E-01
    3.1664226567E-01    3.2049004149E-01    3.2438113874E-01    3.2831591370E-01
    3.3229472029E-01    3.3631790978E-01    3.4038583049E-01    3.4449882752E-01
    3.4865724246E-01    3.5286141301E-01    3.5711167272E-01    3.6140835062E-01
    3.6575177083E-01    3.7014225226E-01    3.7458010816E-01    3.7906564576E-01
    3.8359916582E-01    3.8818096225E-01    3.9281132163E-01    3.9749052273E-01
    4.0221883609E-01    4.0699652347E-01    4.1182383734E-01    4.1670102040E-01
    4.2162830496E-01    4.2660591242E-01    4.3163405266E-01    4.3671292343E-01
    4.4184270973E-01    4.4702358316E-01    4.5225570123E-01    4.5753920671E-01
    4.6287422686E-01    4.6826087274E-01    4.7369923842E-01    4.7918940020E-01
    4.8473141583E-01    4.9032532366E-01    4.9597114177E-01    5.0166886713E-01
    5.0741847464E-01    5.1321991627E-01    5.1907312005E-01    5.2497798911E-01
    5.3093440070E-01    5.3694220510E-01    5.4300122462E-01    5.4911125251E-01
    5.5527205180E-01    5.6148335425E-01    5.6774485913E-01    5.7405623204E-01
    5.8041710373E-01    5.8682706888E-01    5.9328568477E-01    5.9979247010E-01
    6.0634690359E-01    6.1294842275E-01    6.1959642245E-01    6.2629025364E-01
    6.3302922188E-01    6.3981258602E-01    6.4663955674E-01    6.5350929513E-01
    6.6042091125E-01    6.6737346268E-01    6.7436595308E-01    6.8139733067E-01
    6.8846648683E-01    6.9557225458E-01    7.0271340713E-01    7.0988865644E-01
    7.1709665174E-01    7.2433597811E-01    7.3160515507E-01    7.3890263514E-01
    7.4622680252E-01    7.5357597173E-01    7.6094838628E-01    7.6834221747E-01
    7.7575556309E-01    7.8318644637E-01    7.9063281477E-01    7.9809253904E-01
    8.0556341220E-01    8.1304314871E-01    8.2052938369E-01    8.2801967218E-01
    8.3551148866E-01    8.4300222652E-01    8.5048919776E-01    8.5796963277E-01
    8.6544068036E-01    8.7289940775E-01    8.8034280097E-01    8.8776776523E-01
    8.9517112562E-01    9.0254962790E-01    9.0989993964E-01    9.1721865143E-01
    9.2450227841E-01    9.3174726206E-01    9.3894997223E-01    9.4610670935E-01
    9.5321370707E-01    9.6026713510E-01    9.6726310233E-01    9.7419766028E-01
    9.8106680691E-01    9.8786649064E-01    9.9459261481E-01    1.0012410424E+00
    1.0078076009E+00    1.0142880882E+00    1.0206782775E+00    1.0269739242E+00
    1.0331707714E+00    1.0392645573E+00    1.0452510212E+00    1.0511259117E+00
    1.0568849929E+00    1.0625240531E+00    1.0680389117E+00    1.0734254274E+00
    1.0786795061E+00    1.0837971089E+00    1.0887742598E+00    1.0936070535E+00
    1.0982916631E+00    1.1028243474E+00    1.1072014573E+00    1.1114194428E+00
    1.1154748582E+00    1.1193643676E+00    1.1230847482E+00    1.1266328940E+00
    1.1300058171E+00    1.1332006484E+00    1.1362146356E+00    1.1390451409E+00
    1.1416896352E+00    1.1441456908E+00    1.1464109712E+00    1.1484832186E+00
    1.1503602377E+00    1.1520398764E+00    1.1535200031E+00    1.1547984799E+00
    1.1558731315E+00    1.1567417098E+00    1.1574018536E+00    1.1578510433E+00
    1.1580865506E+00    1.1581053824E+00    1.1579042188E+00    1.1574793459E+00
    1.1568265820E+00    1.1559411982E+00    1.1548178327E+00    1.1534503992E+00
    1.1518319900E+00    1.1499547728E+00    1.1478098829E+00    1.1453873111E+00
    1.1426757872E+00    1.1396626608E+00    1.1363337798E+00    1.1326733684E+00
    1.1286639054E+00    1.1242860054E+00    1.1195183036E+00    1.1143373470E+00
    1.1087174949E+00    1.1026308307E+00    1.0960470881E+00    1.0889335952E+00
    1.0812552406E+00    1.0729744637E+00    1.0640512756E+00    1.0544433129E+00
    1.0441059303E+00    1.0329923359E+00    1.0210537744E+00    1.0082397630E+00
    9.9449838471E-01    9.7977664323E-01    9.6402088462E-01    9.4717728887E-01
    9.2919243503E-01    9.1001394252E-01    8.8959119035E-01    8.6787611480E-01
    8.4482408491E-01    8.2039485359E-01    7.9455358042E-01    7.6727192017E-01
    7.3852916913E-01    7.0831345878E-01    6.7662298395E-01    6.4346724994E-01
    6.0886832049E-01    5.7286204564E-01    5.3549924615E-01    4.9684682855E-01
    4.5698880279E-01    4.1602717315E-01    3.7408267150E-01    3.3129530223E-01
    2.8782466856E-01    2.4385005202E-01    1.9957022014E-01    1.5520294203E-01
    1.1098419863E-01    6.7167082518E-02    2.4020393347E-02   -1.8173032277E-02
   -5.9118284989E-02   -9.8511385427E-02   -1.3604323698E-01   -1.7140411428E-01
   -2.0428862361E-01   -2.3440107869E-01   -2.6146121884E-01   -2.8521018100E-01
   -3.0541662176E-01   -3.2188287088E-01   -3.3445098409E-01   -3.4300854894E-01
   -3.4749408398E-01   -3.4790185837E-01   -3.4428594675E-01   -3.3676332439E-01
   -3.2551580108E-01   -3.1079059236E-01   -2.9289933404E-01   -2.7221536398E-01
   -2.4916912496E-01   -2.2424158483E-01   -1.9795562691E-01   -1.7086543286E-01
   -1.4354396190E-01   -1.1656872265E-01   -9.0506133343E-02   -6.5894870517E-02
   -4.3228710633E-02   -2.2939468702E-02   -5.3807272915E-03    9.1868782050E-03
    2.0608003290E-02    2.8841734272E-02    3.3966711540E-02    3.6181488130E-02
    3.5799490723E-02    3.3238120212E-02    2.9001755531E-02    2.3658706507E-02
    1.7812489956E-02    1.2066495002E-02    6.9672143502E-03    3.0219237410E-03
    6.2782654791E-04   -1.0471713414E-05   -5.6106068965E-07   -0.0000000000E+00
 0. 0. 0. 0.
 0. 0. 0. 0.
 0. 0. 0. 0.
 0. 0. 0. 0.
 0. 0. 0. 0.
 0. 0. 0. 0.
 0. 0. 0. 0.
 0. 0. 0. 0.
 0. 0. 0. 0.
 0. 0. 0. 0.
 0. 0. 0. 0.
 0. 0. 0. 0.
 0. 0. 0. 0.
 0. 0. 0. 0.
 0. 0. 0. 0.
 0. 0. 0. 0.
 0. 0. 0. 0.
 0. 0. 0. 0.
 0. 0. 0. 0.
 0. 0. 0. 0.
 0. 0. 0. 0.
 0. 0. 0. 0.
 0. 0. 0. 0.
 0. 0. 0. 0.
 0. 0. 0. 0.
 0. 0. 0. 0.
 0. 0. 0. 0.
 0. 0. 0. 0.
 0. 0. 0. 0.
 0. 0. 0. 0.
 0. 0. 0. 0.
 0. 0. 0. 0.
 0. 0. 0. 0.
 0. 0. 0. 0.
 0. 0. 0. 0.
 0. 0. 0. 0.
 0. 0. 0. 0.
 0. 0.
   </PP_BETA.1>
   <PP_BETA.2
       type="real"
       size="1106"
       columns="4"
       index="2"
       angular_momentum="0"
       cutoff_radius_index=" 956"
       cutoff_radius="    2.3889683921E+00" >
    0.0000000000E+00   -3.6927359311E-05   -3.7391848310E-05   -3.7862179860E-05
   -3.8338427453E-05   -3.8820665503E-05   -3.9308969361E-05   -3.9803415326E-05
   -4.0304080655E-05   -4.0811043578E-05   -4.1324383310E-05   -4.1844180061E-05
   -4.2370515050E-05   -4.2903470518E-05   -4.3443129740E-05   -4.3989577040E-05
   -4.4542897801E-05   -4.5103178480E-05   -4.5670506622E-05   -4.6244970873E-05
   -4.6826660995E-05   -4.7415667878E-05   -4.8012083556E-05   -4.8616001219E-05
   -4.9227515231E-05   -4.9846721142E-05   -5.0473715705E-05   -5.1108596888E-05
   -5.1751463894E-05   -5.2402417170E-05   -5.3061558431E-05   -5.3728990668E-05
   -5.4404818169E-05   -5.5089146533E-05   -5.5782082688E-05   -5.6483734907E-05
   -5.7194212824E-05   -5.7913627453E-05   -5.8642091203E-05   -5.9379717900E-05
   -6.0126622798E-05   -6.0882922603E-05   -6.1648735487E-05   -6.2424181112E-05
   -6.3209380642E-05   -6.4004456766E-05   -6.4809533716E-05   -6.5624737287E-05
   -6.6450194857E-05   -6.7286035404E-05   -6.8132389531E-05   -6.8989389481E-05
   -6.9857169164E-05   -7.0735864171E-05   -7.1625611800E-05   -7.2526551076E-05
   -7.3438822773E-05   -7.4362569435E-05   -7.5297935399E-05   -7.6245066818E-05
   -7.7204111683E-05   -7.8175219846E-05   -7.9158543047E-05   -8.0154234930E-05
   -8.1162451074E-05   -8.2183349016E-05   -8.3217088273E-05   -8.4263830368E-05
   -8.5323738857E-05   -8.6396979353E-05   -8.7483719552E-05   -8.8584129259E-05
   -8.9698380416E-05   -9.0826647126E-05   -9.1969105683E-05   -9.3125934599E-05
   -9.4297314631E-05   -9.5483428808E-05   -9.6684462465E-05   -9.7900603264E-05
   -9.9132041230E-05   -1.0037896878E-04   -1.0164158074E-04   -1.0292007441E-04
   -1.0421464955E-04   -1.0552550843E-04   -1.0685285589E-04   -1.0819689932E-04
   -1.0955784874E-04   -1.1093591679E-04   -1.1233131881E-04   -1.1374427281E-04
   -1.1517499959E-04   -1.1662372270E-04   -1.1809066850E-04   -1.1957606620E-04
   -1.2108014790E-04   -1.2260314862E-04   -1.2414530633E-04   -1.2570686200E-04
   -1.2728805961E-04   -1.2888914624E-04   -1.3051037205E-04   -1.3215199038E-04
   -1.3381425772E-04   -1.3549743380E-04   -1.3720178163E-04   -1.3892756752E-04
   -1.4067506111E-04   -1.4244453547E-04   -1.4423626707E-04   -1.4605053588E-04
   -1.4788762538E-04   -1.4974782261E-04   -1.5163141824E-04   -1.5353870658E-04
   -1.5546998566E-04   -1.5742555722E-04   -1.5940572685E-04   -1.6141080394E-04
   -1.6344110179E-04   -1.6549693764E-04   -1.6757863272E-04   -1.6968651229E-04
   -1.7182090572E-04   -1.7398214650E-04   -1.7617057234E-04   -1.7838652519E-04
   -1.8063035128E-04   -1.8290240123E-04   -1.8520303004E-04   -1.8753259719E-04
   -1.8989146668E-04   -1.9228000709E-04   -1.9469859163E-04   -1.9714759821E-04
   -1.9962740949E-04   -2.0213841295E-04   -2.0468100094E-04   -2.0725557074E-04
   -2.0986252463E-04   -2.1250226995E-04   -2.1517521917E-04   -2.1788178994E-04
   -2.2062240517E-04   -2.2339749309E-04   -2.2620748730E-04   -2.2905282687E-04
   -2.3193395640E-04   -2.3485132606E-04   -2.3780539170E-04   -2.4079661490E-04
   -2.4382546303E-04   -2.4689240938E-04   -2.4999793314E-04   -2.5314251956E-04
   -2.5632666000E-04   -2.5955085197E-04   -2.6281559926E-04   -2.6612141200E-04
   -2.6946880673E-04   -2.7285830648E-04   -2.7629044086E-04   -2.7976574616E-04
   -2.8328476539E-04   -2.8684804841E-04   -2.9045615199E-04   -2.9410963989E-04
   -2.9780908299E-04   -3.0155505933E-04   -3.0534815422E-04   -3.0918896033E-04
   -3.1307807781E-04   -3.1701611433E-04   -3.2100368522E-04   -3.2504141354E-04
   -3.2912993019E-04   -3.3326987401E-04   -3.3746189187E-04   -3.4170663879E-04
   -3.4600477800E-04   -3.5035698111E-04   -3.5476392814E-04   -3.5922630770E-04
   -3.6374481703E-04   -3.6832016215E-04   -3.7295305798E-04   -3.7764422841E-04
   -3.8239440644E-04   -3.8720433430E-04   -3.9207476353E-04   -3.9700645516E-04
   -4.0200017976E-04   -4.0705671762E-04   -4.1217685881E-04   -4.1736140338E-04
   -4.2261116142E-04   -4.2792695319E-04   -4.3330960931E-04   -4.3875997083E-04
   -4.4427888935E-04   -4.4986722723E-04   -4.5552585765E-04   -4.6125566478E-04
   -4.6705754390E-04   -4.7293240156E-04   -4.7888115572E-04   -4.8490473587E-04
   -4.9100408322E-04   -4.9718015078E-04   -5.0343390357E-04   -5.0976631874E-04
   -5.1617838576E-04   -5.2267110649E-04   -5.2924549544E-04   -5.3590257987E-04
   -5.4264339994E-04   -5.4946900891E-04   -5.5638047330E-04   -5.6337887301E-04
   -5.7046530157E-04   -5.7764086621E-04   -5.8490668815E-04   -5.9226390265E-04
   -5.9971365929E-04   -6.0725712210E-04   -6.1489546974E-04   -6.2262989572E-04
   -6.3046160854E-04   -6.3839183190E-04   -6.4642180491E-04   -6.5455278225E-04
   -6.6278603439E-04   -6.7112284778E-04   -6.7956452504E-04   -6.8811238519E-04
   -6.9676776382E-04   -7.0553201335E-04   -7.1440650318E-04   -7.2339261995E-04
   -7.3249176775E-04   -7.4170536830E-04   -7.5103486124E-04   -7.6048170429E-04
   -7.7004737352E-04   -7.7973336356E-04   -7.8954118784E-04   -7.9947237882E-04
   -8.0952848825E-04   -8.1971108739E-04   -8.3002176725E-04   -8.4046213888E-04
   -8.5103383357E-04   -8.6173850313E-04   -8.7257782017E-04   -8.8355347831E-04
   -8.9466719247E-04   -9.0592069917E-04   -9.1731575675E-04   -9.2885414567E-04
   -9.4053766877E-04   -9.5236815160E-04   -9.6434744264E-04   -9.7647741364E-04
   -9.8875995987E-04   -1.0011970005E-03   -1.0137904787E-03   -1.0265423622E-03
   -1.0394546435E-03   -1.0525293401E-03   -1.0657684948E-03   -1.0791741763E-03
   -1.0927484791E-03   -1.1064935242E-03   -1.1204114593E-03   -1.1345044588E-03
   -1.1487747249E-03   -1.1632244872E-03   -1.1778560034E-03   -1.1926715596E-03
   -1.2076734707E-03   -1.2228640807E-03   -1.2382457631E-03   -1.2538209212E-03
   -1.2695919885E-03   -1.2855614291E-03   -1.3017317383E-03   -1.3181054425E-03
   -1.3346851000E-03   -1.3514733014E-03   -1.3684726697E-03   -1.3856858609E-03
   -1.4031155645E-03   -1.4207645037E-03   -1.4386354362E-03   -1.4567311541E-03
   -1.4750544847E-03   -1.4936082909E-03   -1.5123954716E-03   -1.5314189623E-03
   -1.5506817350E-03   -1.5701867996E-03   -1.5899372034E-03   -1.6099360323E-03
   -1.6301864110E-03   -1.6506915034E-03   -1.6714545132E-03   -1.6924786843E-03
   -1.7137673018E-03   -1.7353236915E-03   -1.7571512216E-03   -1.7792533023E-03
   -1.8016333868E-03   -1.8242949717E-03   -1.8472415977E-03   -1.8704768498E-03
   -1.8940043582E-03   -1.9178277989E-03   -1.9419508938E-03   -1.9663774120E-03
   -1.9911111696E-03   -2.0161560310E-03   -2.0415159090E-03   -2.0671947658E-03
   -2.0931966131E-03   -2.1195255135E-03   -2.1461855802E-03   -2.1731809785E-03
   -2.2005159259E-03   -2.2281946931E-03   -2.2562216041E-03   -2.2846010378E-03
   -2.3133374278E-03   -2.3424352636E-03   -2.3718990911E-03   -2.4017335134E-03
   -2.4319431914E-03   -2.4625328447E-03   -2.4935072521E-03   -2.5248712527E-03
   -2.5566297463E-03   -2.5887876944E-03   -2.6213501207E-03   -2.6543221123E-03
   -2.6877088201E-03   -2.7215154598E-03   -2.7557473126E-03   -2.7904097264E-03
   -2.8255081159E-03   -2.8610479642E-03   -2.8970348233E-03   -2.9334743147E-03
   -2.9703721310E-03   -3.0077340361E-03   -3.0455658665E-03   -3.0838735319E-03
   -3.1226630163E-03   -3.1619403793E-03   -3.2017117561E-03   -3.2419833595E-03
   -3.2827614801E-03   -3.3240524877E-03   -3.3658628322E-03   -3.4081990445E-03
   -3.4510677376E-03   -3.4944756077E-03   -3.5384294349E-03   -3.5829360850E-03
   -3.6280025096E-03   -3.6736357479E-03   -3.7198429277E-03   -3.7666312660E-03
   -3.8140080709E-03   -3.8619807421E-03   -3.9105567724E-03   -3.9597437488E-03
   -4.0095493533E-03   -4.0599813650E-03   -4.1110476602E-03   -4.1627562146E-03
   -4.2151151038E-03   -4.2681325051E-03   -4.3218166983E-03   -4.3761760676E-03
   -4.4312191020E-03   -4.4869543977E-03   -4.5433906586E-03   -4.6005366979E-03
   -4.6584014397E-03   -4.7169939201E-03   -4.7763232886E-03   -4.8363988099E-03
   -4.8972298648E-03   -4.9588259520E-03   -5.0211966895E-03   -5.0843518163E-03
   -5.1483011934E-03   -5.2130548058E-03   -5.2786227638E-03   -5.3450153047E-03
   -5.4122427943E-03   -5.4803157288E-03   -5.5492447358E-03   -5.6190405765E-03
   -5.6897141473E-03   -5.7612764812E-03   -5.8337387498E-03   -5.9071122650E-03
   -5.9814084805E-03   -6.0566389939E-03   -6.1328155483E-03   -6.2099500341E-03
   -6.2880544910E-03   -6.3671411099E-03   -6.4472222343E-03   -6.5283103629E-03
   -6.6104181510E-03   -6.6935584128E-03   -6.7777441232E-03   -6.8629884198E-03
   -6.9493046050E-03   -7.0367061480E-03   -7.1252066869E-03   -7.2148200310E-03
   -7.3055601623E-03   -7.3974412387E-03   -7.4904775950E-03   -7.5846837462E-03
   -7.6800743888E-03   -7.7766644037E-03   -7.8744688584E-03   -7.9735030089E-03
   -8.0737823026E-03   -8.1753223803E-03   -8.2781390788E-03   -8.3822484333E-03
   -8.4876666796E-03   -8.5944102571E-03   -8.7024958109E-03   -8.8119401945E-03
   -8.9227604725E-03   -9.0349739228E-03   -9.1485980399E-03   -9.2636505369E-03
   -9.3801493489E-03   -9.4981126350E-03   -9.6175587816E-03   -9.7385064052E-03
   -9.8609743548E-03   -9.9849817154E-03   -1.0110547810E-02   -1.0237692205E-02
   -1.0366434708E-02   -1.0496795377E-02   -1.0628794519E-02   -1.0762452696E-02
   -1.0897790725E-02   -1.1034829685E-02   -1.1173590917E-02   -1.1314096028E-02
   -1.1456366895E-02   -1.1600425669E-02   -1.1746294776E-02   -1.1893996921E-02
   -1.2043555095E-02   -1.2194992573E-02   -1.2348332921E-02   -1.2503599998E-02
   -1.2660817961E-02   -1.2820011268E-02   -1.2981204681E-02   -1.3144423271E-02
   -1.3309692419E-02   -1.3477037824E-02   -1.3646485504E-02   -1.3818061799E-02
   -1.3991793380E-02   -1.4167707245E-02   -1.4345830731E-02   -1.4526191512E-02
   -1.4708817607E-02   -1.4893737382E-02   -1.5080979557E-02   -1.5270573204E-02
   -1.5462547759E-02   -1.5656933022E-02   -1.5853759161E-02   -1.6053056718E-02
   -1.6254856616E-02   -1.6459190155E-02   -1.6666089027E-02   -1.6875585313E-02
   -1.7087711492E-02   -1.7302500444E-02   -1.7519985454E-02   -1.7740200217E-02
   -1.7963178847E-02   -1.8188955875E-02   -1.8417566259E-02   -1.8649045388E-02
   -1.8883429085E-02   -1.9120753614E-02   -1.9361055686E-02   -1.9604372463E-02
   -1.9850741562E-02   -2.0100201062E-02   -2.0352789509E-02   -2.0608545922E-02
   -2.0867509798E-02   -2.1129721116E-02   -2.1395220345E-02   -2.1664048449E-02
   -2.1936246891E-02   -2.2211857640E-02   -2.2490923179E-02   -2.2773486505E-02
   -2.3059591140E-02   -2.3349281138E-02   -2.3642601083E-02   -2.3939596104E-02
   -2.4240311877E-02   -2.4544794631E-02   -2.4853091154E-02   -2.5165248801E-02
   -2.5481315497E-02   -2.5801339749E-02   -2.6125370646E-02   -2.6453457868E-02
   -2.6785651693E-02   -2.7122003005E-02   -2.7462563296E-02   -2.7807384676E-02
   -2.8156519878E-02   -2.8510022267E-02   -2.8867945843E-02   -2.9230345251E-02
   -2.9597275787E-02   -2.9968793402E-02   -3.0344954713E-02   -3.0725817006E-02
   -3.1111438248E-02   -3.1501877087E-02   -3.1897192864E-02   -3.2297445619E-02
   -3.2702696097E-02   -3.3113005755E-02   -3.3528436769E-02   -3.3949052043E-02
   -3.4374915213E-02   -3.4806090656E-02   -3.5242643496E-02   -3.5684639612E-02
   -3.6132145644E-02   -3.6585229002E-02   -3.7043957868E-02   -3.7508401210E-02
   -3.7978628785E-02   -3.8454711146E-02   -3.8936719647E-02   -3.9424726457E-02
   -3.9918804559E-02   -4.0419027759E-02   -4.0925470698E-02   -4.1438208851E-02
   -4.1957318538E-02   -4.2482876930E-02   -4.3014962056E-02   -4.3553652809E-02
   -4.4099028950E-02   -4.4651171118E-02   -4.5210160837E-02   -4.5776080516E-02
   -4.6349013460E-02   -4.6929043877E-02   -4.7516256878E-02   -4.8110738489E-02
   -4.8712575651E-02   -4.9321856230E-02   -4.9938669019E-02   -5.0563103742E-02
   -5.1195251063E-02   -5.1835202588E-02   -5.2483050868E-02   -5.3138889405E-02
   -5.3802812656E-02   -5.4474916035E-02   -5.5155295917E-02   -5.5844049644E-02
   -5.6541275521E-02   -5.7247072825E-02   -5.7961541804E-02   -5.8684783679E-02
   -5.9416900644E-02   -6.0157995872E-02   -6.0908173508E-02   -6.1667538676E-02
   -6.2436197474E-02   -6.3214256976E-02   -6.4001825227E-02   -6.4799011247E-02
   -6.5605925023E-02   -6.6422677508E-02   -6.7249380619E-02   -6.8086147229E-02
   -6.8933091167E-02   -6.9790327206E-02   -7.0657971064E-02   -7.1536139391E-02
   -7.2424949764E-02   -7.3324520676E-02   -7.4234971530E-02   -7.5156422625E-02
   -7.6088995144E-02   -7.7032811147E-02   -7.7987993551E-02   -7.8954666117E-02
   -7.9932953438E-02   -8.0922980918E-02   -8.1924874754E-02   -8.2938761920E-02
   -8.3964770141E-02   -8.5003027877E-02   -8.6053664292E-02   -8.7116809235E-02
   -8.8192593212E-02   -8.9281147354E-02   -9.0382603391E-02   -9.1497093619E-02
   -9.2624750864E-02   -9.3765708449E-02   -9.4920100157E-02   -9.6088060187E-02
   -9.7269723117E-02   -9.8465223855E-02   -9.9674697596E-02   -1.0089827977E-01
   -1.0213610600E-01   -1.0338831203E-01   -1.0465503367E-01   -1.0593640678E-01
   -1.0723256713E-01   -1.0854365039E-01   -1.0986979206E-01   -1.1121112736E-01
   -1.1256779120E-01   -1.1393991806E-01   -1.1532764194E-01   -1.1673109626E-01
   -1.1815041374E-01   -1.1958572635E-01   -1.2103716521E-01   -1.2250486044E-01
   -1.2398894110E-01   -1.2548953503E-01   -1.2700676879E-01   -1.2854076747E-01
   -1.3009165463E-01   -1.3165955210E-01   -1.3324457988E-01   -1.3484685600E-01
   -1.3646649632E-01   -1.3810361443E-01   -1.3975832143E-01   -1.4143072581E-01
   -1.4312093323E-01   -1.4482904635E-01   -1.4655516463E-01   -1.4829938412E-01
   -1.5006179729E-01   -1.5184249276E-01   -1.5364155509E-01   -1.5545906455E-01
   -1.5729509688E-01   -1.5914972301E-01   -1.6102300883E-01   -1.6291501485E-01
   -1.6482579601E-01   -1.6675540130E-01   -1.6870387348E-01   -1.7067124876E-01
   -1.7265755647E-01   -1.7466281872E-01   -1.7668705003E-01   -1.7873025695E-01
   -1.8079243771E-01   -1.8287358178E-01   -1.8497366949E-01   -1.8709267159E-01
   -1.8923054880E-01   -1.9138725136E-01   -1.9356271854E-01   -1.9575687818E-01
   -1.9796964615E-01   -2.0020092582E-01   -2.0245060754E-01   -2.0471856808E-01
   -2.0700467000E-01   -2.0930876111E-01   -2.1163067380E-01   -2.1397022441E-01
   -2.1632721259E-01   -2.1870142058E-01   -2.2109261251E-01   -2.2350053370E-01
   -2.2592490986E-01   -2.2836544634E-01   -2.3082182734E-01   -2.3329371504E-01
   -2.3578074881E-01   -2.3828254426E-01   -2.4079869241E-01   -2.4332875872E-01
   -2.4587228213E-01   -2.4842877409E-01   -2.5099771757E-01   -2.5357856597E-01
   -2.5617074209E-01   -2.5877363703E-01   -2.6138660904E-01   -2.6400898240E-01
   -2.6664004622E-01   -2.6927905322E-01   -2.7192521849E-01   -2.7457771822E-01
   -2.7723568842E-01   -2.7989822353E-01   -2.8256437513E-01   -2.8523315051E-01
   -2.8790351123E-01   -2.9057437173E-01   -2.9324459783E-01   -2.9591300521E-01
   -2.9857835789E-01   -3.0123936672E-01   -3.0389468775E-01   -3.0654292065E-01
   -3.0918260709E-01   -3.1181222910E-01   -3.1443020744E-01   -3.1703489985E-01
   -3.1962459945E-01   -3.2219753297E-01   -3.2475185909E-01   -3.2728566671E-01
   -3.2979697320E-01   -3.3228372274E-01   -3.3474378458E-01   -3.3717495132E-01
   -3.3957493726E-01   -3.4194137670E-01   -3.4427182229E-01   -3.4656374345E-01
   -3.4881452473E-01   -3.5102146433E-01   -3.5318177256E-01   -3.5529257044E-01
   -3.5735088829E-01   -3.5935366451E-01   -3.6129774427E-01   -3.6317987848E-01
   -3.6499672273E-01   -3.6674483638E-01   -3.6842068183E-01   -3.7002062386E-01
   -3.7154092916E-01   -3.7297776601E-01   -3.7432720420E-01   -3.7558521501E-01
   -3.7674767161E-01   -3.7781034949E-01   -3.7876892731E-01   -3.7961898790E-01
   -3.8035601961E-01   -3.8097541799E-01   -3.8147248777E-01   -3.8184244523E-01
   -3.8208042090E-01   -3.8218146277E-01   -3.8214053984E-01   -3.8195254622E-01
   -3.8161230563E-01   -3.8111457651E-01   -3.8045405764E-01   -3.7962539437E-01
   -3.7862318543E-01   -3.7744199042E-01   -3.7607633800E-01   -3.7452073472E-01
   -3.7276967472E-01   -3.7081765008E-01   -3.6865916211E-01   -3.6628873341E-01
   -3.6370092085E-01   -3.6089032948E-01   -3.5785162736E-01   -3.5457956139E-01
   -3.5106897417E-01   -3.4731482185E-01   -3.4331219307E-01   -3.3905632903E-01
   -3.3454264455E-01   -3.2976675037E-01   -3.2472447648E-01   -3.1941189663E-01
   -3.1382535400E-01   -3.0796148786E-01   -3.0181726151E-01   -2.9538999116E-01
   -2.8867737590E-01   -2.8167752869E-01   -2.7438900825E-01   -2.6681085183E-01
   -2.5894260879E-01   -2.5078437482E-01   -2.4233682676E-01   -2.3360125780E-01
   -2.2457961300E-01   -2.1527452490E-01   -2.0568934895E-01   -1.9582819868E-01
   -1.8569598022E-01   -1.7529842600E-01   -1.6464212719E-01   -1.5373456464E-01
   -1.4258413793E-01   -1.3120019201E-01   -1.1959304119E-01   -1.0777398972E-01
   -9.5755348692E-02   -8.3550448505E-02   -7.1173646434E-02   -5.8640328544E-02
   -4.5966905331E-02   -3.3170800358E-02   -2.0270431104E-02   -7.2851812619E-03
    5.7646363552E-03    1.8857827153E-02    3.1972373200E-02    4.5085503686E-02
    5.8173778268E-02    7.1213184233E-02    8.4179248332E-02    9.7047164178E-02
    1.0979193602E-01    1.2238853965E-01    1.3481210121E-01    1.4703809442E-01
    1.5904255679E-01    1.7080232517E-01    1.8229529080E-01    1.9350067386E-01
    2.0439931732E-01    2.1497399956E-01    2.2520976497E-01    2.3509427138E-01
    2.4461815280E-01    2.5377539556E-01    2.6256372533E-01    2.7098500221E-01
    2.7904562033E-01    2.8675690786E-01    2.9413552276E-01    3.0120383883E-01
    3.0799031592E-01    3.1452984747E-01    3.2086407787E-01    3.2704168111E-01
    3.3311859174E-01    3.3915817835E-01    3.4523134887E-01    3.5141657671E-01
    3.5779983601E-01    3.6447443384E-01    3.7154072690E-01    3.7910571025E-01
    3.8728246559E-01    3.9618945683E-01    4.0594966155E-01    4.1668952757E-01
    4.2853774531E-01    4.4162382814E-01    4.5607649515E-01    4.7202185300E-01
    4.8958137677E-01    5.0886969310E-01    5.2999217258E-01    5.5304234310E-01
    5.7809914041E-01    6.0522401723E-01    6.3445793771E-01    6.6581828961E-01
    6.9929575189E-01    7.3485116083E-01    7.7241242250E-01    8.1187152364E-01
    8.5308169587E-01    8.9585479001E-01    9.3995891675E-01    9.8511640771E-01
    1.0310021455E+00    1.0772423028E+00    1.1234135180E+00    1.1690425194E+00
    1.2136061855E+00    1.2565320075E+00    1.2971988812E+00    1.3349398287E+00
    1.3690594849E+00    1.3988545382E+00    1.4236255561E+00    1.4426890627E+00
    1.4553905573E+00    1.4611183306E+00    1.4593179011E+00    1.4495068686E+00
    1.4312899471E+00    1.4043739043E+00    1.3685820921E+00    1.3238681972E+00
    1.2703287900E+00    1.2082141882E+00    1.1379370962E+00    1.0600784382E+00
    9.7538977567E-01    8.8479169857E-01    7.8936761209E-01    6.9035240936E-01
    5.8911562923E-01    4.8713884741E-01    3.8598723657E-01    2.8727545410E-01
    1.9262826898E-01    1.0363661592E-01    2.1810057841E-02   -5.1473062993E-02
   -1.1501621020E-01   -1.6785412314E-01   -2.0929907607E-01   -2.3898163858E-01
   -2.5688352623E-01   -2.6336009690E-01   -2.5915012526E-01   -2.4537069363E-01
   -2.2349538827E-01   -1.9531449920E-01   -1.6287659223E-01   -1.2841165354E-01
   -9.4236973248E-02   -6.2643676420E-02   -3.5725976608E-02   -1.5402034737E-02
   -3.2001003543E-03    5.3563972045E-05    2.8629424513E-06   -0.0000000000E+00
 0. 0. 0. 0.
 0. 0. 0. 0.
 0. 0. 0. 0.
 0. 0. 0. 0.
 0. 0. 0. 0.
 0. 0. 0. 0.
 0. 0. 0. 0.
 0. 0. 0. 0.
 0. 0. 0. 0.
 0. 0. 0. 0.
 0. 0. 0. 0.
 0. 0. 0. 0.
 0. 0. 0. 0.
 0. 0. 0. 0.
 0. 0. 0. 0.
 0. 0. 0. 0.
 0. 0. 0. 0.
 0. 0. 0. 0.
 0. 0. 0. 0.
 0. 0. 0. 0.
 0. 0. 0. 0.
 0. 0. 0. 0.
 0. 0. 0. 0.
 0. 0. 0. 0.
 0. 0. 0. 0.
 0. 0. 0. 0.
 0. 0. 0. 0.
 0. 0. 0. 0.
 0. 0. 0. 0.
 0. 0. 0. 0.
 0. 0. 0. 0.
 0. 0. 0. 0.
 0. 0. 0. 0.
 0. 0. 0. 0.
 0. 0. 0. 0.
 0. 0. 0. 0.
 0. 0. 0. 0.
 0. 0.
   </PP_BETA.2>
   <PP_BETA.3
       type="real"
       size="1106"
       columns="4"
       index="3"
       angular_momentum="1"
       cutoff_radius_index=" 956"
       cutoff_radius="    2.3889683921E+00" >
    0.0000000000E+00    1.4683663805E-09    1.5055381714E-09    1.5436513005E-09
    1.5827288873E-09    1.6227963000E-09    1.6638772408E-09    1.7059984390E-09
    1.7491861635E-09    1.7934669925E-09    1.8388691876E-09    1.8854196789E-09
    1.9331496164E-09    1.9820876294E-09    2.0322644405E-09    2.0837113797E-09
    2.1364607144E-09    2.1905454257E-09    2.2459992856E-09    2.3028568351E-09
    2.3611545241E-09    2.4209276611E-09    2.4822133374E-09    2.5450512988E-09
    2.6094790674E-09    2.6755384490E-09    2.7432694722E-09    2.8127163982E-09
    2.8839202905E-09    2.9569270939E-09    3.0317821006E-09    3.1085319805E-09
    3.1872248491E-09    3.2679096382E-09    3.3506372484E-09    3.4354589441E-09
    3.5224279951E-09    3.6115989023E-09    3.7030273646E-09    3.7967692997E-09
    3.8928849512E-09    3.9914338571E-09    4.0924774464E-09    4.1960793164E-09
    4.3023032632E-09    4.4112164542E-09    4.5228878884E-09    4.6373847108E-09
    4.7547804896E-09    4.8751487913E-09    4.9985636750E-09    5.1251026713E-09
    5.2548453020E-09    5.3878724758E-09    5.5242674172E-09    5.6641144688E-09
    5.8075026804E-09    5.9545197274E-09    6.1052596177E-09    6.2598146013E-09
    6.4182828995E-09    6.5807621774E-09    6.7473551744E-09    6.9181651525E-09
    7.0932993677E-09    7.2728671066E-09    7.4569806249E-09    7.6457549627E-09
    7.8393081375E-09    8.0377609483E-09    8.2412377423E-09    8.4498665159E-09
    8.6637758380E-09    8.8831000077E-09    9.1079767697E-09    9.3385461175E-09
    9.5749527481E-09    9.8173438507E-09    1.0065870757E-08    1.0320689488E-08
    1.0581958894E-08    1.0849842999E-08    1.1124507993E-08    1.1406126114E-08
    1.1694873792E-08    1.1990930536E-08    1.2294482495E-08    1.2605719008E-08
    1.2924833931E-08    1.3252028006E-08    1.3587504423E-08    1.3931473835E-08
    1.4284151050E-08    1.4645756223E-08    1.5016515165E-08    1.5396659629E-08
    1.5786428162E-08    1.6186063648E-08    1.6595815057E-08    1.7015941202E-08
    1.7446701018E-08    1.7888366653E-08    1.8341212863E-08    1.8805522644E-08
    1.9281587652E-08    1.9769702382E-08    2.0270175519E-08    2.0783317031E-08
    2.1309449234E-08    2.1848900647E-08    2.2402008330E-08    2.2969117615E-08
    2.3550583295E-08    2.4146769941E-08    2.4758047885E-08    2.5384800689E-08
    2.6027419567E-08    2.6686307267E-08    2.7361874131E-08    2.8054543673E-08
    2.8764747575E-08    2.9492930728E-08    3.0239547947E-08    3.1005065598E-08
    3.1789962645E-08    3.2594729293E-08    3.3419868790E-08    3.4265896606E-08
    3.5133342098E-08    3.6022746677E-08    3.6934667086E-08    3.7869672687E-08
    3.8828347880E-08    3.9811293080E-08    4.0819120042E-08    4.1852460387E-08
    4.2911960710E-08    4.3998282311E-08    4.5112104353E-08    4.6254122077E-08
    4.7425050773E-08    4.8625621901E-08    4.9856585490E-08    5.1118710723E-08
    5.2412787243E-08    5.3739623149E-08    5.5100047992E-08    5.6494912180E-08
    5.7925087849E-08    5.9391468704E-08    6.0894971118E-08    6.2436534835E-08
    6.4017122515E-08    6.5637723715E-08    6.7299350610E-08    6.9003041391E-08
    7.0749862252E-08    7.2540903656E-08    7.4377284694E-08    7.6260154632E-08
    7.8190689722E-08    8.0170096946E-08    8.2199611786E-08    8.4280504868E-08
    8.6414076666E-08    8.8601659181E-08    9.0844620603E-08    9.3144363520E-08
    9.5502324134E-08    9.7919976617E-08    1.0039883287E-07    1.0294044088E-07
    1.0554639083E-07    1.0821831011E-07    1.1095786974E-07    1.1376678149E-07
    1.1664680158E-07    1.1959972971E-07    1.2262741078E-07    1.2573173810E-07
    1.2891465238E-07    1.3217814216E-07    1.3552424754E-07    1.3895506025E-07
    1.4247272410E-07    1.4607943851E-07    1.4977745736E-07    1.5356909070E-07
    1.5745671087E-07    1.6144274634E-07    1.6552968904E-07    1.6972009297E-07
    1.7401657727E-07    1.7842182739E-07    1.8293859796E-07    1.8756970996E-07
    1.9231805977E-07    1.9718661443E-07    2.0217841704E-07    2.0729658789E-07
    2.1254432562E-07    2.1792491080E-07    2.2344170572E-07    2.2909815928E-07
    2.3489780697E-07    2.4084427266E-07    2.4694127338E-07    2.5319262209E-07
    2.5960222323E-07    2.6617408420E-07    2.7291231356E-07    2.7982112083E-07
    2.8690482608E-07    2.9416785570E-07    3.0161474944E-07    3.0925016310E-07
    3.1707886780E-07    3.2510575701E-07    3.3333584785E-07    3.4177428510E-07
    3.5042634112E-07    3.5929742563E-07    3.6839308205E-07    3.7771899696E-07
    3.8728099788E-07    3.9708506225E-07    4.0713731761E-07    4.1744404739E-07
    4.2801169328E-07    4.3884685917E-07    4.4995631982E-07    4.6134701666E-07
    4.7302607097E-07    4.8500078207E-07    4.9727863415E-07    5.0986730159E-07
    5.2277465210E-07    5.3600875366E-07    5.4957787848E-07    5.6349050732E-07
    5.7775533566E-07    5.9238127977E-07    6.0737748121E-07    6.2275331379E-07
    6.3851838644E-07    6.5468255467E-07    6.7125591998E-07    6.8824884202E-07
    7.0567194225E-07    7.2353611014E-07    7.4185251095E-07    7.6063259399E-07
    7.7988809636E-07    7.9963105440E-07    8.1987380778E-07    8.4062900870E-07
    8.6190962910E-07    8.8372897201E-07    9.0610067311E-07    9.2903871659E-07
    9.5255743962E-07    9.7667154069E-07    1.0013960936E-06    1.0267465508E-06
    1.0527387576E-06    1.0793889610E-06    1.1067138163E-06    1.1347304034E-06
    1.1634562335E-06    1.1929092615E-06    1.2231078957E-06    1.2540710115E-06
    1.2858179623E-06    1.3183685903E-06    1.3517432405E-06    1.3859627739E-06
    1.4210485790E-06    1.4570225843E-06    1.4939072754E-06    1.5317257060E-06
    1.5705015152E-06    1.6102589376E-06    1.6510228226E-06    1.6928186501E-06
    1.7356725432E-06    1.7796112870E-06    1.8246623447E-06    1.8708538742E-06
    1.9182147470E-06    1.9667745654E-06    2.0165636802E-06    2.0676132114E-06
    2.1199550662E-06    2.1736219611E-06    2.2286474376E-06    2.2850658907E-06
    2.3429125812E-06    2.4022236670E-06    2.4630362184E-06    2.5253882457E-06
    2.5893187197E-06    2.6548676005E-06    2.7220758557E-06    2.7909854959E-06
    2.8616395889E-06    2.9340822971E-06    3.0083588987E-06    3.0845158191E-06
    3.1626006587E-06    3.2426622234E-06    3.3247505532E-06    3.4089169563E-06
    3.4952140383E-06    3.5836957396E-06    3.6744173611E-06    3.7674356088E-06
    3.8628086214E-06    3.9605960084E-06    4.0608588909E-06    4.1636599370E-06
    4.2690633986E-06    4.3771351579E-06    4.4879427610E-06    4.6015554673E-06
    4.7180442873E-06    4.8374820300E-06    4.9599433486E-06    5.0855047825E-06
    5.2142448135E-06    5.3462439067E-06    5.4815845650E-06    5.6203513812E-06
    5.7626310881E-06    5.9085126141E-06    6.0580871402E-06    6.2114481533E-06
    6.3686915093E-06    6.5299154893E-06    6.6952208636E-06    6.8647109510E-06
    7.0384916890E-06    7.2166716942E-06    7.3993623346E-06    7.5866777957E-06
    7.7787351567E-06    7.9756544571E-06    8.1775587770E-06    8.3845743118E-06
    8.5968304518E-06    8.8144598627E-06    9.0375985688E-06    9.2663860371E-06
    9.5009652654E-06    9.7414828721E-06    9.9880891870E-06    1.0240938345E-05
    1.0500188383E-05    1.0766001337E-05    1.1038543351E-05    1.1317984766E-05
    1.1604500243E-05    1.1898268858E-05    1.2199474224E-05    1.2508304603E-05
    1.2824953020E-05    1.3149617388E-05    1.3482500629E-05    1.3823810803E-05
    1.4173761236E-05    1.4532570655E-05    1.4900463324E-05    1.5277669183E-05
    1.5664423994E-05    1.6060969487E-05    1.6467553511E-05    1.6884430189E-05
    1.7311860078E-05    1.7750110329E-05    1.8199454856E-05    1.8660174510E-05
    1.9132557249E-05    1.9616898319E-05    2.0113500444E-05    2.0622674007E-05
    2.1144737253E-05    2.1680016477E-05    2.2228846239E-05    2.2791569567E-05
    2.3368538170E-05    2.3960112663E-05    2.4566662788E-05    2.5188567648E-05
    2.5826215942E-05    2.6480006209E-05    2.7150347077E-05    2.7837657514E-05
    2.8542367101E-05    2.9264916286E-05    3.0005756672E-05    3.0765351291E-05
    3.1544174897E-05    3.2342714262E-05    3.3161468479E-05    3.4000949276E-05
    3.4861681335E-05    3.5744202618E-05    3.6649064707E-05    3.7576833145E-05
    3.8528087790E-05    3.9503423182E-05    4.0503448907E-05    4.1528789983E-05
    4.2580087252E-05    4.3657997773E-05    4.4763195240E-05    4.5896370401E-05
    4.7058231490E-05    4.8249504663E-05    4.9470934465E-05    5.0723284283E-05
    5.2007336828E-05    5.3323894626E-05    5.4673780515E-05    5.6057838163E-05
    5.7476932592E-05    5.8931950721E-05    6.0423801920E-05    6.1953418578E-05
    6.3521756682E-05    6.5129796421E-05    6.6778542794E-05    6.8469026238E-05
    7.0202303274E-05    7.1979457164E-05    7.3801598593E-05    7.5669866356E-05
    7.7585428077E-05    7.9549480932E-05    8.1563252402E-05    8.3628001036E-05
    8.5745017238E-05    8.7915624078E-05    9.0141178112E-05    9.2423070235E-05
    9.4762726545E-05    9.7161609235E-05    9.9621217514E-05    1.0214308853E-04
    1.0472879834E-04    1.0737996290E-04    1.1009823906E-04    1.1288532560E-04
    1.1574296431E-04    1.1867294106E-04    1.2167708691E-04    1.2475727929E-04
    1.2791544313E-04    1.3115355207E-04    1.3447362972E-04    1.3787775091E-04
    1.4136804297E-04    1.4494668708E-04    1.4861591961E-04    1.5237803355E-04
    1.5623537991E-04    1.6019036921E-04    1.6424547297E-04    1.6840322525E-04
    1.7266622428E-04    1.7703713401E-04    1.8151868581E-04    1.8611368020E-04
    1.9082498856E-04    1.9565555493E-04    2.0060839786E-04    2.0568661231E-04
    2.1089337153E-04    2.1623192910E-04    2.2170562092E-04    2.2731786732E-04
    2.3307217518E-04    2.3897214013E-04    2.4502144878E-04    2.5122388102E-04
    2.5758331243E-04    2.6410371661E-04    2.7078916775E-04    2.7764384311E-04
    2.8467202566E-04    2.9187810674E-04    2.9926658881E-04    3.0684208827E-04
    3.1460933829E-04    3.2257319183E-04    3.3073862463E-04    3.3911073833E-04
    3.4769476365E-04    3.5649606364E-04    3.6552013705E-04    3.7477262175E-04
    3.8425929824E-04    3.9398609327E-04    4.0395908354E-04    4.1418449945E-04
    4.2466872907E-04    4.3541832203E-04    4.4643999368E-04    4.5774062922E-04
    4.6932728805E-04    4.8120720813E-04    4.9338781050E-04    5.0587670394E-04
    5.1868168967E-04    5.3181076626E-04    5.4527213455E-04    5.5907420286E-04
    5.7322559212E-04    5.8773514134E-04    6.0261191307E-04    6.1786519906E-04
    6.3350452603E-04    6.4953966164E-04    6.6598062058E-04    6.8283767076E-04
    7.0012133977E-04    7.1784242137E-04    7.3601198230E-04    7.5464136908E-04
    7.7374221516E-04    7.9332644809E-04    8.1340629702E-04    8.3399430026E-04
    8.5510331310E-04    8.7674651582E-04    8.9893742192E-04    9.2168988646E-04
    9.4501811475E-04    9.6893667117E-04    9.9346048821E-04    1.0186048758E-03
    1.0443855307E-03    1.0708185466E-03    1.0979204238E-03    1.1257080793E-03
    1.1541988581E-03    1.1834105430E-03    1.2133613665E-03    1.2440700214E-03
    1.2755556731E-03    1.3078379710E-03    1.3409370608E-03    1.3748735974E-03
    1.4096687572E-03    1.4453442514E-03    1.4819223398E-03    1.5194258442E-03
    1.5578781627E-03    1.5973032843E-03    1.6377258039E-03    1.6791709371E-03
    1.7216645362E-03    1.7652331063E-03    1.8099038215E-03    1.8557045416E-03
    1.9026638300E-03    1.9508109706E-03    2.0001759864E-03    2.0507896582E-03
    2.1026835433E-03    2.1558899950E-03    2.2104421832E-03    2.2663741141E-03
    2.3237206520E-03    2.3825175402E-03    2.4428014237E-03    2.5046098711E-03
    2.5679813988E-03    2.6329554936E-03    2.6995726382E-03    2.7678743354E-03
    2.8379031341E-03    2.9097026553E-03    2.9833176192E-03    3.0587938726E-03
    3.1361784174E-03    3.2155194391E-03    3.2968663368E-03    3.3802697537E-03
    3.4657816077E-03    3.5534551240E-03    3.6433448674E-03    3.7355067759E-03
    3.8299981950E-03    3.9268779131E-03    4.0262061973E-03    4.1280448305E-03
    4.2324571493E-03    4.3395080827E-03    4.4492641919E-03    4.5617937110E-03
    4.6771665888E-03    4.7954545315E-03    4.9167310464E-03    5.0410714870E-03
    5.1685530989E-03    5.2992550667E-03    5.4332585627E-03    5.5706467958E-03
    5.7115050624E-03    5.8559207985E-03    6.0039836323E-03    6.1557854393E-03
    6.3114203972E-03    6.4709850440E-03    6.6345783356E-03    6.8023017063E-03
    6.9742591298E-03    7.1505571823E-03    7.3313051067E-03    7.5166148786E-03
    7.7066012735E-03    7.9013819365E-03    8.1010774525E-03    8.3058114189E-03
    8.5157105200E-03    8.7309046024E-03    8.9515267535E-03    9.1777133806E-03
    9.4096042929E-03    9.6473427844E-03    9.8910757199E-03    1.0140953622E-02
    1.0397130761E-02    1.0659765246E-02    1.0929019121E-02    1.1205058456E-02
    1.1488053449E-02    1.1778178529E-02    1.2075612451E-02    1.2380538408E-02
    1.2693144138E-02    1.3013622032E-02    1.3342169245E-02    1.3678987818E-02
    1.4024284788E-02    1.4378272317E-02    1.4741167808E-02    1.5113194034E-02
    1.5494579269E-02    1.5885557418E-02    1.6286368152E-02    1.6697257047E-02
    1.7118475726E-02    1.7550281998E-02    1.7992940013E-02    1.8446720408E-02
    1.8911900461E-02    1.9388764251E-02    1.9877602817E-02    2.0378714322E-02
    2.0892404223E-02    2.1418985440E-02    2.1958778533E-02    2.2512111879E-02
    2.3079321859E-02    2.3660753037E-02    2.4256758360E-02    2.4867699342E-02
    2.5493946273E-02    2.6135878412E-02    2.6793884199E-02    2.7468361467E-02
    2.8159717652E-02    2.8868370015E-02    2.9594745866E-02    3.0339282792E-02
    3.1102428889E-02    3.1884642997E-02    3.2686394944E-02    3.3508165793E-02
    3.4350448088E-02    3.5213746112E-02    3.6098576146E-02    3.7005466734E-02
    3.7934958952E-02    3.8887606681E-02    3.9863976885E-02    4.0864649894E-02
    4.1890219695E-02    4.2941294221E-02    4.4018495648E-02    4.5122460699E-02
    4.6253840949E-02    4.7413303137E-02    4.8601529481E-02    4.9819217997E-02
    5.1067082825E-02    5.2345854559E-02    5.3656280576E-02    5.4999125377E-02
    5.6375170926E-02    5.7785216997E-02    5.9230081521E-02    6.0710600941E-02
    6.2227630565E-02    6.3782044928E-02    6.5374738152E-02    6.7006624313E-02
    6.8678637806E-02    7.0391733719E-02    7.2146888201E-02    7.3945098835E-02
    7.5787385019E-02    7.7674788331E-02    7.9608372917E-02    8.1589225856E-02
    8.3618457546E-02    8.5697202069E-02    8.7826617570E-02    9.0007886629E-02
    9.2242216622E-02    9.4530840095E-02    9.6875015117E-02    9.9276025640E-02
    1.0173518185E-01    1.0425382049E-01    1.0683330524E-01    1.0947502700E-01
    1.1218040422E-01    1.1495088321E-01    1.1778793844E-01    1.2069307281E-01
    1.2366781789E-01    1.2671373424E-01    1.2983241156E-01    1.3302546895E-01
    1.3629455509E-01    1.3964134839E-01    1.4306755716E-01    1.4657491970E-01
    1.5016520438E-01    1.5384020971E-01    1.5760176435E-01    1.6145172708E-01
    1.6539198677E-01    1.6942446224E-01    1.7355110213E-01    1.7777388469E-01
    1.8209481755E-01    1.8651593739E-01    1.9103930959E-01    1.9566702777E-01
    2.0040121333E-01    2.0524401482E-01    2.1019760734E-01    2.1526419178E-01
    2.2044599398E-01    2.2574526385E-01    2.3116427430E-01    2.3670532017E-01
    2.4237071695E-01    2.4816279945E-01    2.5408392030E-01    2.6013644834E-01
    2.6632276687E-01    2.7264527174E-01    2.7910636926E-01    2.8570847403E-01
    2.9245400644E-01    2.9934539016E-01    3.0638504931E-01    3.1357540543E-01
    3.2091887434E-01    3.2841786264E-01    3.3607476401E-01    3.4389195533E-01
    3.5187179239E-01    3.6001660549E-01    3.6832869456E-01    3.7681032414E-01
    3.8546371795E-01    3.9429105308E-01    4.0329445394E-01    4.1247598575E-01
    4.2183764765E-01    4.3138136545E-01    4.4110898390E-01    4.5102225852E-01
    4.6112284705E-01    4.7141230030E-01    4.8189205257E-01    4.9256341154E-01
    5.0342754764E-01    5.1448548275E-01    5.2573807851E-01    5.3718602383E-01
    5.4882982190E-01    5.6066977654E-01    5.7270597782E-01    5.8493828711E-01
    5.9736632130E-01    6.0998943640E-01    6.2280671038E-01    6.3581692521E-01
    6.4901854816E-01    6.6240971237E-01    6.7598819649E-01    6.8975140370E-01
    7.0369633974E-01    7.1781959024E-01    7.3211729718E-01    7.4658513455E-01
    7.6121828323E-01    7.7601140499E-01    7.9095861581E-01    8.0605345838E-01
    8.2128887385E-01    8.3665717293E-01    8.5215000635E-01    8.6775833462E-01
    8.8347239733E-01    8.9928168197E-01    9.1517489233E-01    9.3113991658E-01
    9.4716379521E-01    9.6323268885E-01    9.7933184614E-01    9.9544557189E-01
    1.0115571955E+00    1.0276490399E+00    1.0437023918E+00    1.0596974717E+00
    1.0756134066E+00    1.0914282035E+00    1.1071187242E+00    1.1226606635E+00
    1.1380285288E+00    1.1531956228E+00    1.1681340300E+00    1.1828146061E+00
    1.1972069723E+00    1.2112795134E+00    1.2249993822E+00    1.2383325085E+00
    1.2512436151E+00    1.2636962409E+00    1.2756527704E+00    1.2870744734E+00
    1.2979215517E+00    1.3081531964E+00    1.3177276558E+00    1.3266023139E+00
    1.3347337807E+00    1.3420779959E+00    1.3485903448E+00    1.3542257893E+00
    1.3589390133E+00    1.3626845829E+00    1.3654171242E+00    1.3670915159E+00
    1.3676631000E+00    1.3670879097E+00    1.3653229151E+00    1.3623262861E+00
    1.3580576731E+00    1.3524785063E+00    1.3455523099E+00    1.3372450344E+00
    1.3275254035E+00    1.3163652745E+00    1.3037400122E+00    1.2896288724E+00
    1.2740153940E+00    1.2568877964E+00    1.2382393785E+00    1.2180689170E+00
    1.1963810583E+00    1.1731867002E+00    1.1485033584E+00    1.1223555105E+00
    1.0947749139E+00    1.0658008879E+00    1.0354805558E+00    1.0038690364E+00
    9.7102957987E-01    9.3703363712E-01    9.0196085669E-01    8.6589899925E-01
    8.2894376240E-01    7.9119850781E-01    7.5277388374E-01    7.1378733679E-01
    6.7436250813E-01    6.3462851112E-01    5.9471908914E-01    5.5477165550E-01
    5.1492622005E-01    4.7532421106E-01    4.3610720556E-01    3.9741558623E-01
    3.5938714912E-01    3.2215569331E-01    2.8584963123E-01    2.5059066720E-01
    2.1649260121E-01    1.8366032574E-01    1.5218909480E-01    1.2216437389E-01
    9.3663602155E-02    6.6757188211E-02    4.1507693104E-02    1.7968922646E-02
   -3.8149046663E-03   -2.3809876788E-02   -4.1992959244E-02   -5.8352388688E-02
   -7.2887868628E-02   -8.5610559260E-02   -9.6542867233E-02   -1.0571805497E-01
   -1.1317970107E-01   -1.1898105152E-01   -1.2318430511E-01   -1.2585987486E-01
   -1.2708566142E-01   -1.2694636474E-01   -1.2553284977E-01   -1.2294157034E-01
   -1.1927404643E-01   -1.1463638297E-01   -1.0913881437E-01   -1.0289525802E-01
   -9.6022861429E-02   -8.8641530064E-02   -8.0873426695E-02   -7.2842435999E-02
   -6.4673590727E-02   -5.6492457022E-02   -4.8424476569E-02   -4.0594262058E-02
   -3.3124840182E-02   -2.6136833267E-02   -1.9747566823E-02   -1.4070098511E-02
   -9.2123497274E-03   -5.2977591558E-03   -2.4197369325E-03   -6.3707121155E-04
   -3.8131473186E-06    1.1757698946E-08   -0.0000000000E+00   -0.0000000000E+00
   -0.0000000000E+00   -0.0000000000E+00   -0.0000000000E+00   -0.0000000000E+00
 0. 0. 0. 0.
 0. 0. 0. 0.
 0. 0. 0. 0.
 0. 0. 0. 0.
 0. 0. 0. 0.
 0. 0. 0. 0.
 0. 0. 0. 0.
 0. 0. 0. 0.
 0. 0. 0. 0.
 0. 0. 0. 0.
 0. 0. 0. 0.
 0. 0. 0. 0.
 0. 0. 0. 0.
 0. 0. 0. 0.
 0. 0. 0. 0.
 0. 0. 0. 0.
 0. 0. 0. 0.
 0. 0. 0. 0.
 0. 0. 0. 0.
 0. 0. 0. 0.
 0. 0. 0. 0.
 0. 0. 0. 0.
 0. 0. 0. 0.
 0. 0. 0. 0.
 0. 0. 0. 0.
 0. 0. 0. 0.
 0. 0. 0. 0.
 0. 0. 0. 0.
 0. 0. 0. 0.
 0. 0. 0. 0.
 0. 0. 0. 0.
 0. 0. 0. 0.
 0. 0. 0. 0.
 0. 0. 0. 0.
 0. 0. 0. 0.
 0. 0. 0. 0.
 0. 0. 0. 0.
 0. 0.
   </PP_BETA.3>
   <PP_BETA.4
       type="real"
       size="1106"
       columns="4"
       index="4"
       angular_momentum="1"
       cutoff_radius_index=" 956"
       cutoff_radius="    2.3889683921E+00" >
    0.0000000000E+00   -1.1652404419E-09   -1.1947385699E-09   -1.2249838847E-09
   -1.2559949980E-09   -1.2877917885E-09   -1.3203912957E-09   -1.3538168654E-09
   -1.3880892523E-09   -1.4232293083E-09   -1.4592594703E-09   -1.4961985547E-09
   -1.5340758858E-09   -1.5729114344E-09   -1.6127301520E-09   -1.6535564229E-09
   -1.6954158035E-09   -1.7383358895E-09   -1.7823414820E-09   -1.8274613308E-09
   -1.8737257907E-09   -1.9211600805E-09   -1.9697925084E-09   -2.0196597272E-09
   -2.0707863185E-09   -2.1232086927E-09   -2.1769561412E-09   -2.2320681850E-09
   -2.2885725065E-09   -2.3465081378E-09   -2.4059096417E-09   -2.4668161933E-09
   -2.5292633751E-09   -2.5932907359E-09   -2.6589407498E-09   -2.7262527023E-09
   -2.7952674470E-09   -2.8660308913E-09   -2.9385866193E-09   -3.0129741252E-09
   -3.0892485440E-09   -3.1674529505E-09   -3.2476380652E-09   -3.3298533885E-09
   -3.4141475928E-09   -3.5005770067E-09   -3.5891976477E-09   -3.6800562894E-09
   -3.7732165696E-09   -3.8687379221E-09   -3.9666744852E-09   -4.0670911323E-09
   -4.1700497343E-09   -4.2756153710E-09   -4.3838545773E-09   -4.4948316584E-09
   -4.6086199902E-09   -4.7252858959E-09   -4.8449088311E-09   -4.9675566118E-09
   -5.0933122618E-09   -5.2222490060E-09   -5.3544513270E-09   -5.4899994466E-09
   -5.6289792671E-09   -5.7714783105E-09   -5.9175841522E-09   -6.0673880638E-09
   -6.2209843721E-09   -6.3784688366E-09   -6.5399394635E-09   -6.7055018263E-09
   -6.8752520795E-09   -7.0492991016E-09   -7.2277530539E-09   -7.4107239632E-09
   -7.5983279895E-09   -7.7906808058E-09   -7.9879013023E-09   -8.1901166753E-09
   -8.3974494620E-09   -8.6100337471E-09   -8.8279975110E-09   -9.0514790813E-09
   -9.2806192097E-09   -9.5155578340E-09   -9.7564455108E-09   -1.0003431435E-08
   -1.0256668492E-08   -1.0516318693E-08   -1.0782539878E-08   -1.1055501542E-08
   -1.1335373506E-08   -1.1622330218E-08   -1.1916550955E-08   -1.2218218048E-08
   -1.2527524364E-08   -1.2844661642E-08   -1.3169822776E-08   -1.3503222002E-08
   -1.3845054943E-08   -1.4195545607E-08   -1.4554907627E-08   -1.4923365292E-08
   -1.5301155402E-08   -1.5688503274E-08   -1.6085661879E-08   -1.6492870288E-08
   -1.6910390229E-08   -1.7338478986E-08   -1.7777405240E-08   -1.8227441187E-08
   -1.8688870067E-08   -1.9161984054E-08   -1.9647070097E-08   -2.0144437795E-08
   -2.0654395741E-08   -2.1177264821E-08   -2.1713369518E-08   -2.2263047662E-08
   -2.2826638221E-08   -2.3404497791E-08   -2.3996986059E-08   -2.4604472832E-08
   -2.5227337984E-08   -2.5865970138E-08   -2.6520770336E-08   -2.7192146287E-08
   -2.7880519390E-08   -2.8586317757E-08   -2.9309984398E-08   -3.0051970259E-08
   -3.0812739186E-08   -3.1592770031E-08   -3.2392542790E-08   -3.3212561181E-08
   -3.4053342614E-08   -3.4915408117E-08   -3.5799296515E-08   -3.6705557511E-08
   -3.7634762982E-08   -3.8587493005E-08   -3.9564339258E-08   -4.0565915219E-08
   -4.1592846804E-08   -4.2645773976E-08   -4.3725357119E-08   -4.4832269095E-08
   -4.5967204128E-08   -4.7130870283E-08   -4.8323994102E-08   -4.9547323183E-08
   -5.0801617520E-08   -5.2087666310E-08   -5.3406272293E-08   -5.4758256916E-08
   -5.6144469983E-08   -5.7565774913E-08   -5.9023057623E-08   -6.0517233253E-08
   -6.2049234829E-08   -6.3620019627E-08   -6.5230566295E-08   -6.6881885964E-08
   -6.8575010946E-08   -7.0310994947E-08   -7.2090925492E-08   -7.3915917758E-08
   -7.5787107195E-08   -7.7705666255E-08   -7.9672795371E-08   -8.1689720132E-08
   -8.3757705547E-08   -8.5878041010E-08   -8.8052055053E-08   -9.0281102602E-08
   -9.2566581462E-08   -9.4909916181E-08   -9.7312570738E-08   -9.9776049579E-08
   -1.0230189246E-07   -1.0489167644E-07   -1.0754702212E-07   -1.1026958767E-07
   -1.1306107529E-07   -1.1592323040E-07   -1.1885784229E-07   -1.2186673946E-07
   -1.2495181200E-07   -1.2811498146E-07   -1.3135822834E-07   -1.3468357765E-07
   -1.3809310816E-07   -1.4158895034E-07   -1.4517329317E-07   -1.4884837140E-07
   -1.5261648561E-07   -1.5647999033E-07   -1.6044129988E-07   -1.6450289059E-07
   -1.6866729979E-07   -1.7293713350E-07   -1.7731505680E-07   -1.8180380869E-07
   -1.8640619518E-07   -1.9112508889E-07   -1.9596344028E-07   -2.0092428132E-07
   -2.0601070224E-07   -2.1122588670E-07   -2.1657309757E-07   -2.2205566952E-07
   -2.2767703567E-07   -2.3344070616E-07   -2.3935028309E-07   -2.4540946445E-07
   -2.5162203533E-07   -2.5799187553E-07   -2.6452297011E-07   -2.7121940281E-07
   -2.7808535151E-07   -2.8512511510E-07   -2.9234308931E-07   -2.9974378988E-07
   -3.0733183748E-07   -3.1511197940E-07   -3.2308907526E-07   -3.3126811533E-07
   -3.3965420671E-07   -3.4825259056E-07   -3.5706864681E-07   -3.6610787893E-07
   -3.7537594324E-07   -3.8487862962E-07   -3.9462187716E-07   -4.0461177579E-07
   -4.1485456883E-07   -4.2535665883E-07   -4.3612461214E-07   -4.4716515789E-07
   -4.5848519495E-07   -4.7009179958E-07   -4.8199222703E-07   -4.9419391674E-07
   -5.0670449049E-07   -5.1953177376E-07   -5.3268377962E-07   -5.4616873009E-07
   -5.5999505416E-07   -5.7417139324E-07   -5.8870660658E-07   -6.0360978190E-07
   -6.1889023032E-07   -6.3455750626E-07   -6.5062140217E-07   -6.6709195710E-07
   -6.8397946367E-07   -7.0129448194E-07   -7.1904782879E-07   -7.3725060548E-07
   -7.5591418848E-07   -7.7505023840E-07   -7.9467072133E-07   -8.1478789827E-07
   -8.3541434151E-07   -8.5656295087E-07   -8.7824693489E-07   -9.0047985249E-07
   -9.2327559796E-07   -9.4664842255E-07   -9.7061293007E-07   -9.9518410061E-07
   -1.0203772953E-06   -1.0462082567E-06   -1.0726931298E-06   -1.0998484715E-06
   -1.1276912545E-06   -1.1562388785E-06   -1.1855091892E-06   -1.2155204780E-06
   -1.2462915093E-06   -1.2778415115E-06   -1.3101902010E-06   -1.3433578029E-06
   -1.3773650456E-06   -1.4122331840E-06   -1.4479840133E-06   -1.4846398767E-06
   -1.5222236867E-06   -1.5607589347E-06   -1.6002697052E-06   -1.6407806941E-06
   -1.6823172208E-06   -1.7249052507E-06   -1.7685713969E-06   -1.8133429583E-06
   -1.8592479121E-06   -1.9063149550E-06   -1.9545735041E-06   -2.0040537222E-06
   -2.0547865329E-06   -2.1068036515E-06   -2.1601375817E-06   -2.2148216695E-06
   -2.2708900866E-06   -2.3283778792E-06   -2.3873209794E-06   -2.4477562267E-06
   -2.5097213967E-06   -2.5732552202E-06   -2.6383974044E-06   -2.7051886683E-06
   -2.7736707531E-06   -2.8438864700E-06   -2.9158796974E-06   -2.9896954410E-06
   -3.0653798330E-06   -3.1429801753E-06   -3.2225449758E-06   -3.3041239630E-06
   -3.3877681235E-06   -3.4735297432E-06   -3.5614624178E-06   -3.6516211118E-06
   -3.7440621769E-06   -3.8388433890E-06   -3.9360239939E-06   -4.0356647234E-06
   -4.1378278624E-06   -4.2425772641E-06   -4.3499783954E-06   -4.4600983905E-06
   -4.5730060748E-06   -4.6887720177E-06   -4.8074685772E-06   -4.9291699386E-06
   -5.0539521712E-06   -5.1818932649E-06   -5.3130731899E-06   -5.4475739296E-06
   -5.5854795564E-06   -5.7268762611E-06   -5.8718524208E-06   -6.0204986464E-06
   -6.1729078514E-06   -6.3291752898E-06   -6.4893986330E-06   -6.6536780235E-06
   -6.8221161395E-06   -6.9948182599E-06   -7.1718923266E-06   -7.3534490144E-06
   -7.5396017970E-06   -7.7304670256E-06   -7.9261639964E-06   -8.1268150213E-06
   -8.3325455117E-06   -8.5434840497E-06   -8.7597624820E-06   -8.9815159825E-06
   -9.2088831522E-06   -9.4420060962E-06   -9.6810305226E-06   -9.9261058240E-06
   -1.0177385178E-05   -1.0435025639E-05   -1.0699188233E-05   -1.0970038064E-05
   -1.1247744420E-05   -1.1532480872E-05   -1.1824425382E-05   -1.2123760416E-05
   -1.2430673066E-05   -1.2745355153E-05   -1.3068003358E-05   -1.3398819342E-05
   -1.3738009860E-05   -1.4085786916E-05   -1.4442367870E-05   -1.4807975589E-05
   -1.5182838583E-05   -1.5567191138E-05   -1.5961273479E-05   -1.6365331910E-05
   -1.6779618969E-05   -1.7204393584E-05   -1.7639921244E-05   -1.8086474152E-05
   -1.8544331405E-05   -1.9013779164E-05   -1.9495110831E-05   -1.9988627239E-05
   -2.0494636836E-05   -2.1013455875E-05   -2.1545408617E-05   -2.2090827527E-05
   -2.2650053490E-05   -2.3223436019E-05   -2.3811333471E-05   -2.4414113281E-05
   -2.5032152175E-05   -2.5665836424E-05   -2.6315562070E-05   -2.6981735183E-05
   -2.7664772114E-05   -2.8365099748E-05   -2.9083155779E-05   -2.9819388977E-05
   -3.0574259473E-05   -3.1348239049E-05   -3.2141811421E-05   -3.2955472551E-05
   -3.3789730965E-05   -3.4645108044E-05   -3.5522138376E-05   -3.6421370080E-05
   -3.7343365154E-05   -3.8288699802E-05   -3.9257964834E-05   -4.0251766004E-05
   -4.1270724397E-05   -4.2315476826E-05   -4.3386676214E-05   -4.4484992016E-05
   -4.5611110628E-05   -4.6765735822E-05   -4.7949589180E-05   -4.9163410552E-05
   -5.0407958508E-05   -5.1684010821E-05   -5.2992364954E-05   -5.4333838546E-05
   -5.5709269933E-05   -5.7119518670E-05   -5.8565466069E-05   -6.0048015745E-05
   -6.1568094181E-05   -6.3126651317E-05   -6.4724661125E-05   -6.6363122234E-05
   -6.8043058540E-05   -6.9765519863E-05   -7.1531582582E-05   -7.3342350328E-05
   -7.5198954653E-05   -7.7102555748E-05   -7.9054343173E-05   -8.1055536585E-05
   -8.3107386509E-05   -8.5211175124E-05   -8.7368217047E-05   -8.9579860171E-05
   -9.1847486497E-05   -9.4172513001E-05   -9.6556392511E-05   -9.9000614635E-05
   -1.0150670666E-04   -1.0407623453E-04   -1.0671080381E-04   -1.0941206071E-04
   -1.1218169307E-04   -1.1502143147E-04   -1.1793305026E-04   -1.2091836868E-04
   -1.2397925204E-04   -1.2711761282E-04   -1.3033541189E-04   -1.3363465975E-04
   -1.3701741776E-04   -1.4048579945E-04   -1.4404197180E-04   -1.4768815665E-04
   -1.5142663203E-04   -1.5525973362E-04   -1.5918985619E-04   -1.6321945509E-04
   -1.6735104781E-04   -1.7158721550E-04   -1.7593060463E-04   -1.8038392864E-04
   -1.8494996957E-04   -1.8963157987E-04   -1.9443168414E-04   -1.9935328096E-04
   -2.0439944478E-04   -2.0957332780E-04   -2.1487816196E-04   -2.2031726095E-04
   -2.2589402229E-04   -2.3161192942E-04   -2.3747455390E-04   -2.4348555762E-04
   -2.4964869508E-04   -2.5596781574E-04   -2.6244686642E-04   -2.6908989376E-04
   -2.7590104672E-04   -2.8288457920E-04   -2.9004485268E-04   -2.9738633890E-04
   -3.0491362271E-04   -3.1263140487E-04   -3.2054450502E-04   -3.2865786465E-04
   -3.3697655019E-04   -3.4550575618E-04   -3.5425080847E-04   -3.6321716757E-04
   -3.7241043204E-04   -3.8183634195E-04   -3.9150078248E-04   -4.0140978759E-04
   -4.1156954374E-04   -4.2198639379E-04   -4.3266684087E-04   -4.4361755251E-04
   -4.5484536473E-04   -4.6635728631E-04   -4.7816050317E-04   -4.9026238279E-04
   -5.0267047882E-04   -5.1539253578E-04   -5.2843649386E-04   -5.4181049386E-04
   -5.5552288224E-04   -5.6958221633E-04   -5.8399726961E-04   -5.9877703717E-04
   -6.1393074131E-04   -6.2946783727E-04   -6.4539801907E-04   -6.6173122553E-04
   -6.7847764648E-04   -6.9564772901E-04   -7.1325218402E-04   -7.3130199282E-04
   -7.4980841395E-04   -7.6878299017E-04   -7.8823755559E-04   -8.0818424302E-04
   -8.2863549148E-04   -8.4960405391E-04   -8.7110300507E-04   -8.9314574960E-04
   -9.1574603038E-04   -9.3891793696E-04   -9.6267591433E-04   -9.8703477183E-04
   -1.0120096923E-03   -1.0376162415E-03   -1.0638703778E-03   -1.0907884616E-03
   -1.1183872661E-03   -1.1466839873E-03   -1.1756962546E-03   -1.2054421415E-03
   -1.2359401774E-03   -1.2672093581E-03   -1.2992691584E-03   -1.3321395435E-03
   -1.3658409815E-03   -1.4003944560E-03   -1.4358214791E-03   -1.4721441043E-03
   -1.5093849406E-03   -1.5475671659E-03   -1.5867145415E-03   -1.6268514266E-03
   -1.6680027932E-03   -1.7101942417E-03   -1.7534520162E-03   -1.7978030210E-03
   -1.8432748367E-03   -1.8898957372E-03   -1.9376947072E-03   -1.9867014598E-03
   -2.0369464546E-03   -2.0884609163E-03   -2.1412768540E-03   -2.1954270804E-03
   -2.2509452321E-03   -2.3078657899E-03   -2.3662240999E-03   -2.4260563950E-03
   -2.4873998169E-03   -2.5502924389E-03   -2.6147732885E-03   -2.6808823716E-03
   -2.7486606968E-03   -2.8181502997E-03   -2.8893942689E-03   -2.9624367717E-03
   -3.0373230812E-03   -3.1140996033E-03   -3.1928139047E-03   -3.2735147418E-03
   -3.3562520900E-03   -3.4410771736E-03   -3.5280424970E-03   -3.6172018757E-03
   -3.7086104689E-03   -3.8023248126E-03   -3.8984028532E-03   -3.9969039825E-03
   -4.0978890729E-03   -4.2014205136E-03   -4.3075622483E-03   -4.4163798125E-03
   -4.5279403732E-03   -4.6423127683E-03   -4.7595675474E-03   -4.8797770139E-03
   -5.0030152674E-03   -5.1293582474E-03   -5.2588837785E-03   -5.3916716155E-03
   -5.5278034909E-03   -5.6673631623E-03   -5.8104364620E-03   -5.9571113465E-03
   -6.1074779484E-03   -6.2616286284E-03   -6.4196580292E-03   -6.5816631307E-03
   -6.7477433055E-03   -6.9180003766E-03   -7.0925386765E-03   -7.2714651064E-03
   -7.4548891982E-03   -7.6429231769E-03   -7.8356820249E-03   -8.0332835473E-03
   -8.2358484390E-03   -8.4435003530E-03   -8.6563659705E-03   -8.8745750721E-03
   -9.0982606109E-03   -9.3275587872E-03   -9.5626091240E-03   -9.8035545454E-03
   -1.0050541456E-02   -1.0303719821E-02   -1.0563243250E-02   -1.0829269081E-02
   -1.1101958467E-02   -1.1381476463E-02   -1.1667992117E-02   -1.1961678560E-02
   -1.2262713101E-02   -1.2571277320E-02   -1.2887557170E-02   -1.3211743068E-02
   -1.3544030003E-02   -1.3884617638E-02   -1.4233710409E-02   -1.4591517639E-02
   -1.4958253641E-02   -1.5334137835E-02   -1.5719394852E-02   -1.6114254659E-02
   -1.6518952666E-02   -1.6933729851E-02   -1.7358832879E-02   -1.7794514226E-02
   -1.8241032300E-02   -1.8698651572E-02   -1.9167642705E-02   -1.9648282680E-02
   -2.0140854935E-02   -2.0645649497E-02   -2.1162963119E-02   -2.1693099417E-02
   -2.2236369014E-02   -2.2793089682E-02   -2.3363586486E-02   -2.3948191926E-02
   -2.4547246093E-02   -2.5161096813E-02   -2.5790099799E-02   -2.6434618805E-02
   -2.7095025781E-02   -2.7771701026E-02   -2.8465033347E-02   -2.9175420218E-02
   -2.9903267937E-02   -3.0648991787E-02   -3.1413016200E-02   -3.2195774915E-02
   -3.2997711142E-02   -3.3819277725E-02   -3.4660937306E-02   -3.5523162485E-02
   -3.6406435988E-02   -3.7311250823E-02   -3.8238110447E-02   -3.9187528925E-02
   -4.0160031091E-02   -4.1156152703E-02   -4.2176440602E-02   -4.3221452870E-02
   -4.4291758972E-02   -4.5387939917E-02   -4.6510588393E-02   -4.7660308918E-02
   -4.8837717971E-02   -5.0043444130E-02   -5.1278128198E-02   -5.2542423325E-02
   -5.3836995124E-02   -5.5162521782E-02   -5.6519694159E-02   -5.7909215882E-02
   -5.9331803430E-02   -6.0788186203E-02   -6.2279106594E-02   -6.3805320032E-02
   -6.5367595026E-02   -6.6966713187E-02   -6.8603469244E-02   -7.0278671033E-02
   -7.1993139477E-02   -7.3747708547E-02   -7.5543225201E-02   -7.7380549301E-02
   -7.9260553516E-02   -8.1184123186E-02   -8.3152156174E-02   -8.5165562687E-02
   -8.7225265061E-02   -8.9332197524E-02   -9.1487305920E-02   -9.3691547401E-02
   -9.5945890079E-02   -9.8251312637E-02   -1.0060880390E-01   -1.0301936236E-01
   -1.0548399567E-01   -1.0800372002E-01   -1.1057955958E-01   -1.1321254576E-01
   -1.1590371647E-01   -1.1865411536E-01   -1.2146479088E-01   -1.2433679537E-01
   -1.2727118401E-01   -1.3026901375E-01   -1.3333134209E-01   -1.3645922580E-01
   -1.3965371958E-01   -1.4291587456E-01   -1.4624673673E-01   -1.4964734524E-01
   -1.5311873064E-01   -1.5666191291E-01   -1.6027789940E-01   -1.6396768270E-01
   -1.6773223824E-01   -1.7157252183E-01   -1.7548946705E-01   -1.7948398241E-01
   -1.8355694835E-01   -1.8770921416E-01   -1.9194159454E-01   -1.9625486609E-01
   -2.0064976357E-01   -2.0512697584E-01   -2.0968714175E-01   -2.1433084561E-01
   -2.1905861251E-01   -2.2387090337E-01   -2.2876810968E-01   -2.3375054799E-01
   -2.3881845405E-01   -2.4397197673E-01   -2.4921117149E-01   -2.5453599365E-01
   -2.5994629118E-01   -2.6544179725E-01   -2.7102212227E-01   -2.7668674566E-01
   -2.8243500712E-01   -2.8826609755E-01   -2.9417904947E-01   -3.0017272705E-01
   -3.0624581563E-01   -3.1239681076E-01   -3.1862400680E-01   -3.2492548497E-01
   -3.3129910086E-01   -3.3774247147E-01   -3.4425296165E-01   -3.5082767002E-01
   -3.5746341430E-01   -3.6415671608E-01   -3.7090378498E-01   -3.7770050228E-01
   -3.8454240391E-01   -3.9142466280E-01   -3.9834207078E-01   -4.0528901971E-01
   -4.1225948215E-01   -4.1924699140E-01   -4.2624462097E-01   -4.3324496352E-01
   -4.4024010926E-01   -4.4722162386E-01   -4.5418052587E-01   -4.6110726371E-01
   -4.6799169233E-01   -4.7482304942E-01   -4.8158993147E-01   -4.8828026955E-01
   -4.9488130498E-01   -5.0137956500E-01   -5.0776083845E-01   -5.1401015167E-01
   -5.2011174470E-01   -5.2604904792E-01   -5.3180465928E-01   -5.3736032237E-01
   -5.4269690534E-01   -5.4779438116E-01   -5.5263180911E-01   -5.5718731808E-01
   -5.6143809171E-01   -5.6536035577E-01   -5.6892936812E-01   -5.7211941156E-01
   -5.7490378990E-01   -5.7725482778E-01   -5.7914387453E-01   -5.8054131264E-01
   -5.8141657128E-01   -5.8173814536E-01   -5.8147362078E-01   -5.8058970636E-01
   -5.7905227316E-01   -5.7682640168E-01   -5.7387643781E-01   -5.7016605812E-01
   -5.6565834514E-01   -5.6031587360E-01   -5.5410080813E-01   -5.4697501346E-01
   -5.3890017760E-01   -5.2983794914E-01   -5.1975008912E-01   -5.0859863843E-01
   -4.9634610141E-01   -4.8295564636E-01   -4.6839132355E-01   -4.5261830142E-01
   -4.3560312131E-01   -4.1731397123E-01   -3.9772097883E-01   -3.7679652377E-01
   -3.5451556933E-01   -3.3085601302E-01   -3.0579905572E-01   -2.7932958853E-01
   -2.5143659622E-01   -2.2211357596E-01   -1.9135896940E-01   -1.5917660603E-01
   -1.2557615506E-01   -9.0573582603E-02   -5.4191610615E-02   -1.6460173112E-02
    2.2583135118E-02    6.2892622922E-02    1.0441408654E-01    1.4708441963E-01
    1.9083125728E-01    2.3557266229E-01    2.8121686291E-01    3.2766205164E-01
    3.7479625564E-01    4.2249728956E-01    4.7063280219E-01    5.1906042862E-01
    5.6762805979E-01    6.1617424097E-01    6.6452871079E-01    7.1251309129E-01
    7.5994173861E-01    8.0662276238E-01    8.5235921964E-01    8.9695048646E-01
    9.4019380674E-01    9.8188601363E-01    1.0218254134E+00    1.0598138149E+00
    1.0956586817E+00    1.1291753711E+00    1.1601894200E+00    1.1885388177E+00
    1.2140761989E+00    1.2366708682E+00    1.2562105545E+00    1.2726027673E+00
    1.2857756108E+00    1.2956778792E+00    1.3022782343E+00    1.3055632315E+00
    1.3055339285E+00    1.3022007725E+00    1.2955764234E+00    1.2856686593E+00
    1.2724928293E+00    1.2560879849E+00    1.2365188866E+00    1.2138762806E+00
    1.1882765320E+00    1.1598605693E+00    1.1287921386E+00    1.0952554150E+00
    1.0594520745E+00    1.0215979786E+00    9.8191965819E-01    9.4065080471E-01
    8.9802896737E-01    8.5429263271E-01    8.0967881425E-01    7.6442122301E-01
    7.1874902704E-01    6.7288615087E-01    6.2705102058E-01    5.8145663157E-01
    5.3631080689E-01    4.9181652019E-01    4.4817217826E-01    4.0557178573E-01
    3.6420494478E-01    3.2425667155E-01    2.8590703305E-01    2.4933062442E-01
    2.1469591383E-01    1.8216448325E-01    1.5189018844E-01    1.2401825312E-01
    9.8684301343E-02    7.6013321194E-02    5.6118542082E-02    3.9100240317E-02
    2.5045115219E-02    1.4097069898E-02    6.3081147800E-03    1.6288465570E-03
    9.6824890294E-06   -2.9653431779E-08    0.0000000000E+00    0.0000000000E+00
    0.0000000000E+00    0.0000000000E+00    0.0000000000E+00    0.0000000000E+00
 0. 0. 0. 0.
 0. 0. 0. 0.
 0. 0. 0. 0.
 0. 0. 0. 0.
 0. 0. 0. 0.
 0. 0. 0. 0.
 0. 0. 0. 0.
 0. 0. 0. 0.
 0. 0. 0. 0.
 0. 0. 0. 0.
 0. 0. 0. 0.
 0. 0. 0. 0.
 0. 0. 0. 0.
 0. 0. 0. 0.
 0. 0. 0. 0.
 0. 0. 0. 0.
 0. 0. 0. 0.
 0. 0. 0. 0.
 0. 0. 0. 0.
 0. 0. 0. 0.
 0. 0. 0. 0.
 0. 0. 0. 0.
 0. 0. 0. 0.
 0. 0. 0. 0.
 0. 0. 0. 0.
 0. 0. 0. 0.
 0. 0. 0. 0.
 0. 0. 0. 0.
 0. 0. 0. 0.
 0. 0. 0. 0.
 0. 0. 0. 0.
 0. 0. 0. 0.
 0. 0. 0. 0.
 0. 0. 0. 0.
 0. 0. 0. 0.
 0. 0. 0. 0.
 0. 0. 0. 0.
 0. 0.
   </PP_BETA.4>
   <PP_BETA.5
       type="real"
       size="1106"
       columns="4"
       index="5"
       angular_momentum="2"
       cutoff_radius_index=" 956"
       cutoff_radius="    2.3889683921E+00" >
    0.0000000000E+00    2.1284126442E-14    2.2097451272E-14    2.2941853933E-14
    2.3818477818E-14    2.4728648604E-14    2.5673587954E-14    2.6654612794E-14
    2.7673126152E-14    2.8730582218E-14    2.9828442711E-14    3.0968270614E-14
    3.2151619788E-14    3.3380188345E-14    3.4655704165E-14    3.5979954736E-14
    3.7354852748E-14    3.8782219396E-14    4.0264219692E-14    4.1802716971E-14
    4.3400123790E-14    4.5058558035E-14    4.6780294317E-14    4.8567823559E-14
    5.0423749051E-14    5.2350511925E-14    5.4350986258E-14    5.6427846369E-14
    5.8584037913E-14    6.0822667330E-14    6.3146778341E-14    6.5559761506E-14
    6.8064912968E-14    7.0665820280E-14    7.3366135721E-14    7.6169544343E-14
    7.9080201999E-14    8.2102003868E-14    8.5239241654E-14    8.8496465409E-14
    9.1878038898E-14    9.5388858189E-14    9.9033877162E-14    1.0281819010E-13
    1.0674705700E-13    1.1082605791E-13    1.1506095875E-13    1.1945772415E-13
    1.2402237880E-13    1.2876149944E-13    1.3368182151E-13    1.3878993924E-13
    1.4409350524E-13    1.4959958947E-13    1.5531606359E-13    1.6125101833E-13
    1.6741270333E-13    1.7380987349E-13    1.8045144284E-13    1.8734686581E-13
    1.9450586496E-13    2.0193827600E-13    2.0965472769E-13    2.1766609987E-13
    2.2598354162E-13    2.3461880536E-13    2.4358406016E-13    2.5289186583E-13
    2.6255538153E-13    2.7258813882E-13    2.8300431499E-13    2.9381852067E-13
    3.0504578661E-13    3.1670227716E-13    3.2880408620E-13    3.4136834248E-13
    3.5441276738E-13    3.6795557245E-13    3.8201577346E-13    3.9661345456E-13
    4.1176886320E-13    4.2750335721E-13    4.4383910729E-13    4.6079900763E-13
    4.7840710374E-13    4.9668803767E-13    5.1566750262E-13    5.3537229100E-13
    5.5582980858E-13    5.7706918074E-13    5.9912010027E-13    6.2201374611E-13
    6.4578207230E-13    6.7045883732E-13    6.9607823645E-13    7.2267678506E-13
    7.5029177293E-13    7.7896191225E-13    8.0872749389E-13    8.3963065971E-13
    8.7171457117E-13    9.0502457982E-13    9.3960745893E-13    9.7551167427E-13
    1.0127879713E-12    1.0514885824E-12    1.0916680440E-12    1.1333829842E-12
    1.1766917640E-12    1.2216553674E-12    1.2683373323E-12    1.3168029368E-12
    1.3671207180E-12    1.4193609888E-12    1.4735976319E-12    1.5299068725E-12
    1.5883674840E-12    1.6490624046E-12    1.7120762926E-12    1.7774981362E-12
    1.8454199271E-12    1.9159371504E-12    1.9891489564E-12    2.0651582320E-12
    2.1440721828E-12    2.2260013761E-12    2.3110612400E-12    2.3993715552E-12
    2.4910562862E-12    2.5862446401E-12    2.6850700956E-12    2.7876720361E-12
    2.8941945788E-12    3.0047875269E-12    3.1196063241E-12    3.2388127597E-12
    3.3625742691E-12    3.4910651131E-12    3.6244656018E-12    3.7629637430E-12
    3.9067540202E-12    4.0560388227E-12    4.2110281163E-12    4.3719398709E-12
    4.5390005170E-12    4.7124446350E-12    4.8925168146E-12    5.0794695969E-12
    5.2735663442E-12    5.4750799073E-12    5.6842935022E-12    5.9015018071E-12
    6.1270099087E-12    6.3611350768E-12    6.6042067623E-12    6.8565667828E-12
    7.1185698686E-12    7.3905845707E-12    7.6729936019E-12    7.9661941810E-12
    8.2705983198E-12    8.5866342874E-12    8.9147468909E-12    9.2553971348E-12
    9.6090644006E-12    9.9762459200E-12    1.0357458092E-11    1.0753237250E-11
    1.1164139947E-11    1.1590744288E-11    1.2033649369E-11    1.2493479295E-11
    1.2970879984E-11    1.3466523283E-11    1.3981106047E-11    1.4515351975E-11
    1.5070012761E-11    1.5645867866E-11    1.6243727776E-11    1.6864433087E-11
    1.7508856735E-11    1.8177904843E-11    1.8872518723E-11    1.9593675684E-11
    2.0342389298E-11    2.1119712600E-11    2.1926738973E-11    2.2764603088E-11
    2.3634483986E-11    2.4537605024E-11    2.5475235937E-11    2.6448695656E-11
    2.7459353222E-11    2.8508629854E-11    2.9598001748E-11    3.0729000321E-11
    3.1903216883E-11    3.3122302290E-11    3.4387971531E-11    3.5702004679E-11
    3.7066250156E-11    3.8482625352E-11    3.9953123241E-11    4.1479811709E-11
    4.3064837902E-11    4.4710431382E-11    4.6418906899E-11    4.8192665504E-11
    5.0034203376E-11    5.1946110519E-11    5.3931075484E-11    5.5991889167E-11
    5.8131451324E-11    6.0352770304E-11    6.2658969724E-11    6.5053294187E-11
    6.7539109996E-11    7.0119914821E-11    7.2799336624E-11    7.5581144620E-11
    7.8469251335E-11    8.1467718026E-11    8.4580762261E-11    8.7812761635E-11
    9.1168262646E-11    9.4651984128E-11    9.8268825439E-11    1.0202387429E-10
    1.0592240962E-10    1.0996991626E-10    1.1417208648E-10    1.1853483008E-10
    1.2306428256E-10    1.2776681411E-10    1.3264903962E-10    1.3771782481E-10
    1.4298029792E-10    1.4844386016E-10    1.5411619613E-10    1.6000528389E-10
    1.6611940596E-10    1.7246715920E-10    1.7905747442E-10    1.8589961811E-10
    1.9300321327E-10    2.0037825141E-10    2.0803510483E-10    2.1598454181E-10
    2.2423774193E-10    2.3280631340E-10    2.4170230835E-10    2.5093823612E-10
    2.6052708718E-10    2.7048234670E-10    2.8081801735E-10    2.9154863484E-10
    3.0268929107E-10    3.1425565204E-10    3.2626398831E-10    3.3873118677E-10
    3.5167478155E-10    3.6511297715E-10    3.7906467365E-10    3.9354949116E-10
    4.0858780257E-10    4.2420075870E-10    4.4041031634E-10    4.5723927424E-10
    4.7471129966E-10    4.9285096651E-10    5.1168378560E-10    5.3123624526E-10
    5.5153584261E-10    5.7261112811E-10    5.9449174283E-10    6.1720845885E-10
    6.4079322681E-10    6.6527921547E-10    6.9070086233E-10    7.1709392110E-10
    7.4449551079E-10    7.7294417157E-10    8.0247991008E-10    8.3314426943E-10
    8.6498037632E-10    8.9803300289E-10    9.3234863516E-10    9.6797553905E-10
    1.0049638170E-09    1.0433654909E-09    1.0832345685E-09    1.1246271231E-09
    1.1676013708E-09    1.2122177521E-09    1.2585390099E-09    1.3066302979E-09
    1.3565592492E-09    1.4083960858E-09    1.4622137121E-09    1.5180878160E-09
    1.5760969822E-09    1.6363227936E-09    1.6988499540E-09    1.7637663997E-09
    1.8311634341E-09    1.9011358451E-09    1.9737820401E-09    2.0492041901E-09
    2.1275083723E-09    2.2088047124E-09    2.2932075475E-09    2.3808355847E-09
    2.4718120650E-09    2.5662649359E-09    2.6643270392E-09    2.7661362922E-09
    2.8718358810E-09    2.9815744583E-09    3.0955063683E-09    3.2137918432E-09
    3.3365972410E-09    3.4640952799E-09    3.5964652720E-09    3.7338933850E-09
    3.8765729018E-09    4.0247044833E-09    4.1784964706E-09    4.3381651583E-09
    4.5039351016E-09    4.6760394471E-09    4.8547202409E-09    5.0402287840E-09
    5.2328259808E-09    5.4327826970E-09    5.6403801603E-09    5.8559103353E-09
    6.0796763466E-09    6.3119929040E-09    6.5531867396E-09    6.8035970731E-09
    7.0635760847E-09    7.3334894096E-09    7.6137166631E-09    7.9046519551E-09
    8.2067044673E-09    8.5202990027E-09    8.8458766172E-09    9.1838951979E-09
    9.5348301354E-09    9.8991750020E-09    1.0277442210E-08    1.0670163759E-08
    1.1077891984E-08    1.1501200311E-08    1.1940684096E-08    1.2396961427E-08
    1.2870674026E-08    1.3362488121E-08    1.3873095418E-08    1.4403214029E-08
    1.4953589530E-08    1.5524995970E-08    1.6118236988E-08    1.6734146925E-08
    1.7373592005E-08    1.8037471556E-08    1.8726719260E-08    1.9442304487E-08
    2.0185233649E-08    2.0956551614E-08    2.1757343164E-08    2.2588734553E-08
    2.3451895058E-08    2.4348038640E-08    2.5278425646E-08    2.6244364586E-08
    2.7247213972E-08    2.8288384223E-08    2.9369339653E-08    3.0491600536E-08
    3.1656745232E-08    3.2866412421E-08    3.4122303389E-08    3.5426184439E-08
    3.6779889371E-08    3.8185322048E-08    3.9644459094E-08    4.1159352655E-08
    4.2732133305E-08    4.4365013011E-08    4.6060288282E-08    4.7820343378E-08
    4.9647653664E-08    5.1544789088E-08    5.3514417813E-08    5.5559309940E-08
    5.7682341440E-08    5.9886498167E-08    6.2174880080E-08    6.4550705589E-08
    6.7017316070E-08    6.9578180616E-08    7.2236900842E-08    7.4997216022E-08
    7.7863008280E-08    8.0838308110E-08    8.3927300028E-08    8.7134328390E-08
    9.0463903640E-08    9.3920708500E-08    9.7509604687E-08    1.0123563965E-07
    1.0510405374E-07    1.0912028754E-07    1.1328998953E-07    1.1761902401E-07
    1.2211347941E-07    1.2677967676E-07    1.3162417867E-07    1.3665379850E-07
    1.4187560995E-07    1.4729695706E-07    1.5292546444E-07    1.5876904811E-07
    1.6483592655E-07    1.7113463226E-07    1.7767402383E-07    1.8446329832E-07
    1.9151200424E-07    1.9883005495E-07    2.0642774266E-07    2.1431575281E-07
    2.2250517918E-07    2.3100753947E-07    2.3983479147E-07    2.4899934993E-07
    2.5851410395E-07    2.6839243518E-07    2.7864823660E-07    2.8929593207E-07
    3.0035049658E-07    3.1182747739E-07    3.2374301580E-07    3.3611386995E-07
    3.4895743830E-07    3.6229178416E-07    3.7613566104E-07    3.9050853910E-07
    4.0543063246E-07    4.2092292765E-07    4.3700721315E-07    4.5370611003E-07
    4.7104310371E-07    4.8904257709E-07    5.0772984470E-07    5.2713118845E-07
    5.4727389454E-07    5.6818629174E-07    5.8989779139E-07    6.1243892866E-07
    6.3584140550E-07    6.6013813530E-07    6.8536328907E-07    7.1155234358E-07
    7.3874213124E-07    7.6697089186E-07    7.9627832647E-07    8.2670565316E-07
    8.5829566498E-07    8.9109279023E-07    9.2514315485E-07    9.6049464738E-07
    9.9719698620E-07    1.0353017895E-06    1.0748626480E-06    1.1159352000E-06
    1.1585772101E-06    1.2028486499E-06    1.2488117827E-06    1.2965312512E-06
    1.3460741679E-06    1.3975102099E-06    1.4509117167E-06    1.5063537921E-06
    1.5639144096E-06    1.6236745224E-06    1.6857181769E-06    1.7501326308E-06
    1.8170084766E-06    1.8864397679E-06    1.9585241527E-06    2.0333630098E-06
    2.1110615922E-06    2.1917291745E-06    2.2754792072E-06    2.3624294754E-06
    2.4527022653E-06    2.5464245356E-06    2.6437280964E-06    2.7447497943E-06
    2.8496317052E-06    2.9585213336E-06    3.0715718205E-06    3.1889421586E-06
    3.3107974159E-06    3.4373089677E-06    3.5686547379E-06    3.7050194490E-06
    3.8465948820E-06    3.9935801460E-06    4.1461819582E-06    4.3046149348E-06
    4.4691018926E-06    4.6398741626E-06    4.8171719150E-06    5.0012444971E-06
    5.1923507841E-06    5.3907595430E-06    5.5967498106E-06    5.8106112860E-06
    6.0326447376E-06    6.2631624268E-06    6.5024885465E-06    6.7509596773E-06
    7.0089252606E-06    7.2767480903E-06    7.5548048227E-06    7.8434865067E-06
    8.1431991330E-06    8.4543642054E-06    8.7774193337E-06    9.1128188488E-06
    9.4610344418E-06    9.8225558271E-06    1.0197891431E-05    1.0587569108E-05
    1.0992136881E-05    1.1412163712E-05    1.1848240305E-05    1.2300979934E-05
    1.2771019305E-05    1.3259019455E-05    1.3765666676E-05    1.4291673485E-05
    1.4837779625E-05    1.5404753101E-05    1.5993391267E-05    1.6604521941E-05
    1.7239004571E-05    1.7897731447E-05    1.8581628950E-05    1.9291658858E-05
    2.0028819698E-05    2.0794148150E-05    2.1588720505E-05    2.2413654176E-05
    2.3270109273E-05    2.4159290232E-05    2.5082447508E-05    2.6040879335E-05
    2.7035933551E-05    2.8069009493E-05    2.9141559961E-05    3.0255093269E-05
    3.1411175357E-05    3.2611431999E-05    3.3857551085E-05    3.5151284995E-05
    3.6494453066E-05    3.7888944145E-05    3.9336719249E-05    4.0839814319E-05
    4.2400343084E-05    4.4020500032E-05    4.5702563498E-05    4.7448898863E-05
    4.9261961881E-05    5.1144302134E-05    5.3098566613E-05    5.5127503442E-05
    5.7233965738E-05    5.9420915626E-05    6.1691428401E-05    6.4048696852E-05
    6.6496035749E-05    6.9036886505E-05    7.1674822012E-05    7.4413551663E-05
    7.7256926571E-05    8.0208944974E-05    8.3273757865E-05    8.6455674820E-05
    8.9759170056E-05    9.3188888724E-05    9.6749653436E-05    1.0044647104E-04
    1.0428453967E-04    1.0826925603E-04    1.1240622300E-04    1.1670125750E-04
    1.2116039868E-04    1.2578991636E-04    1.3059631992E-04    1.3558636738E-04
    1.4076707493E-04    1.4614572677E-04    1.5172988538E-04    1.5752740211E-04
    1.6354642822E-04    1.6979542637E-04    1.7628318245E-04    1.8301881798E-04
    1.9001180289E-04    1.9727196885E-04    2.0480952307E-04    2.1263506263E-04
    2.2075958940E-04    2.2919452546E-04    2.3795172917E-04    2.4704351182E-04
    2.5648265492E-04    2.6628242815E-04    2.7645660803E-04    2.8701949721E-04
    2.9798594461E-04    3.0937136626E-04    3.2119176694E-04    3.3346376266E-04
    3.4620460400E-04    3.5943220033E-04    3.7316514493E-04    3.8742274114E-04
    4.0222502943E-04    4.1759281555E-04    4.3354769974E-04    4.5011210700E-04
    4.6730931866E-04    4.8516350496E-04    5.0369975904E-04    5.2294413213E-04
    5.4292367009E-04    5.6366645138E-04    5.8520162646E-04    6.0755945868E-04
    6.3077136671E-04    6.5486996865E-04    6.7988912777E-04    7.0586399997E-04
    7.3283108314E-04    7.6082826826E-04    7.8989489261E-04    8.2007179484E-04
    8.5140137230E-04    8.8392764036E-04    9.1769629421E-04    9.5275477278E-04
    9.8915232531E-04    1.0269400803E-03    1.0661711170E-03    1.1069005401E-03
    1.1491855566E-03    1.1930855557E-03    1.2386621927E-03    1.2859794744E-03
    1.3351038494E-03    1.3861043005E-03    1.4390524417E-03    1.4940226180E-03
    1.5510920097E-03    1.6103407398E-03    1.6718519865E-03    1.7357120994E-03
    1.8020107197E-03    1.8708409060E-03    1.9422992639E-03    2.0164860808E-03
    2.0935054663E-03    2.1734654970E-03    2.2564783678E-03    2.3426605476E-03
    2.4321329425E-03    2.5250210638E-03    2.6214552030E-03    2.7215706132E-03
    2.8255076974E-03    2.9334122041E-03    3.0454354298E-03    3.1617344292E-03
    3.2824722342E-03    3.4078180795E-03    3.5379476382E-03    3.6730432654E-03
    3.8132942512E-03    3.9588970829E-03    4.1100557178E-03    4.2669818649E-03
    4.4298952785E-03    4.5990240618E-03    4.7746049823E-03    4.9568837987E-03
    5.1461156000E-03    5.3425651575E-03    5.5465072896E-03    5.7582272399E-03
    5.9780210698E-03    6.2061960654E-03    6.4430711590E-03    6.6889773673E-03
    6.9442582441E-03    7.2092703512E-03    7.4843837454E-03    7.7699824840E-03
    8.0664651486E-03    8.3742453878E-03    8.6937524798E-03    9.0254319159E-03
    9.3697460040E-03    9.7271744947E-03    1.0098215230E-02    1.0483384816E-02
    1.0883219317E-02    1.1298274976E-02    1.1729128966E-02    1.2176380154E-02
    1.2640649911E-02    1.3122582933E-02    1.3622848102E-02    1.4142139373E-02
    1.4681176692E-02    1.5240706945E-02    1.5821504944E-02    1.6424374439E-02
    1.7050149173E-02    1.7699693968E-02    1.8373905846E-02    1.9073715193E-02
    1.9800086957E-02    2.0554021889E-02    2.1336557821E-02    2.2148770986E-02
    2.2991777386E-02    2.3866734197E-02    2.4774841221E-02    2.5717342382E-02
    2.6695527273E-02    2.7710732745E-02    2.8764344545E-02    2.9857799004E-02
    3.0992584774E-02    3.2170244616E-02    3.3392377237E-02    3.4660639178E-02
    3.5976746758E-02    3.7342478063E-02    3.8759674991E-02    4.0230245352E-02
    4.1756165011E-02    4.3339480092E-02    4.4982309230E-02    4.6686845869E-02
    4.8455360615E-02    5.0290203635E-02    5.2193807101E-02    5.4168687685E-02
    5.6217449088E-02    5.8342784612E-02    6.0547479776E-02    6.2834414953E-02
    6.5206568050E-02    6.7667017198E-02    7.0218943481E-02    7.2865633656E-02
    7.5610482902E-02    7.8456997559E-02    8.1408797856E-02    8.4469620630E-02
    8.7643322016E-02    9.0933880095E-02    9.4345397497E-02    9.7882103939E-02
    1.0154835868E-01    1.0534865289E-01    1.0928761191E-01    1.1336999735E-01
    1.1760070907E-01    1.2198478699E-01    1.2652741266E-01    1.3123391060E-01
    1.3610974947E-01    1.4116054281E-01    1.4639204959E-01    1.5181017430E-01
    1.5742096669E-01    1.6323062103E-01    1.6924547493E-01    1.7547200753E-01
    1.8191683718E-01    1.8858671842E-01    1.9548853821E-01    2.0262931143E-01
    2.1001617553E-01    2.1765638416E-01    2.2555729986E-01    2.3372638565E-01
    2.4217119540E-01    2.5089936287E-01    2.5991858948E-01    2.6923663042E-01
    2.7886127927E-01    2.8880035084E-01    2.9906166209E-01    3.0965301113E-01
    3.2058215406E-01    3.3185677947E-01    3.4348448058E-01    3.5547272474E-01
    3.6782882015E-01    3.8055987972E-01    3.9367278175E-01    4.0717412737E-01
    4.2107019450E-01    4.3536688818E-01    4.5006968700E-01    4.6518358558E-01
    4.8071303278E-01    4.9666186553E-01    5.1303323804E-01    5.2982954630E-01
    5.4705234758E-01    5.6470227488E-01    5.8277894613E-01    6.0128086798E-01
    6.2020533417E-01    6.3954831827E-01    6.5930436080E-01    6.7946645073E-01
    7.0002590127E-01    7.2097222015E-01    7.4229297434E-01    7.6397364947E-01
    7.8599750422E-01    8.0834541981E-01    8.3099574516E-01    8.5392413805E-01
    8.7710340296E-01    9.0050332619E-01    9.2409050906E-01    9.4782820020E-01
    9.7167612789E-01    9.9559033380E-01    1.0195230094E+00    1.0434223369E+00
    1.0672323356E+00    1.0908927173E+00    1.1143387513E+00    1.1375011417E+00
    1.1603059210E+00    1.1826743610E+00    1.2045229053E+00    1.2257631264E+00
    1.2463017116E+00    1.2660404806E+00    1.2848764398E+00    1.3027018776E+00
    1.3194045047E+00    1.3348676456E+00    1.3489704844E+00    1.3615883721E+00
    1.3725931994E+00    1.3818538405E+00    1.3892366739E+00    1.3946061846E+00
    1.3978256534E+00    1.3987579383E+00    1.3972663508E+00    1.3932156336E+00
    1.3864730408E+00    1.3769095235E+00    1.3644010231E+00    1.3488298705E+00
    1.3300862920E+00    1.3080700174E+00    1.2826919853E+00    1.2538761395E+00
    1.2215613058E+00    1.1857031366E+00    1.1462761088E+00    1.1032755549E+00
    1.0567197056E+00    1.0066517171E+00    9.5314165256E-01    8.9628838323E-01
    8.3622137019E-01    7.7310228255E-01    7.0712640471E-01    6.3852378012E-01
    5.6756003545E-01    4.9453682527E-01    4.1979183451E-01    3.4369827354E-01
    2.6666379974E-01    1.8912879876E-01    1.1156396063E-01    3.4467088171E-02
   -4.1640919750E-02   -1.1622096104E-01   -1.8872154103E-01   -2.5858537640E-01
   -3.2525536035E-01   -3.8818019630E-01   -4.4682111918E-01   -5.0065926768E-01
   -5.4920360294E-01   -5.9199929589E-01   -6.2863647462E-01   -6.5875918955E-01
   -6.8207442015E-01   -6.9836091382E-01   -7.0747761808E-01   -7.0937144234E-01
   -7.0408406737E-01   -6.9175750955E-01   -6.7263814346E-01   -6.4707889107E-01
   -6.1553929783E-01   -5.7858323709E-01   -5.3687401379E-01   -4.9116667939E-01
   -4.4229742239E-01   -3.9116996651E-01   -3.3873899153E-01   -2.8599069242E-01
   -2.3392070968E-01   -1.8350979732E-01   -1.3569774128E-01   -9.1356195712E-02
   -5.1261261058E-02   -1.6066778420E-02    1.3720551287E-02    3.7763007690E-02
    5.5909367775E-02    6.8206800877E-02    7.4905893391E-02    7.6457681218E-02
    7.3501780822E-02    6.6845015504E-02    5.7430334291E-02    4.6296312905E-02
    3.4528099643E-02    2.3201573586E-02    1.3325355232E-02    5.7686052697E-03
    1.2003760403E-03   -2.0070800033E-05   -1.0733126614E-06    0.0000000000E+00
 0. 0. 0. 0.
 0. 0. 0. 0.
 0. 0. 0. 0.
 0. 0. 0. 0.
 0. 0. 0. 0.
 0. 0. 0. 0.
 0. 0. 0. 0.
 0. 0. 0. 0.
 0. 0. 0. 0.
 0. 0. 0. 0.
 0. 0. 0. 0.
 0. 0. 0. 0.
 0. 0. 0. 0.
 0. 0. 0. 0.
 0. 0. 0. 0.
 0. 0. 0. 0.
 0. 0. 0. 0.
 0. 0. 0. 0.
 0. 0. 0. 0.
 0. 0. 0. 0.
 0. 0. 0. 0.
 0. 0. 0. 0.
 0. 0. 0. 0.
 0. 0. 0. 0.
 0. 0. 0. 0.
 0. 0. 0. 0.
 0. 0. 0. 0.
 0. 0. 0. 0.
 0. 0. 0. 0.
 0. 0. 0. 0.
 0. 0. 0. 0.
 0. 0. 0. 0.
 0. 0. 0. 0.
 0. 0. 0. 0.
 0. 0. 0. 0.
 0. 0. 0. 0.
 0. 0. 0. 0.
 0. 0.
   </PP_BETA.5>
   <PP_BETA.6
       type="real"
       size="1106"
       columns="4"
       index="6"
       angular_momentum="2"
       cutoff_radius_index=" 956"
       cutoff_radius="    2.3889683921E+00" >
    0.0000000000E+00   -1.8078235297E-14   -1.8769048605E-14   -1.9486268994E-14
   -2.0230834122E-14   -2.1003893734E-14   -2.1806554653E-14   -2.2639800983E-14
   -2.3504886131E-14   -2.4403101372E-14   -2.5335590931E-14   -2.6303726134E-14
   -2.7308833837E-14   -2.8352406587E-14   -2.9435746010E-14   -3.0560550025E-14
   -3.1728340811E-14   -3.2940704568E-14   -3.4199530023E-14   -3.5506220870E-14
   -3.6863060026E-14   -3.8271679201E-14   -3.9734139269E-14   -4.1252339850E-14
   -4.2828737409E-14   -4.4465271778E-14   -4.6164457108E-14   -4.7928494312E-14
   -4.9759837946E-14   -5.1661352253E-14   -5.3635422261E-14   -5.5684915925E-14
   -5.7812789557E-14   -6.0021848340E-14   -6.2315463115E-14   -6.4696576576E-14
   -6.7168909028E-14   -6.9735490696E-14   -7.2400209333E-14   -7.5166828885E-14
   -7.8039044446E-14   -8.1021061662E-14   -8.4117006586E-14   -8.7331327727E-14
   -9.0668416565E-14   -9.4133015642E-14   -9.7730056769E-14   -1.0146465131E-13
   -1.0534172527E-13   -1.0936700190E-13   -1.1354622648E-13   -1.1788484118E-13
   -1.2238967116E-13   -1.2706631425E-13   -1.3192182872E-13   -1.3696286126E-13
   -1.4219635871E-13   -1.4763005832E-13   -1.5327120547E-13   -1.5912804079E-13
   -1.6520860304E-13   -1.7152163029E-13   -1.7807579804E-13   -1.8488047788E-13
   -1.9194502292E-13   -1.9927975905E-13   -2.0689450623E-13   -2.1480042375E-13
   -2.2300839104E-13   -2.3152999527E-13   -2.4037715619E-13   -2.4956259310E-13
   -2.5909878730E-13   -2.6899942650E-13   -2.7927846582E-13   -2.8995027773E-13
   -3.0102983976E-13   -3.1253282199E-13   -3.2447513121E-13   -3.3687414453E-13
   -3.4974675087E-13   -3.6311127836E-13   -3.7698651954E-13   -3.9139180804E-13
   -4.0634771440E-13   -4.2187501454E-13   -4.3799583536E-13   -4.5473268573E-13
   -4.7210873702E-13   -4.9014890987E-13   -5.0887848416E-13   -5.2832380363E-13
   -5.4851208310E-13   -5.6947204861E-13   -5.9123235703E-13   -6.1382456529E-13
   -6.3728018259E-13   -6.6163189003E-13   -6.8691390020E-13   -7.1316246124E-13
   -7.4041387220E-13   -7.6870640343E-13   -7.9808042714E-13   -8.2857665883E-13
   -8.6023816622E-13   -8.9310954430E-13   -9.2723704021E-13   -9.6266878941E-13
   -9.9945434105E-13   -1.0376452208E-12   -1.0772956429E-12   -1.1184612454E-12
   -1.1612001354E-12   -1.2055716612E-12   -1.2516390213E-12   -1.2994668212E-12
   -1.3491219548E-12   -1.4006745677E-12   -1.4541972151E-12   -1.5097650825E-12
   -1.5674561238E-12   -1.6273517949E-12   -1.6895363549E-12   -1.7540965945E-12
   -1.8211244414E-12   -1.8907131138E-12   -1.9629609944E-12   -2.0379694641E-12
   -2.1158444894E-12   -2.1966951941E-12   -2.2806353026E-12   -2.3677828237E-12
   -2.4582607046E-12   -2.5521954988E-12   -2.6497198687E-12   -2.7509712744E-12
   -2.8560913557E-12   -2.9652280222E-12   -3.0785356587E-12   -3.1961725653E-12
   -3.3183045593E-12   -3.4451037385E-12   -3.5767476464E-12   -3.7134225440E-12
   -3.8553196747E-12   -4.0026392892E-12   -4.1555884887E-12   -4.3143812998E-12
   -4.4792426805E-12   -4.6504039209E-12   -4.8281046552E-12   -5.0125961829E-12
   -5.2041376318E-12   -5.4029977173E-12   -5.6094573804E-12   -5.8238057958E-12
   -6.0463451028E-12   -6.2773880613E-12   -6.5172596723E-12   -6.7662974800E-12
   -7.0248508255E-12   -7.2932843621E-12   -7.5719756719E-12   -7.8613157699E-12
   -8.1617122166E-12   -8.4735878510E-12   -8.7973801461E-12   -9.1335456069E-12
   -9.4825570090E-12   -9.8449045576E-12   -1.0221097627E-11   -1.0611666047E-11
   -1.1017159112E-11   -1.1438146785E-11   -1.1875221169E-11   -1.2328996914E-11
   -1.2800112701E-11   -1.3289230659E-11   -1.3797038774E-11   -1.4324251185E-11
   -1.4871609128E-11   -1.5439882798E-11   -1.6029871247E-11   -1.6642405080E-11
   -1.7278344367E-11   -1.7938584660E-11   -1.8624053995E-11   -1.9335715610E-11
   -2.0074571689E-11   -2.0841661402E-11   -2.1638063402E-11   -2.2464896363E-11
   -2.3323325535E-11   -2.4214555870E-11   -2.5139842131E-11   -2.6100486022E-11
   -2.7097837752E-11   -2.8133299772E-11   -2.9208329026E-11   -3.0324437763E-11
   -3.1483195610E-11   -3.2686230856E-11   -3.3935237649E-11   -3.5231970029E-11
   -3.6578253904E-11   -3.7975981536E-11   -3.9427120573E-11   -4.0933708583E-11
   -4.2497867784E-11   -4.4121795986E-11   -4.5807778199E-11   -4.7558183897E-11
   -4.9375477762E-11   -5.1262213089E-11   -5.3221043852E-11   -5.5254725830E-11
   -5.7366118997E-11   -5.9558193442E-11   -6.1834029971E-11   -6.4196832012E-11
   -6.6649921232E-11   -6.9196747018E-11   -7.1840892728E-11   -7.4586075536E-11
   -7.7436158593E-11   -8.0395148397E-11   -8.3467206600E-11   -8.6656655929E-11
   -8.9967979461E-11   -9.3405834885E-11   -9.6975057432E-11   -1.0068066753E-10
   -1.0452787597E-10   -1.0852209466E-10   -1.1266894048E-10   -1.1697424521E-10
   -1.2144406393E-10   -1.2608468333E-10   -1.3090262916E-10   -1.3590467905E-10
   -1.4109786893E-10   -1.4648949846E-10   -1.5208715310E-10   -1.5789870672E-10
   -1.6393232921E-10   -1.7019651021E-10   -1.7670005677E-10   -1.8345211821E-10
   -1.9046218777E-10   -1.9774012724E-10   -2.0529617056E-10   -2.1314094470E-10
   -2.2128548423E-10   -2.2974124154E-10   -2.3852011120E-10   -2.4763443898E-10
   -2.5709704312E-10   -2.6692122973E-10   -2.7712082145E-10   -2.8771015760E-10
   -2.9870413386E-10   -3.1011821225E-10   -3.2196844501E-10   -3.3427149781E-10
   -3.4704467561E-10   -3.6030593976E-10   -3.7407394523E-10   -3.8836805318E-10
   -4.0320836598E-10   -4.1861575794E-10   -4.3461189375E-10   -4.5121927731E-10
   -4.6846125895E-10   -4.8636209152E-10   -5.0494694983E-10   -5.2424197192E-10
   -5.4427429581E-10   -5.6507209418E-10   -5.8666461853E-10   -6.0908223220E-10
   -6.3235646892E-10   -6.5652006126E-10   -6.8160698840E-10   -7.0765253882E-10
   -7.3469334052E-10   -7.6276742465E-10   -7.9191427176E-10   -8.2217488085E-10
   -8.5359180606E-10   -8.8620923296E-10   -9.2007303508E-10   -9.5523083950E-10
   -9.9173209241E-10   -1.0296281328E-09   -1.0689722465E-09   -1.1098197820E-09
   -1.1522281795E-09   -1.1962570860E-09   -1.2419684232E-09   -1.2894264759E-09
   -1.3386979966E-09   -1.3898522770E-09   -1.4429612606E-09   -1.4980996413E-09
   -1.5553449650E-09   -1.6147777488E-09   -1.6764815717E-09   -1.7405432159E-09
   -1.8070527828E-09   -1.8761038021E-09   -1.9477933989E-09   -2.0222223889E-09
   -2.0994954601E-09   -2.1797212830E-09   -2.2630126850E-09   -2.3494868144E-09
   -2.4392652869E-09   -2.5324743630E-09   -2.6292451409E-09   -2.7297137099E-09
   -2.8340213777E-09   -2.9423148421E-09   -3.0547464055E-09   -3.1714741928E-09
   -3.2926623704E-09   -3.4184813732E-09   -3.5491081634E-09   -3.6847264556E-09
   -3.8255269711E-09   -3.9717077441E-09   -4.1234743593E-09   -4.2810402626E-09
   -4.4446270541E-09   -4.6144648057E-09   -4.7907923752E-09   -4.9738577489E-09
   -5.1639183961E-09   -5.3612416084E-09   -5.5661049153E-09   -5.7787964249E-09
   -5.9996152771E-09   -6.2288720187E-09   -6.4668890881E-09   -6.7140012244E-09
   -6.9705559734E-09   -7.2369141482E-09   -7.5134503617E-09   -7.8005535265E-09
   -8.0986274206E-09   -8.4080912672E-09   -8.7293802802E-09   -9.0629463310E-09
   -9.4092585490E-09   -9.7688039670E-09   -1.0142088273E-08   -1.0529636431E-08
   -1.0931993497E-08   -1.1349725343E-08   -1.1783419464E-08   -1.2233685798E-08
   -1.2701157610E-08   -1.3186492333E-08   -1.3690372544E-08   -1.4213506903E-08
   -1.4756631125E-08   -1.5320509070E-08   -1.5905933761E-08   -1.6513728525E-08
   -1.7144748169E-08   -1.7799880157E-08   -1.8480045836E-08   -1.9186201799E-08
   -1.9919341156E-08   -2.0680495000E-08   -2.1470733797E-08   -2.2291168921E-08
   -2.3142954221E-08   -2.4027287629E-08   -2.4945412858E-08   -2.5898621134E-08
   -2.6888253031E-08   -2.7915700347E-08   -2.8982408046E-08   -3.0089876333E-08
   -3.1239662718E-08   -3.2433384227E-08   -3.3672719680E-08   -3.4959412027E-08
   -3.6295270873E-08   -3.7682174877E-08   -3.9122074565E-08   -4.0616994950E-08
   -4.2169038453E-08   -4.3780387789E-08   -4.5453309119E-08   -4.7190155155E-08
   -4.8993368540E-08   -5.0865485232E-08   -5.2809138091E-08   -5.4827060605E-08
   -5.6922090652E-08   -5.9097174604E-08   -6.1355371389E-08   -6.3699856810E-08
   -6.6133928036E-08   -6.8661008213E-08   -7.1284651304E-08   -7.4008546988E-08
   -7.6836526056E-08   -7.9772565551E-08   -8.2820794571E-08   -8.5985499912E-08
   -8.9271132225E-08   -9.2682312184E-08   -9.6223837031E-08   -9.9900687287E-08
   -1.0371803383E-07   -1.0768124502E-07   -1.1179589444E-07   -1.1606776858E-07
   -1.2050287502E-07   -1.2510745093E-07   -1.2988797173E-07   -1.3485116031E-07
   -1.4000399644E-07   -1.4535372652E-07   -1.5090787388E-07   -1.5667424928E-07
   -1.6266096193E-07   -1.6887643088E-07   -1.7532939684E-07   -1.8202893452E-07
   -1.8898446531E-07   -1.9620577062E-07   -2.0370300555E-07   -2.1148671323E-07
   -2.1956783960E-07   -2.2795774886E-07   -2.3666823933E-07   -2.4571156019E-07
   -2.5510042857E-07   -2.6484804756E-07   -2.7496812458E-07   -2.8547489090E-07
   -2.9638312142E-07   -3.0770815562E-07   -3.1946591896E-07   -3.3167294545E-07
   -3.4434640070E-07   -3.5750410625E-07   -3.7116456445E-07   -3.8534698460E-07
   -4.0007130985E-07   -4.1535824535E-07   -4.3122928723E-07   -4.4770675295E-07
   -4.6481381256E-07   -4.8257452128E-07   -5.0101385349E-07   -5.2015773753E-07
   -5.4003309241E-07   -5.6066786553E-07   -5.8209107202E-07   -6.0433283540E-07
   -6.2742443011E-07   -6.5139832534E-07   -6.7628823066E-07   -7.0212914349E-07
   -7.2895739821E-07   -7.5681071721E-07   -7.8572826405E-07   -8.1575069836E-07
   -8.4692023296E-07   -8.7928069332E-07   -9.1287757914E-07   -9.4775812809E-07
   -9.8397138243E-07   -1.0215682578E-06   -1.0606016149E-06   -1.1011263335E-06
   -1.1431993899E-06   -1.1868799368E-06   -1.2322293862E-06   -1.2793114963E-06
   -1.3281924605E-06   -1.3789410007E-06   -1.4316284635E-06   -1.4863289213E-06
   -1.5431192751E-06   -1.6020793636E-06   -1.6632920750E-06   -1.7268434631E-06
   -1.7928228689E-06   -1.8613230455E-06   -1.9324402885E-06   -2.0062745713E-06
   -2.0829296860E-06   -2.1625133882E-06   -2.2451375493E-06   -2.3309183129E-06
   -2.4199762584E-06   -2.5124365701E-06   -2.6084292131E-06   -2.7080891157E-06
   -2.8115563588E-06   -2.9189763729E-06   -3.0305001420E-06   -3.1462844156E-06
   -3.2664919290E-06   -3.3912916316E-06   -3.5208589239E-06   -3.6553759041E-06
   -3.7950316234E-06   -3.9400223516E-06   -4.0905518521E-06   -4.2468316686E-06
   -4.4090814214E-06   -4.5775291158E-06   -4.7524114622E-06   -4.9339742079E-06
   -5.1224724820E-06   -5.3181711537E-06   -5.5213452035E-06   -5.7322801090E-06
   -5.9512722454E-06   -6.1786293015E-06   -6.4146707105E-06   -6.6597280989E-06
   -6.9141457508E-06   -7.1782810911E-06   -7.4525051866E-06   -7.7372032660E-06
   -8.0327752603E-06   -8.3396363631E-06   -8.6582176129E-06   -8.9889664969E-06
   -9.3323475785E-06   -9.6888431476E-06   -1.0058953897E-05   -1.0443199625E-05
   -1.0842119960E-05   -1.1256275121E-05   -1.1686246699E-05   -1.2132638471E-05
   -1.2596077250E-05   -1.3077213758E-05   -1.3576723538E-05   -1.4095307902E-05
   -1.4633694910E-05   -1.5192640390E-05   -1.5772928996E-05   -1.6375375304E-05
   -1.7000824955E-05   -1.7650155835E-05   -1.8324279304E-05   -1.9024141469E-05
   -1.9750724510E-05   -2.0505048049E-05   -2.1288170578E-05   -2.2101190940E-05
   -2.2945249858E-05   -2.3821531535E-05   -2.4731265308E-05   -2.5675727358E-05
   -2.6656242501E-05   -2.7674186033E-05   -2.8730985648E-05   -2.9828123435E-05
   -3.0967137943E-05   -3.2149626328E-05   -3.3377246582E-05   -3.4651719842E-05
   -3.5974832792E-05   -3.7348440152E-05   -3.8774467266E-05   -4.0254912777E-05
   -4.1791851421E-05   -4.3387436905E-05   -4.5043904915E-05   -4.6763576222E-05
   -4.8548859912E-05   -5.0402256740E-05   -5.2326362604E-05   -5.4323872155E-05
   -5.6397582545E-05   -5.8550397309E-05   -6.0785330401E-05   -6.3105510379E-05
   -6.5514184747E-05   -6.8014724459E-05   -7.0610628599E-05   -7.3305529234E-05
   -7.6103196441E-05   -7.9007543541E-05   -8.2022632511E-05   -8.5152679615E-05
   -8.8402061232E-05   -9.1775319919E-05   -9.5277170687E-05   -9.8912507518E-05
   -1.0268641013E-04   -1.0660415099E-04   -1.1067120260E-04   -1.1489324504E-04
   -1.1927617378E-04   -1.2382610785E-04   -1.2854939825E-04   -1.3345263667E-04
   -1.3854266461E-04   -1.4382658274E-04   -1.4931176070E-04   -1.5500584720E-04
   -1.6091678052E-04   -1.6705279943E-04   -1.7342245445E-04   -1.8003461959E-04
   -1.8689850451E-04   -1.9402366708E-04   -2.0142002651E-04   -2.0909787685E-04
   -2.1706790109E-04   -2.2534118570E-04   -2.3392923576E-04   -2.4284399066E-04
   -2.5209784029E-04   -2.6170364193E-04   -2.7167473774E-04   -2.8202497281E-04
   -2.9276871400E-04   -3.0392086937E-04   -3.1549690838E-04   -3.2751288278E-04
   -3.3998544834E-04   -3.5293188730E-04   -3.6637013168E-04   -3.8031878739E-04
   -3.9479715931E-04   -4.0982527720E-04   -4.2542392257E-04   -4.4161465654E-04
   -4.5841984870E-04   -4.7586270700E-04   -4.9396730875E-04   -5.1275863273E-04
   -5.3226259237E-04   -5.5250607031E-04   -5.7351695397E-04   -5.9532417258E-04
   -6.1795773544E-04   -6.4144877155E-04   -6.6582957068E-04   -6.9113362587E-04
   -7.1739567745E-04   -7.4465175863E-04   -7.7293924266E-04   -8.0229689168E-04
   -8.3276490728E-04   -8.6438498284E-04   -8.9720035767E-04   -9.3125587307E-04
   -9.6659803032E-04   -1.0032750507E-03   -1.0413369375E-03   -1.0808355403E-03
   -1.1218246215E-03   -1.1643599247E-03   -1.2084992461E-03   -1.2543025078E-03
   -1.3018318337E-03   -1.3511516281E-03   -1.4023286568E-03   -1.4554321311E-03
   -1.5105337943E-03   -1.5677080115E-03   -1.6270318617E-03   -1.6885852340E-03
   -1.7524509258E-03   -1.8187147448E-03   -1.8874656144E-03   -1.9587956824E-03
   -2.0328004329E-03   -2.1095788020E-03   -2.1892332975E-03   -2.2718701217E-03
   -2.3575992986E-03   -2.4465348049E-03   -2.5387947048E-03   -2.6345012895E-03
   -2.7337812202E-03   -2.8367656762E-03   -2.9435905070E-03   -3.0543963886E-03
   -3.1693289855E-03   -3.2885391160E-03   -3.4121829234E-03   -3.5404220517E-03
   -3.6734238260E-03   -3.8113614383E-03   -3.9544141383E-03   -4.1027674294E-03
   -4.2566132698E-03   -4.4161502795E-03   -4.5815839516E-03   -4.7531268701E-03
   -4.9309989327E-03   -5.1154275790E-03   -5.3066480245E-03   -5.5049035001E-03
   -5.7104454966E-03   -5.9235340159E-03   -6.1444378264E-03   -6.3734347248E-03
   -6.6108118027E-03   -6.8568657192E-03   -7.1119029782E-03   -7.3762402109E-03
   -7.6502044637E-03   -7.9341334903E-03   -8.2283760494E-03   -8.5332922053E-03
   -8.8492536348E-03   -9.1766439358E-03   -9.5158589412E-03   -9.8673070349E-03
   -1.0231409471E-02   -1.0608600697E-02   -1.0999328674E-02   -1.1404055204E-02
   -1.1823256256E-02   -1.2257422290E-02   -1.2707058582E-02   -1.3172685547E-02
   -1.3654839063E-02   -1.4154070786E-02   -1.4670948462E-02   -1.5206056241E-02
   -1.5759994970E-02   -1.6333382494E-02   -1.6926853934E-02   -1.7541061962E-02
   -1.8176677062E-02   -1.8834387773E-02   -1.9514900920E-02   -2.0218941825E-02
   -2.0947254491E-02   -2.1700601779E-02   -2.2479765537E-02   -2.3285546720E-02
   -2.4118765466E-02   -2.4980261144E-02   -2.5870892361E-02   -2.6791536924E-02
   -2.7743091766E-02   -2.8726472808E-02   -2.9742614783E-02   -3.0792470984E-02
   -3.1877012962E-02   -3.2997230148E-02   -3.4154129397E-02   -3.5348734462E-02
   -3.6582085366E-02   -3.7855237689E-02   -3.9169261755E-02   -4.0525241704E-02
   -4.1924274448E-02   -4.3367468506E-02   -4.4855942700E-02   -4.6390824709E-02
   -4.7973249469E-02   -4.9604357407E-02   -5.1285292502E-02   -5.3017200159E-02
   -5.4801224878E-02   -5.6638507721E-02   -5.8530183543E-02   -6.0477377990E-02
   -6.2481204242E-02   -6.4542759484E-02   -6.6663121091E-02   -6.8843342512E-02
   -7.1084448835E-02   -7.3387432013E-02   -7.5753245727E-02   -7.8182799884E-02
   -8.0676954710E-02   -8.3236514425E-02   -8.5862220482E-02   -8.8554744344E-02
   -9.1314679774E-02   -9.4142534622E-02   -9.7038722071E-02   -1.0000355134E-01
   -1.0303721779E-01   -1.0613979244E-01   -1.0931121083E-01   -1.1255126126E-01
   -1.1585957231E-01   -1.1923559966E-01   -1.2267861219E-01   -1.2618767731E-01
   -1.2976164550E-01   -1.3339913406E-01   -1.3709850999E-01   -1.4085787208E-01
   -1.4467503206E-01   -1.4854749491E-01   -1.5247243820E-01   -1.5644669063E-01
   -1.6046670945E-01   -1.6452855713E-01   -1.6862787697E-01   -1.7275986781E-01
   -1.7691925776E-01   -1.8110027709E-01   -1.8529663011E-01   -1.8950146623E-01
   -1.9370735014E-01   -1.9790623121E-01   -2.0208941206E-01   -2.0624751650E-01
   -2.1037045679E-01   -2.1444740036E-01   -2.1846673610E-01   -2.2241604030E-01
   -2.2628204231E-01   -2.3005059027E-01   -2.3370661678E-01   -2.3723410496E-01
   -2.4061605494E-01   -2.4383445103E-01   -2.4687022991E-01   -2.4970325000E-01
   -2.5231226241E-01   -2.5467488371E-01   -2.5676757099E-01   -2.5856559948E-01
   -2.6004304332E-01   -2.6117275977E-01   -2.6192637752E-01   -2.6227428951E-01
   -2.6218565090E-01   -2.6162838290E-01   -2.6056918290E-01   -2.5897354183E-01
   -2.5680576938E-01   -2.5402902787E-01   -2.5060537566E-01   -2.4649582095E-01
   -2.4166038688E-01   -2.3605818885E-01   -2.2964752521E-01   -2.2238598212E-01
   -2.1423055385E-01   -2.0513777956E-01   -1.9506389758E-01   -1.8396501846E-01
   -1.7179731785E-01   -1.5851725041E-01   -1.4408178589E-01   -1.2844866839E-01
   -1.1157670012E-01   -9.3426050478E-02   -7.3958591562E-02   -5.3138260976E-02
   -3.0931452748E-02   -7.3074370337E-03    1.7761190878E-02    4.4298031905E-02
    7.2322374727E-02    1.0184865768E-01    1.3288590143E-01    1.6543711310E-01
    1.9949866311E-01    2.3505963625E-01    2.7210115900E-01    3.1059570593E-01
    3.5050638835E-01    3.9178622927E-01    4.3437742954E-01    4.7821063084E-01
    5.2320418231E-01    5.6926341865E-01    6.1627995871E-01    6.6413103495E-01
    7.1267886557E-01    7.6177008278E-01    8.1123523210E-01    8.6088835962E-01
    9.1052670591E-01    9.5993052733E-01    1.0088630674E+00    1.0570707029E+00
    1.1042832921E+00    1.1502147534E+00    1.1945639059E+00    1.2370156040E+00
    1.2772422008E+00    1.3149053757E+00    1.3496583619E+00    1.3811486113E+00
    1.4090209318E+00    1.4329211325E+00    1.4525002099E+00    1.4674191025E+00
    1.4773540405E+00    1.4820025093E+00    1.4810898369E+00    1.4743754222E+00
    1.4616513489E+00    1.4427410028E+00    1.4175041321E+00    1.3858427733E+00
    1.3477074788E+00    1.3031037406E+00    1.2520984732E+00    1.1948263853E+00
    1.1314960418E+00    1.0623953908E+00    9.8789651203E-01    9.0845932896E-01
    8.2463402085E-01    7.3706186862E-01    6.4647427332E-01    5.5368969373E-01
    4.5960826306E-01    3.6520386403E-01    2.7151346910E-01    1.7962359226E-01
    9.0653752846E-02    5.7369251888E-03   -7.4002957894E-02   -1.4747626199E-01
   -2.1365534214E-01   -2.7160418021E-01   -3.2050930187E-01   -3.5971111683E-01
   -3.8873463400E-01   -4.0731831851E-01   -4.1543969393E-01   -4.1333616327E-01
   -4.0151944283E-01   -3.8078198917E-01   -3.5219386804E-01   -3.1708867956E-01
   -2.7703742876E-01   -2.3380962399E-01   -1.8932140009E-01   -1.4557109478E-01
   -1.0456344414E-01   -6.8224748163E-02   -3.8315247323E-02   -1.6322075817E-02
   -3.3621441553E-03    5.5939805061E-05    2.9997985479E-06   -0.0000000000E+00
 0. 0. 0. 0.
 0. 0. 0. 0.
 0. 0. 0. 0.
 0. 0. 0. 0.
 0. 0. 0. 0.
 0. 0. 0. 0.
 0. 0. 0. 0.
 0. 0. 0. 0.
 0. 0. 0. 0.
 0. 0. 0. 0.
 0. 0. 0. 0.
 0. 0. 0. 0.
 0. 0. 0. 0.
 0. 0. 0. 0.
 0. 0. 0. 0.
 0. 0. 0. 0.
 0. 0. 0. 0.
 0. 0. 0. 0.
 0. 0. 0. 0.
 0. 0. 0. 0.
 0. 0. 0. 0.
 0. 0. 0. 0.
 0. 0. 0. 0.
 0. 0. 0. 0.
 0. 0. 0. 0.
 0. 0. 0. 0.
 0. 0. 0. 0.
 0. 0. 0. 0.
 0. 0. 0. 0.
 0. 0. 0. 0.
 0. 0. 0. 0.
 0. 0. 0. 0.
 0. 0. 0. 0.
 0. 0. 0. 0.
 0. 0. 0. 0.
 0. 0. 0. 0.
 0. 0. 0. 0.
 0. 0.
   </PP_BETA.6>
   <PP_DIJ type="real"  size="  36" columns="4">
    1.4531342067E+01    0.0000000000E+00    0.0000000000E+00    0.0000000000E+00
    0.0000000000E+00    0.0000000000E+00    0.0000000000E+00    2.0181623292E+00
    0.0000000000E+00    0.0000000000E+00    0.0000000000E+00    0.0000000000E+00
    0.0000000000E+00    0.0000000000E+00    1.0252396348E+01    0.0000000000E+00
    0.0000000000E+00    0.0000000000E+00    0.0000000000E+00    0.0000000000E+00
    0.0000000000E+00    1.0183558738E+00    0.0000000000E+00    0.0000000000E+00
    0.0000000000E+00    0.0000000000E+00    0.0000000000E+00    0.0000000000E+00
   -8.7464812518E+00    0.0000000000E+00    0.0000000000E+00    0.0000000000E+00
    0.0000000000E+00    0.0000000000E+00    0.0000000000E+00   -4.9982014359E+00
   </PP_DIJ>
 </PP_NONLOCAL>
 <PP_PSWFC>
   <PP_CHI.1
       type="real"
       size="1106"
       columns="4"
       index="1"
       occupation="10.000"
       pseudo_energy="   -0.2154307234E+01"
       label="3D"
       l="2" >
    0.0000000000E+00    1.8269278551E-14    1.8967384171E-14    1.9692165801E-14
    2.0444642785E-14    2.1225873418E-14    2.2036956433E-14    2.2879032550E-14
    2.3753286078E-14    2.4660946578E-14    2.5603290600E-14    2.6581643468E-14
    2.7597381153E-14    2.8651932204E-14    2.9746779756E-14    3.0883463620E-14
    3.2063582445E-14    3.3288795967E-14    3.4560827344E-14    3.5881465581E-14
    3.7252568043E-14    3.8676063068E-14    4.0153952680E-14    4.1688315407E-14
    4.3281309197E-14    4.4935174462E-14    4.6652237221E-14    4.8434912378E-14
    5.0285707113E-14    5.2207224411E-14    5.4202166722E-14    5.6273339764E-14
    5.8423656463E-14    6.0656141059E-14    6.2973933349E-14    6.5380293112E-14
    6.7878604687E-14    7.0472381737E-14    7.3165272188E-14    7.5961063362E-14
    7.8863687300E-14    8.1877226295E-14    8.5005918634E-14    8.8254164556E-14
    9.1626532441E-14    9.5127765239E-14    9.8762787134E-14    1.0253671048E-13
    1.0645484297E-13    1.1052269512E-13    1.1474598803E-13    1.1913066140E-13
    1.2368288190E-13    1.2840905183E-13    1.3331581815E-13    1.3841008182E-13
    1.4369900747E-13    1.4919003353E-13    1.5489088267E-13    1.6080957264E-13
    1.6695442757E-13    1.7333408968E-13    1.7995753142E-13    1.8683406809E-13
    1.9397337097E-13    2.0138548087E-13    2.0908082229E-13    2.1707021807E-13
    2.2536490463E-13    2.3397654772E-13    2.4291725889E-13    2.5219961249E-13
    2.6183666336E-13    2.7184196519E-13    2.8222958959E-13    2.9301414585E-13
    3.0421080155E-13    3.1583530383E-13    3.2790400155E-13    3.4043386832E-13
    3.5344252632E-13    3.6694827111E-13    3.8097009739E-13    3.9552772566E-13
    4.1064162997E-13    4.2633306675E-13    4.4262410467E-13    4.5953765568E-13
    4.7709750725E-13    4.9532835582E-13    5.1425584152E-13    5.3390658425E-13
    5.5430822110E-13    5.7548944524E-13    5.9748004625E-13    6.2031095204E-13
    6.4401427234E-13    6.6862334384E-13    6.9417277711E-13    7.2069850525E-13
    7.4823783443E-13    7.7682949638E-13    8.0651370282E-13    8.3733220208E-13
    8.6932833774E-13    9.0254710963E-13    9.3703523714E-13    9.7284122487E-13
    1.0100154309E-12    1.0486101376E-12    1.0886796251E-12    1.1302802477E-12
    1.1734705132E-12    1.2183111650E-12    1.2648652676E-12    1.3131982955E-12
    1.3633782248E-12    1.4154756295E-12    1.4695637801E-12    1.5257187468E-12
    1.5840195071E-12    1.6445480557E-12    1.7073895211E-12    1.7726322844E-12
    1.8403681039E-12    1.9106922444E-12    1.9837036107E-12    2.0595048871E-12
    2.1382026816E-12    2.2199076760E-12    2.3047347814E-12    2.3928032999E-12
    2.4842370923E-12    2.5791647525E-12    2.6777197882E-12    2.7800408085E-12
    2.8862717194E-12    2.9965619255E-12    3.1110665406E-12    3.2299466056E-12
    3.3533693153E-12    3.4815082532E-12    3.6145436358E-12    3.7526625660E-12
    3.8960592962E-12    4.0449355019E-12    4.1995005646E-12    4.3599718670E-12
    4.5265750982E-12    4.6995445716E-12    4.8791235539E-12    5.0655646076E-12
    5.2591299463E-12    5.4600918030E-12    5.6687328135E-12    5.8853464135E-12
    6.1102372517E-12    6.3437216178E-12    6.5861278876E-12    6.8377969850E-12
    7.0990828611E-12    7.3703529921E-12    7.6519888964E-12    7.9443866708E-12
    8.2479575479E-12    8.5631284743E-12    8.8903427109E-12    9.2300604568E-12
    9.5827594958E-12    9.9489358693E-12    1.0329104573E-11    1.0723800282E-11
    1.1133578101E-11    1.1559014349E-11    1.2000707366E-11    1.2459278354E-11
    1.2935372255E-11    1.3429658654E-11    1.3942832723E-11    1.4475616198E-11
    1.5028758392E-11    1.5603037254E-11    1.6199260457E-11    1.6818266539E-11
    1.7460926079E-11    1.8128142922E-11    1.8820855453E-11    1.9540037912E-11
    2.0286701768E-11    2.1061897139E-11    2.1866714273E-11    2.2702285076E-11
    2.3569784707E-11    2.4470433229E-11    2.5405497329E-11    2.6376292093E-11
    2.7384182863E-11    2.8430587150E-11    2.9516976633E-11    3.0644879226E-11
    3.1815881226E-11    3.3031629550E-11    3.4293834043E-11    3.5604269887E-11
    3.6964780099E-11    3.8377278120E-11    3.9843750509E-11    4.1366259732E-11
    4.2946947070E-11    4.4588035625E-11    4.6291833446E-11    4.8060736780E-11
    4.9897233438E-11    5.1803906296E-11    5.3783436927E-11    5.5838609371E-11
    5.7972314052E-11    6.0187551844E-11    6.2487438289E-11    6.4875207981E-11
    6.7354219113E-11    6.9927958204E-11    7.2600044996E-11    7.5374237552E-11
    7.8254437535E-11    8.1244695702E-11    8.4349217593E-11    8.7572369453E-11
    9.0918684370E-11    9.4392868650E-11    9.7999808434E-11    1.0174457657E-10
    1.0563243977E-10    1.0966886596E-10    1.1385953204E-10    1.1821033182E-10
    1.2272738433E-10    1.2741704241E-10    1.3228590167E-10    1.3734080974E-10
    1.4258887591E-10    1.4803748115E-10    1.5369428844E-10    1.5956725360E-10
    1.6566463645E-10    1.7199501244E-10    1.7856728470E-10    1.8539069657E-10
    1.9247484458E-10    1.9982969199E-10    2.0746558276E-10    2.1539325610E-10
    2.2362386162E-10    2.3216897495E-10    2.4104061406E-10    2.5025125615E-10
    2.5981385519E-10    2.6974186016E-10    2.8004923394E-10    2.9075047297E-10
    3.0186062761E-10    3.1339532335E-10    3.2537078274E-10    3.3780384823E-10
    3.5071200586E-10    3.6411340983E-10    3.7802690808E-10    3.9247206873E-10
    4.0746920766E-10    4.2303941705E-10    4.3920459506E-10    4.5598747660E-10
    4.7341166537E-10    4.9150166696E-10    5.1028292341E-10    5.2978184893E-10
    5.5002586707E-10    5.7104344929E-10    5.9286415501E-10    6.1551867315E-10
    6.3903886533E-10    6.6345781067E-10    6.8880985229E-10    7.1513064564E-10
    7.4245720864E-10    7.7082797372E-10    8.0028284190E-10    8.3086323889E-10
    8.6261217337E-10    8.9557429744E-10    9.2979596947E-10    9.6532531925E-10
    1.0022123157E-09    1.0405088372E-09    1.0802687445E-09    1.1215479564E-09
    1.1644045284E-09    1.2088987347E-09    1.2550931525E-09    1.3030527500E-09
    1.3528449784E-09    1.4045398660E-09    1.4582101172E-09    1.5139312144E-09
    1.5717815245E-09    1.6318424089E-09    1.6941983379E-09    1.7589370096E-09
    1.8261494733E-09    1.8959302574E-09    1.9683775023E-09    2.0435930989E-09
    2.1216828311E-09    2.2027565252E-09    2.2869282043E-09    2.3743162482E-09
    2.4650435607E-09    2.5592377415E-09    2.6570312664E-09    2.7585616733E-09
    2.8639717557E-09    2.9734097634E-09    3.0870296113E-09    3.2049910955E-09
    3.3274601182E-09    3.4546089212E-09    3.5866163279E-09    3.7236679949E-09
    3.8659566728E-09    4.0136824781E-09    4.1670531736E-09    4.3262844615E-09
    4.4916002862E-09    4.6632331493E-09    4.8414244369E-09    5.0264247589E-09
    5.2184943014E-09    5.4179031927E-09    5.6249318832E-09    5.8398715398E-09
    6.0630244555E-09    6.2947044744E-09    6.5352374331E-09    6.7849616190E-09
    7.0442282463E-09    7.3134019493E-09    7.5928612961E-09    7.8829993202E-09
    8.1842240737E-09    8.4969592013E-09    8.8216445356E-09    9.1587367162E-09
    9.5087098315E-09    9.8720560859E-09    1.0249286492E-08    1.0640931588E-08
    1.1047542185E-08    1.1469690144E-08    1.1907969175E-08    1.2362995676E-08
    1.2835409597E-08    1.3325875344E-08    1.3835082709E-08    1.4363747844E-08
    1.4912614264E-08    1.5482453898E-08    1.6074068168E-08    1.6688289123E-08
    1.7325980604E-08    1.7988039461E-08    1.8675396815E-08    1.9389019365E-08
    2.0129910752E-08    2.0899112964E-08    2.1697707807E-08    2.2526818425E-08
    2.3387610879E-08    2.4281295784E-08    2.5209130020E-08    2.6172418488E-08
    2.7172515956E-08    2.8210828958E-08    2.9288817774E-08    3.0407998482E-08
    3.1569945094E-08    3.2776291765E-08    3.4028735094E-08    3.5329036512E-08
    3.6679024752E-08    3.8080598430E-08    3.9535728707E-08    4.1046462067E-08
    4.2614923192E-08    4.4243317952E-08    4.5933936504E-08    4.7689156517E-08
    4.9511446513E-08    5.1403369337E-08    5.3367585768E-08    5.5406858253E-08
    5.7524054796E-08    5.9722152991E-08    6.2004244211E-08    6.4373537950E-08
    6.6833366344E-08    6.9387188852E-08    7.2038597122E-08    7.4791320043E-08
    7.7649228989E-08    8.0616343262E-08    8.3696835746E-08    8.6895038776E-08
    9.0215450226E-08    9.3662739841E-08    9.7241755798E-08    1.0095753153E-07
    1.0481529280E-07    1.0882046505E-07    1.1297868103E-07    1.1729578873E-07
    1.2177785959E-07    1.2643119704E-07    1.3126234536E-07    1.3627809892E-07
    1.4148551169E-07    1.4689190715E-07    1.5250488865E-07    1.5833235005E-07
    1.6438248685E-07    1.7066380769E-07    1.7718514632E-07    1.8395567405E-07
    1.9098491261E-07    1.9828274757E-07    2.0585944222E-07    2.1372565202E-07
    2.2189243956E-07    2.3037129013E-07    2.3917412790E-07    2.4831333263E-07
    2.5780175712E-07    2.6765274527E-07    2.7788015085E-07    2.8849835696E-07
    2.9952229630E-07    3.1096747213E-07    3.2284998006E-07    3.3518653072E-07
    3.4799447325E-07    3.6129181967E-07    3.7509727023E-07    3.8943023970E-07
    4.0431088468E-07    4.1976013190E-07    4.3579970772E-07    4.5245216859E-07
    4.6974093285E-07    4.8769031360E-07    5.0632555292E-07    5.2567285735E-07
    5.4575943472E-07    5.6661353245E-07    5.8826447721E-07    6.1074271622E-07
    6.3407986000E-07    6.5830872684E-07    6.8346338896E-07    7.0957922039E-07
    7.3669294670E-07    7.6484269668E-07    7.9406805588E-07    8.2441012233E-07
    8.5591156428E-07    8.8861668020E-07    9.2257146109E-07    9.5782365508E-07
    9.9442283459E-07    1.0324204661E-06    1.0718699822E-06    1.1128268573E-06
    1.1553486849E-06    1.1994952592E-06    1.2453286586E-06    1.2929133335E-06
    1.3423161965E-06    1.3936067165E-06    1.4468570167E-06    1.5021419756E-06
    1.5595393325E-06    1.6191297966E-06    1.6809971605E-06    1.7452284181E-06
    1.8119138868E-06    1.8811473344E-06    1.9530261109E-06    2.0276512857E-06
    2.1051277888E-06    2.1855645593E-06    2.2690746979E-06    2.3557756259E-06
    2.4457892503E-06    2.5392421355E-06    2.6362656804E-06    2.7369963039E-06
    2.8415756359E-06    2.9501507169E-06    3.0628742042E-06    3.1799045870E-06
    3.3014064082E-06    3.4275504967E-06    3.5585142066E-06    3.6944816668E-06
    3.8356440397E-06    3.9821997897E-06    4.1343549622E-06    4.2923234728E-06
    4.4563274083E-06    4.6265973385E-06    4.8033726398E-06    4.9869018323E-06
    5.1774429280E-06    5.3752637939E-06    5.5806425283E-06    5.7938678509E-06
    6.0152395089E-06    6.2450686979E-06    6.4836784988E-06    6.7314043318E-06
    6.9885944275E-06    7.2556103159E-06    7.5328273341E-06    7.8206351534E-06
    8.1194383268E-06    8.4296568565E-06    8.7517267844E-06    9.0861008037E-06
    9.4332488949E-06    9.7936589857E-06    1.0167837636E-05    1.0556310748E-05
    1.0959624307E-05    1.1378345145E-05    1.1813061739E-05    1.2264385033E-05
    1.2732949301E-05    1.3219413034E-05    1.3724459862E-05    1.4248799518E-05
    1.4793168832E-05    1.5358332764E-05    1.5945085478E-05    1.6554251456E-05
    1.7186686655E-05    1.7843279707E-05    1.8524953170E-05    1.9232664812E-05
    1.9967408966E-05    2.0730217917E-05    2.1522163351E-05    2.2344357860E-05
    2.3197956500E-05    2.4084158410E-05    2.5004208496E-05    2.5959399174E-05
    2.6951072180E-05    2.7980620454E-05    2.9049490091E-05    3.0159182366E-05
    3.1311255839E-05    3.2507328538E-05    3.3749080228E-05    3.5038254760E-05
    3.6376662516E-05    3.7766182947E-05    3.9208767197E-05    4.0706440845E-05
    4.2261306735E-05    4.3875547918E-05    4.5551430714E-05    4.7291307880E-05
    4.9097621901E-05    5.0972908411E-05    5.2919799740E-05    5.4941028592E-05
    5.7039431873E-05    5.9217954656E-05    6.1479654295E-05    6.3827704706E-05
    6.6265400800E-05    6.8796163089E-05    7.1423542464E-05    7.4151225159E-05
    7.6983037897E-05    7.9922953240E-05    8.2975095130E-05    8.6143744653E-05
    8.9433346010E-05    9.2848512724E-05    9.6394034074E-05    1.0007488178E-04
    1.0389621693E-04    1.0786339720E-04    1.1198198428E-04    1.1625775168E-04
    1.2069669274E-04    1.2530502899E-04    1.3008921881E-04    1.3505596645E-04
    1.4021223132E-04    1.4556523772E-04    1.5112248487E-04    1.5689175734E-04
    1.6288113591E-04    1.6909900874E-04    1.7555408310E-04    1.8225539742E-04
    1.8921233388E-04    1.9643463141E-04    2.0393239922E-04    2.1171613084E-04
    2.1979671868E-04    2.2818546909E-04    2.3689411812E-04    2.4593484768E-04
    2.5532030251E-04    2.6506360763E-04    2.7517838654E-04    2.8567878005E-04
    2.9657946583E-04    3.0789567875E-04    3.1964323186E-04    3.3183853830E-04
    3.4449863392E-04    3.5764120080E-04    3.7128459164E-04    3.8544785505E-04
    4.0015076180E-04    4.1541383209E-04    4.3125836370E-04    4.4770646140E-04
    4.6478106725E-04    4.8250599216E-04    5.0090594862E-04    5.2000658455E-04
    5.3983451852E-04    5.6041737623E-04    5.8178382836E-04    6.0396362976E-04
    6.2698766022E-04    6.5088796665E-04    6.7569780684E-04    7.0145169486E-04
    7.2818544814E-04    7.5593623626E-04    7.8474263158E-04    8.1464466168E-04
    8.4568386382E-04    8.7790334131E-04    9.1134782199E-04    9.4606371891E-04
    9.8209919311E-04    1.0195042189E-03    1.0583306512E-03    1.0986322957E-03
    1.1404649817E-03    1.1838866366E-03    1.2289573645E-03    1.2757395268E-03
    1.3242978260E-03    1.3746993922E-03    1.4270138733E-03    1.4813135281E-03
    1.5376733226E-03    1.5961710304E-03    1.6568873361E-03    1.7199059424E-03
    1.7853136819E-03    1.8532006316E-03    1.9236602327E-03    1.9967894138E-03
    2.0726887191E-03    2.1514624409E-03    2.2332187565E-03    2.3180698707E-03
    2.4061321626E-03    2.4975263379E-03    2.5923775866E-03    2.6908157464E-03
    2.7929754710E-03    2.8989964054E-03    3.0090233667E-03    3.1232065310E-03
    3.2417016273E-03    3.3646701377E-03    3.4922795047E-03    3.6247033457E-03
    3.7621216743E-03    3.9047211299E-03    4.0526952149E-03    4.2062445394E-03
    4.3655770748E-03    4.5309084159E-03    4.7024620511E-03    4.8804696429E-03
    5.0651713161E-03    5.2568159573E-03    5.4556615225E-03    5.6619753564E-03
    5.8760345210E-03    6.0981261358E-03    6.3285477277E-03    6.5676075938E-03
    6.8156251745E-03    7.0729314393E-03    7.3398692840E-03    7.6167939414E-03
    7.9040734039E-03    8.2020888598E-03    8.5112351427E-03    8.8319211951E-03
    9.1645705453E-03    9.5096217997E-03    9.8675291488E-03    1.0238762889E-02
    1.0623809959E-02    1.1023174494E-02    1.1437378389E-02    1.1866961889E-02
    1.2312484189E-02    1.2774524049E-02    1.3253680428E-02    1.3750573143E-02
    1.4265843529E-02    1.4800155135E-02    1.5354194422E-02    1.5928671491E-02
    1.6524320823E-02    1.7141902039E-02    1.7782200678E-02    1.8446028994E-02
    1.9134226773E-02    1.9847662166E-02    2.0587232541E-02    2.1353865357E-02
    2.2148519051E-02    2.2972183949E-02    2.3825883187E-02    2.4710673662E-02
    2.5627646984E-02    2.6577930463E-02    2.7562688093E-02    2.8583121573E-02
    2.9640471322E-02    3.0736017524E-02    3.1871081180E-02    3.3047025171E-02
    3.4265255334E-02    3.5527221554E-02    3.6834418849E-02    3.8188388482E-02
    3.9590719061E-02    4.1043047657E-02    4.2547060909E-02    4.4104496140E-02
    4.5717142468E-02    4.7386841904E-02    4.9115490448E-02    5.0905039176E-02
    5.2757495301E-02    5.4674923225E-02    5.6659445568E-02    5.8713244163E-02
    6.0838561025E-02    6.3037699287E-02    6.5313024085E-02    6.7666963406E-02
    7.0102008876E-02    7.2620716491E-02    7.5225707285E-02    7.7919667917E-02
    8.0705351185E-02    8.3585576445E-02    8.6563229934E-02    8.9641264984E-02
    9.2822702121E-02    9.6110629036E-02    9.9508200411E-02    1.0301863760E-01
    1.0664522817E-01    1.1039132519E-01    1.1426034643E-01    1.1825577330E-01
    1.2238114956E-01    1.2664007984E-01    1.3103622786E-01    1.3557331440E-01
    1.4025511501E-01    1.4508545737E-01    1.5006821835E-01    1.5520732068E-01
    1.6050672936E-01    1.6597044753E-01    1.7160251201E-01    1.7740698844E-01
    1.8338796585E-01    1.8954955081E-01    1.9589586107E-01    2.0243101863E-01
    2.0915914220E-01    2.1608433919E-01    2.2321069689E-01    2.3054227317E-01
    2.3808308635E-01    2.4583710444E-01    2.5380823360E-01    2.6200030579E-01
    2.7041706566E-01    2.7906215659E-01    2.8793910581E-01    2.9705130866E-01
    3.0640201196E-01    3.1599429629E-01    3.2583105746E-01    3.3591498683E-01
    3.4624855066E-01    3.5683396842E-01    3.6767318999E-01    3.7876787182E-01
    3.9011935193E-01    4.0172862390E-01    4.1359630967E-01    4.2572263127E-01
    4.3810738148E-01    4.5074989333E-01    4.6364900863E-01    4.7680304541E-01
    4.9020976440E-01    5.0386633450E-01    5.1776929744E-01    5.3191453153E-01
    5.4629721473E-01    5.6091178700E-01    5.7575191214E-01    5.9081043916E-01
    6.0607936338E-01    6.2154978732E-01    6.3721188170E-01    6.5305484649E-01
    6.6906687251E-01    6.8523510360E-01    7.0154559960E-01    7.1798330057E-01
    7.3453199235E-01    7.5117427395E-01    7.6789152692E-01    7.8466388720E-01
    8.0147021983E-01    8.1828809676E-01    8.3509377850E-01    8.5186219970E-01
    8.6856695945E-01    8.8518031663E-01    9.0167319084E-01    9.1801516953E-01
    9.3417452185E-01    9.5011821970E-01    9.6581196673E-01    9.8122023573E-01
    9.9630631509E-01    1.0110323648E+00    1.0253594829E+00    1.0392477823E+00
    1.0526564793E+00    1.0655439938E+00    1.0778680616E+00    1.0895858602E+00
    1.1006541466E+00    1.1110294093E+00    1.1206680341E+00    1.1295264830E+00
    1.1375614876E+00    1.1447302560E+00    1.1509906929E+00    1.1563016339E+00
    1.1606230910E+00    1.1639165114E+00    1.1661450468E+00    1.1672738325E+00
    1.1672702758E+00    1.1661043508E+00    1.1637488997E+00    1.1601799364E+00
    1.1553769517E+00    1.1493232176E+00    1.1420060867E+00    1.1334172848E+00
    1.1235531936E+00    1.1124151181E+00    1.1000095382E+00    1.0863483373E+00
    1.0714490062E+00    1.0553348169E+00    1.0380349625E+00    1.0195846587E+00
    1.0000252029E+00    9.7940398673E-01    9.5777445738E-01    9.3519602499E-01
    9.1173391190E-01    8.8745894120E-01    8.6244726195E-01    8.3678000922E-01
    8.1054289802E-01    7.8382575062E-01    7.5672195807E-01    7.2932787752E-01
    7.0174216808E-01    6.7406506921E-01    6.4639762680E-01    6.1884087333E-01
    5.9149496986E-01    5.6445831888E-01    5.3782665822E-01    5.1169214737E-01
    4.8614245880E-01    4.6125988760E-01    4.3712049351E-01    4.1379329024E-01
    3.9133949677E-01    3.6981186588E-01    3.4925410443E-01    3.2970039961E-01
    3.1117506424E-01    2.9369231306E-01    2.7725618025E-01    2.6186058657E-01
    2.4748956234E-01    2.3411763001E-01    2.2171034761E-01    2.1022501162E-01
    1.9961151512E-01    1.8981335446E-01    1.8076877525E-01    1.7241204592E-01
    1.6467484530E-01    1.5748774856E-01    1.5078179445E-01    1.4449011518E-01
    1.3854960899E-01    1.3290263409E-01    1.2749870048E-01    1.2229613406E-01
    1.1726368468E-01    1.1238203911E-01    1.0764401879E-01    1.0304783462E-01
    9.8591779794E-02    9.4274109251E-02    9.0092999731E-02    8.6046554510E-02
    8.2132806785E-02    7.8349723002E-02    7.4695206281E-02    7.1167099944E-02
    6.7763191120E-02    6.4481214433E-02    6.1318855751E-02    5.8273755987E-02
    5.5343514952E-02    5.2525695231E-02    4.9817826088E-02    4.7217407383E-02
    4.4721913489E-02    4.2328797196E-02    4.0035493602E-02    3.7839423982E-02
    3.5737999605E-02    3.3728625518E-02    3.1808704264E-02    2.9975639549E-02
    2.8226839828E-02    2.6559721818E-02    2.4971713927E-02    2.3460259585E-02
    2.2022820483E-02    2.0656879706E-02    1.9359944757E-02    1.8129550460E-02
    1.6963261752E-02    1.5858676344E-02    1.4813427252E-02    1.3825185199E-02
    1.2891660876E-02    1.2010607063E-02    1.1179820606E-02    1.0397144245E-02
    9.6604682986E-03    8.9677321899E-03    8.3169258256E-03    7.7060908182E-03
    7.1333215561E-03    6.5967661187E-03    6.0946270393E-03    5.6251619152E-03
    5.1866838695E-03    4.7775618635E-03    4.3962208674E-03    4.0411418880E-03
    3.7108618622E-03    3.4039734178E-03    3.1191245085E-03    2.8550179279E-03
    2.6104107099E-03    2.3841134201E-03    2.1749893463E-03    1.9819535946E-03
    1.8039720987E-03    1.6400605482E-03    1.4892832459E-03    1.3507518989E-03
    1.2236243522E-03    1.1071032726E-03    1.0004347892E-03    9.0290709757E-04
    8.1384903554E-04    7.3262863648E-04    6.5865166679E-04    5.9136015375E-04
    5.3023090984E-04    4.7477405884E-04    4.2453156923E-04    3.7907579966E-04
    3.3800806106E-04    3.0095719967E-04    2.6757820468E-04    2.3755084409E-04
    2.1057833177E-04    1.8638602846E-04    1.6472017919E-04    1.4534668903E-04
    1.2804993891E-04    1.1263164299E-04    9.8909748562E-05    8.6717379370E-05
    7.5901822858E-05    6.6323561691E-05    5.7855349592E-05    5.0381331398E-05
    4.3796206986E-05    3.8004438599E-05    3.2919500918E-05    2.8463173072E-05
    2.4564871698E-05    2.1161023998E-05    1.8194479688E-05    1.5613960609E-05
    1.3373546742E-05    1.1432197272E-05    9.7533052807E-06    8.3042847343E-06
    7.0561881794E-06    5.9833537700E-06    5.0630801015E-06    4.2753273733E-06
    3.6024434038E-06    3.0289130365E-06    2.5411294981E-06    2.1271862987E-06
    1.7766882998E-06    1.4805806143E-06    1.2309940483E-06    1.0211058427E-06
    8.4501452360E-07    6.9762772509E-07    5.7456190465E-07    4.7205292749E-07
    3.8687655563E-07    3.1627793531E-07    2.5790923487E-07    2.0977464235E-07
    1.7018198902E-07    1.3770031943E-07    1.1112278218E-07    8.9434266597E-08
    7.1783259374E-08    5.7457441948E-08    4.5862593274E-08    3.6504404110E-08
    2.8972847744E-08    2.2928788173E-08    1.8092540275E-08    1.4234127389E-08
    1.1165010132E-08    8.7310862120E-09    6.8067846163E-09    5.2900989721E-09
    4.0984241585E-09    3.1650776114E-09    2.4364022627E-09    1.8693618691E-09
    1.4295517328E-09    1.0895586318E-09    8.2761328530E-10    6.2648700391E-10
    4.7259143627E-10    3.5524662147E-10
   </PP_CHI.1>
   <PP_CHI.2
       type="real"
       size="1106"
       columns="4"
       index="2"
       occupation=" 2.000"
       pseudo_energy="   -0.8622475152E+00"
       label="4S"
       l="0" >
    0.0000000000E+00    5.0033506534E-06    5.0662850573E-06    5.1300110785E-06
    5.1945386743E-06    5.2598779275E-06    5.3260390472E-06    5.3930323714E-06
    5.4608683679E-06    5.5295576362E-06    5.5991109091E-06    5.6695390544E-06
    5.7408530768E-06    5.8130641192E-06    5.8861834647E-06    5.9602225383E-06
    6.0351929088E-06    6.1111062905E-06    6.1879745450E-06    6.2658096831E-06
    6.3446238667E-06    6.4244294107E-06    6.5052387849E-06    6.5870646159E-06
    6.6699196891E-06    6.7538169508E-06    6.8387695102E-06    6.9247906413E-06
    7.0118937850E-06    7.1000925513E-06    7.1894007216E-06    7.2798322504E-06
    7.3714012678E-06    7.4641220816E-06    7.5580091797E-06    7.6530772321E-06
    7.7493410934E-06    7.8468158050E-06    7.9455165976E-06    8.0454588933E-06
    8.1466583083E-06    8.2491306553E-06    8.3528919457E-06    8.4579583925E-06
    8.5643464125E-06    8.6720726291E-06    8.7811538747E-06    8.8916071934E-06
    9.0034498439E-06    9.1166993017E-06    9.2313732624E-06    9.3474896439E-06
    9.4650665897E-06    9.5841224714E-06    9.7046758918E-06    9.8267456875E-06
    9.9503509323E-06    1.0075510940E-05    1.0202245266E-05    1.0330573714E-05
    1.0460516335E-05    1.0592093434E-05    1.0725325568E-05    1.0860233556E-05
    1.0996838478E-05    1.1135161678E-05    1.1275224770E-05    1.1417049639E-05
    1.1560658445E-05    1.1706073628E-05    1.1853317908E-05    1.2002414293E-05
    1.2153386081E-05    1.2306256859E-05    1.2461050515E-05    1.2617791236E-05
    1.2776503512E-05    1.2937212143E-05    1.3099942239E-05    1.3264719229E-05
    1.3431568857E-05    1.3600517196E-05    1.3771590643E-05    1.3944815929E-05
    1.4120220122E-05    1.4297830627E-05    1.4477675197E-05    1.4659781934E-05
    1.4844179291E-05    1.5030896082E-05    1.5219961481E-05    1.5411405030E-05
    1.5605256642E-05    1.5801546608E-05    1.6000305597E-05    1.6201564667E-05
    1.6405355264E-05    1.6611709231E-05    1.6820658812E-05    1.7032236655E-05
    1.7246475820E-05    1.7463409781E-05    1.7683072436E-05    1.7905498107E-05
    1.8130721549E-05    1.8358777953E-05    1.8589702953E-05    1.8823532633E-05
    1.9060303528E-05    1.9300052634E-05    1.9542817412E-05    1.9788635796E-05
    2.0037546194E-05    2.0289587500E-05    2.0544799095E-05    2.0803220857E-05
    2.1064893165E-05    2.1329856905E-05    2.1598153479E-05    2.1869824808E-05
    2.2144913342E-05    2.2423462064E-05    2.2705514498E-05    2.2991114715E-05
    2.3280307340E-05    2.3573137561E-05    2.3869651133E-05    2.4169894386E-05
    2.4473914235E-05    2.4781758182E-05    2.5093474331E-05    2.5409111385E-05
    2.5728718665E-05    2.6052346110E-05    2.6380044288E-05    2.6711864401E-05
    2.7047858298E-05    2.7388078477E-05    2.7732578100E-05    2.8081410995E-05
    2.8434631668E-05    2.8792295310E-05    2.9154457807E-05    2.9521175747E-05
    2.9892506432E-05    3.0268507882E-05    3.0649238848E-05    3.1034758821E-05
    3.1425128038E-05    3.1820407496E-05    3.2220658957E-05    3.2625944962E-05
    3.3036328838E-05    3.3451874708E-05    3.3872647502E-05    3.4298712967E-05
    3.4730137675E-05    3.5166989039E-05    3.5609335317E-05    3.6057245626E-05
    3.6510789954E-05    3.6970039168E-05    3.7435065026E-05    3.7905940190E-05
    3.8382738235E-05    3.8865533661E-05    3.9354401907E-05    3.9849419359E-05
    4.0350663364E-05    4.0858212244E-05    4.1372145303E-05    4.1892542844E-05
    4.2419486182E-05    4.2953057651E-05    4.3493340624E-05    4.4040419521E-05
    4.4594379824E-05    4.5155308091E-05    4.5723291968E-05    4.6298420203E-05
    4.6880782661E-05    4.7470470338E-05    4.8067575375E-05    4.8672191068E-05
    4.9284411892E-05    4.9904333508E-05    5.0532052778E-05    5.1167667785E-05
    5.1811277847E-05    5.2462983528E-05    5.3122886658E-05    5.3791090349E-05
    5.4467699009E-05    5.5152818360E-05    5.5846555453E-05    5.6549018685E-05
    5.7260317819E-05    5.7980563997E-05    5.8709869758E-05    5.9448349057E-05
    6.0196117285E-05    6.0953291281E-05    6.1719989355E-05    6.2496331306E-05
    6.3282438438E-05    6.4078433584E-05    6.4884441117E-05    6.5700586980E-05
    6.6526998697E-05    6.7363805396E-05    6.8211137830E-05    6.9069128397E-05
    6.9937911159E-05    7.0817621867E-05    7.1708397976E-05    7.2610378672E-05
    7.3523704892E-05    7.4448519345E-05    7.5384966536E-05    7.6333192785E-05
    7.7293346257E-05    7.8265576976E-05    7.9250036857E-05    8.0246879723E-05
    8.1256261333E-05    8.2278339406E-05    8.3313273642E-05    8.4361225754E-05
    8.5422359486E-05    8.6496840643E-05    8.7584837115E-05    8.8686518903E-05
    8.9802058148E-05    9.0931629156E-05    9.2075408425E-05    9.3233574672E-05
    9.4406308865E-05    9.5593794245E-05    9.6796216360E-05    9.8013763091E-05
    9.9246624683E-05    1.0049499377E-04    1.0175906542E-04    1.0303903714E-04
    1.0433510894E-04    1.0564748332E-04    1.0697636535E-04    1.0832196266E-04
    1.0968448552E-04    1.1106414682E-04    1.1246116213E-04    1.1387574975E-04
    1.1530813070E-04    1.1675852879E-04    1.1822717067E-04    1.1971428579E-04
    1.2122010654E-04    1.2274486820E-04    1.2428880901E-04    1.2585217023E-04
    1.2743519612E-04    1.2903813405E-04    1.3066123447E-04    1.3230475101E-04
    1.3396894045E-04    1.3565406285E-04    1.3736038149E-04    1.3908816301E-04
    1.4083767736E-04    1.4260919792E-04    1.4440300149E-04    1.4621936836E-04
    1.4805858234E-04    1.4992093081E-04    1.5180670477E-04    1.5371619887E-04
    1.5564971149E-04    1.5760754474E-04    1.5959000453E-04    1.6159740062E-04
    1.6363004669E-04    1.6568826034E-04    1.6777236317E-04    1.6988268083E-04
    1.7201954305E-04    1.7418328374E-04    1.7637424099E-04    1.7859275713E-04
    1.8083917881E-04    1.8311385706E-04    1.8541714729E-04    1.8774940939E-04
    1.9011100781E-04    1.9250231153E-04    1.9492369421E-04    1.9737553420E-04
    1.9985821461E-04    2.0237212337E-04    2.0491765327E-04    2.0749520208E-04
    2.1010517253E-04    2.1274797245E-04    2.1542401479E-04    2.1813371768E-04
    2.2087750453E-04    2.2365580407E-04    2.2646905040E-04    2.2931768312E-04
    2.3220214734E-04    2.3512289375E-04    2.3808037875E-04    2.4107506445E-04
    2.4410741877E-04    2.4717791555E-04    2.5028703455E-04    2.5343526159E-04
    2.5662308859E-04    2.5985101367E-04    2.6311954120E-04    2.6642918190E-04
    2.6978045292E-04    2.7317387791E-04    2.7660998712E-04    2.8008931744E-04
    2.8361241253E-04    2.8717982291E-04    2.9079210599E-04    2.9444982622E-04
    2.9815355512E-04    3.0190387143E-04    3.0570136114E-04    3.0954661765E-04
    3.1344024179E-04    3.1738284196E-04    3.2137503421E-04    3.2541744234E-04
    3.2951069802E-04    3.3365544082E-04    3.3785231839E-04    3.4210198651E-04
    3.4640510923E-04    3.5076235893E-04    3.5517441646E-04    3.5964197124E-04
    3.6416572133E-04    3.6874637362E-04    3.7338464386E-04    3.7808125681E-04
    3.8283694635E-04    3.8765245558E-04    3.9252853697E-04    3.9746595244E-04
    4.0246547350E-04    4.0752788136E-04    4.1265396706E-04    4.1784453159E-04
    4.2310038602E-04    4.2842235161E-04    4.3381125998E-04    4.3926795318E-04
    4.4479328387E-04    4.5038811543E-04    4.5605332210E-04    4.6178978912E-04
    4.6759841287E-04    4.7348010101E-04    4.7943577259E-04    4.8546635826E-04
    4.9157280036E-04    4.9775605307E-04    5.0401708260E-04    5.1035686730E-04
    5.1677639783E-04    5.2327667732E-04    5.2985872150E-04    5.3652355889E-04
    5.4327223097E-04    5.5010579229E-04    5.5702531067E-04    5.6403186738E-04
    5.7112655729E-04    5.7831048903E-04    5.8558478518E-04    5.9295058247E-04
    6.0040903189E-04    6.0796129894E-04    6.1560856377E-04    6.2335202138E-04
    6.3119288180E-04    6.3913237029E-04    6.4717172753E-04    6.5531220978E-04
    6.6355508914E-04    6.7190165371E-04    6.8035320777E-04    6.8891107202E-04
    6.9757658381E-04    7.0635109726E-04    7.1523598358E-04    7.2423263118E-04
    7.3334244599E-04    7.4256685159E-04    7.5190728949E-04    7.6136521933E-04
    7.7094211912E-04    7.8063948546E-04    7.9045883379E-04    8.0040169862E-04
    8.1046963375E-04    8.2066421254E-04    8.3098702815E-04    8.4143969379E-04
    8.5202384296E-04    8.6274112971E-04    8.7359322892E-04    8.8458183654E-04
    8.9570866983E-04    9.0697546771E-04    9.1838399095E-04    9.2993602249E-04
    9.4163336768E-04    9.5347785462E-04    9.6547133441E-04    9.7761568143E-04
    9.8991279365E-04    1.0023645929E-03    1.0149730253E-03    1.0277400614E-03
    1.0406676964E-03    1.0537579509E-03    1.0670128706E-03    1.0804345273E-03
    1.0940250186E-03    1.1077864687E-03    1.1217210283E-03    1.1358308753E-03
    1.1501182152E-03    1.1645852808E-03    1.1792343335E-03    1.1940676628E-03
    1.2090875873E-03    1.2242964545E-03    1.2396966417E-03    1.2552905559E-03
    1.2710806347E-03    1.2870693460E-03    1.3032591891E-03    1.3196526946E-03
    1.3362524251E-03    1.3530609751E-03    1.3700809722E-03    1.3873150770E-03
    1.4047659832E-03    1.4224364190E-03    1.4403291465E-03    1.4584469628E-03
    1.4767927001E-03    1.4953692264E-03    1.5141794457E-03    1.5332262987E-03
    1.5525127628E-03    1.5720418534E-03    1.5918166235E-03    1.6118401646E-03
    1.6321156073E-03    1.6526461215E-03    1.6734349170E-03    1.6944852441E-03
    1.7158003940E-03    1.7373836994E-03    1.7592385350E-03    1.7813683179E-03
    1.8037765083E-03    1.8264666101E-03    1.8494421713E-03    1.8727067844E-03
    1.8962640874E-03    1.9201177641E-03    1.9442715447E-03    1.9687292063E-03
    1.9934945738E-03    2.0185715201E-03    2.0439639671E-03    2.0696758860E-03
    2.0957112981E-03    2.1220742753E-03    2.1487689411E-03    2.1757994708E-03
    2.2031700921E-03    2.2308850865E-03    2.2589487891E-03    2.2873655898E-03
    2.3161399340E-03    2.3452763228E-03    2.3747793144E-03    2.4046535245E-03
    2.4349036266E-03    2.4655343538E-03    2.4965504983E-03    2.5279569132E-03
    2.5597585125E-03    2.5919602726E-03    2.6245672323E-03    2.6575844942E-03
    2.6910172253E-03    2.7248706578E-03    2.7591500899E-03    2.7938608867E-03
    2.8290084812E-03    2.8645983748E-03    2.9006361385E-03    2.9371274136E-03
    2.9740779126E-03    3.0114934203E-03    3.0493797946E-03    3.0877429672E-03
    3.1265889450E-03    3.1659238107E-03    3.2057537239E-03    3.2460849221E-03
    3.2869237215E-03    3.3282765184E-03    3.3701497898E-03    3.4125500949E-03
    3.4554840754E-03    3.4989584576E-03    3.5429800523E-03    3.5875557571E-03
    3.6326925564E-03    3.6783975233E-03    3.7246778204E-03    3.7715407010E-03
    3.8189935102E-03    3.8670436862E-03    3.9156987615E-03    3.9649663639E-03
    4.0148542180E-03    4.0653701463E-03    4.1165220705E-03    4.1683180128E-03
    4.2207660969E-03    4.2738745500E-03    4.3276517033E-03    4.3821059941E-03
    4.4372459664E-03    4.4930802731E-03    4.5496176767E-03    4.6068670513E-03
    4.6648373836E-03    4.7235377746E-03    4.7829774409E-03    4.8431657164E-03
    4.9041120538E-03    4.9658260260E-03    5.0283173278E-03    5.0915957774E-03
    5.1556713180E-03    5.2205540196E-03    5.2862540805E-03    5.3527818290E-03
    5.4201477251E-03    5.4883623622E-03    5.5574364689E-03    5.6273809110E-03
    5.6982066927E-03    5.7699249590E-03    5.8425469973E-03    5.9160842393E-03
    5.9905482630E-03    6.0659507944E-03    6.1423037099E-03    6.2196190376E-03
    6.2979089600E-03    6.3771858158E-03    6.4574621017E-03    6.5387504751E-03
    6.6210637554E-03    6.7044149272E-03    6.7888171415E-03    6.8742837186E-03
    6.9608281503E-03    7.0484641017E-03    7.1372054142E-03    7.2270661073E-03
    7.3180603816E-03    7.4102026207E-03    7.5035073937E-03    7.5979894583E-03
    7.6936637628E-03    7.7905454487E-03    7.8886498537E-03    7.9879925141E-03
    8.0885891675E-03    8.1904557559E-03    8.2936084279E-03    8.3980635421E-03
    8.5038376698E-03    8.6109475979E-03    8.7194103319E-03    8.8292430990E-03
    8.9404633510E-03    9.0530887676E-03    9.1671372597E-03    9.2826269724E-03
    9.3995762883E-03    9.5180038310E-03    9.6379284683E-03    9.7593693159E-03
    9.8823457407E-03    1.0006877365E-02    1.0132984068E-02    1.0260685993E-02
    1.0390003548E-02    1.0520957412E-02    1.0653568535E-02    1.0787858149E-02
    1.0923847763E-02    1.1061559174E-02    1.1201014470E-02    1.1342236032E-02
    1.1485246537E-02    1.1630068969E-02    1.1776726618E-02    1.1925243084E-02
    1.2075642286E-02    1.2227948463E-02    1.2382186180E-02    1.2538380334E-02
    1.2696556157E-02    1.2856739223E-02    1.3018955450E-02    1.3183231111E-02
    1.3349592834E-02    1.3518067609E-02    1.3688682794E-02    1.3861466123E-02
    1.4036445707E-02    1.4213650043E-02    1.4393108022E-02    1.4574848928E-02
    1.4758902454E-02    1.4945298700E-02    1.5134068185E-02    1.5325241850E-02
    1.5518851069E-02    1.5714927650E-02    1.5913503850E-02    1.6114612373E-02
    1.6318286387E-02    1.6524559524E-02    1.6733465892E-02    1.6945040080E-02
    1.7159317170E-02    1.7376332741E-02    1.7596122880E-02    1.7818724191E-02
    1.8044173800E-02    1.8272509370E-02    1.8503769106E-02    1.8737991764E-02
    1.8975216664E-02    1.9215483699E-02    1.9458833340E-02    1.9705306654E-02
    1.9954945310E-02    2.0207791591E-02    2.0463888405E-02    2.0723279295E-02
    2.0986008452E-02    2.1252120730E-02    2.1521661650E-02    2.1794677421E-02
    2.2071214947E-02    2.2351321843E-02    2.2635046448E-02    2.2922437838E-02
    2.3213545841E-02    2.3508421049E-02    2.3807114836E-02    2.4109679371E-02
    2.4416167637E-02    2.4726633441E-02    2.5041131434E-02    2.5359717130E-02
    2.5682446918E-02    2.6009378083E-02    2.6340568824E-02    2.6676078270E-02
    2.7015966504E-02    2.7360294578E-02    2.7709124534E-02    2.8062519425E-02
    2.8420543339E-02    2.8783261416E-02    2.9150739872E-02    2.9523046025E-02
    2.9900248313E-02    3.0282416323E-02    3.0669620813E-02    3.1061933739E-02
    3.1459428281E-02    3.1862178867E-02    3.2270261207E-02    3.2683752314E-02
    3.3102730539E-02    3.3527275599E-02    3.3957468604E-02    3.4393392098E-02
    3.4835130080E-02    3.5282768047E-02    3.5736393024E-02    3.6196093599E-02
    3.6661959961E-02    3.7134083936E-02    3.7612559026E-02    3.8097480449E-02
    3.8588945180E-02    3.9087051991E-02    3.9591901492E-02    4.0103596181E-02
    4.0622240485E-02    4.1147940807E-02    4.1680805575E-02    4.2220945289E-02
    4.2768472575E-02    4.3323502234E-02    4.3886151295E-02    4.4456539075E-02
    4.5034787228E-02    4.5621019807E-02    4.6215363327E-02    4.6817946818E-02
    4.7428901894E-02    4.8048362816E-02    4.8676466558E-02    4.9313352876E-02
    4.9959164377E-02    5.0614046590E-02    5.1278148044E-02    5.1951620338E-02
    5.2634618224E-02    5.3327299682E-02    5.4029826008E-02    5.4742361892E-02
    5.5465075507E-02    5.6198138599E-02    5.6941726574E-02    5.7696018597E-02
    5.8461197679E-02    5.9237450782E-02    6.0024968918E-02    6.0823947248E-02
    6.1634585190E-02    6.2457086527E-02    6.3291659516E-02    6.4138517002E-02
    6.4997876530E-02    6.5869960470E-02    6.6754996129E-02    6.7653215882E-02
    6.8564857292E-02    6.9490163244E-02    7.0429382071E-02    7.1382767694E-02
    7.2350579753E-02    7.3333083750E-02    7.4330551190E-02    7.5343259726E-02
    7.6371493305E-02    7.7415542322E-02    7.8475703766E-02    7.9552281380E-02
    8.0645585816E-02    8.1755934797E-02    8.2883653274E-02    8.4029073596E-02
    8.5192535671E-02    8.6374387139E-02    8.7574983536E-02    8.8794688470E-02
    9.0033873793E-02    9.1292919776E-02    9.2572215280E-02    9.3872157941E-02
    9.5193154337E-02    9.6535620174E-02    9.7899980462E-02    9.9286669687E-02
    1.0069613200E-01    1.0212882138E-01    1.0358520181E-01    1.0506574749E-01
    1.0657094293E-01    1.0810128320E-01    1.0965727407E-01    1.1123943215E-01
    1.1284828507E-01    1.1448437165E-01    1.1614824203E-01    1.1784045784E-01
    1.1956159232E-01    1.2131223044E-01    1.2309296906E-01    1.2490441706E-01
    1.2674719538E-01    1.2862193720E-01    1.3052928797E-01    1.3246990553E-01
    1.3444446014E-01    1.3645363458E-01    1.3849812413E-01    1.4057863665E-01
    1.4269589253E-01    1.4485062475E-01    1.4704357878E-01    1.4927551259E-01
    1.5154719656E-01    1.5385941336E-01    1.5621295791E-01    1.5860863718E-01
    1.6104727003E-01    1.6352968708E-01    1.6605673043E-01    1.6862925344E-01
    1.7124812046E-01    1.7391420650E-01    1.7662839692E-01    1.7939158704E-01
    1.8220468170E-01    1.8506859487E-01    1.8798424911E-01    1.9095257509E-01
    1.9397451097E-01    1.9705100184E-01    2.0018299905E-01    2.0337145949E-01
    2.0661734491E-01    2.0992162104E-01    2.1328525685E-01    2.1670922358E-01
    2.2019449387E-01    2.2374204073E-01    2.2735283651E-01    2.3102785181E-01
    2.3476805433E-01    2.3857440768E-01    2.4244787007E-01    2.4638939305E-01
    2.5039992007E-01    2.5448038508E-01    2.5863171100E-01    2.6285480813E-01
    2.6715057252E-01    2.7151988427E-01    2.7596360569E-01    2.8048257944E-01
    2.8507762661E-01    2.8974954458E-01    2.9449910499E-01    2.9932705136E-01
    3.0423409682E-01    3.0922092159E-01    3.1428817036E-01    3.1943644950E-01
    3.2466632418E-01    3.2997831525E-01    3.3537289592E-01    3.4085048831E-01
    3.4641145964E-01    3.5205611826E-01    3.5778470938E-01    3.6359741040E-01
    3.6949432599E-01    3.7547548273E-01    3.8154082331E-01    3.8769020030E-01
    3.9392336938E-01    4.0023998196E-01    4.0663957731E-01    4.1312157386E-01
    4.1968525987E-01    4.2632978330E-01    4.3305414080E-01    4.3985716577E-01
    4.4673751554E-01    4.5369365738E-01    4.6072385352E-01    4.6782614498E-01
    4.7499833417E-01    4.8223796628E-01    4.8954230938E-01    4.9690833317E-01
    5.0433268647E-01    5.1181167338E-01    5.1934122808E-01    5.2691688850E-01
    5.3453376879E-01    5.4218653063E-01    5.4986935381E-01    5.5757590592E-01
    5.6529931162E-01    5.7303212161E-01    5.8076628176E-01    5.8849310265E-01
    5.9620323006E-01    6.0388661689E-01    6.1153249701E-01    6.1912936186E-01
    6.2666494027E-01    6.3412618249E-01    6.4149924912E-01    6.4876950601E-01
    6.5592152587E-01    6.6293909778E-01    6.6980524556E-01    6.7650225607E-01
    6.8301171846E-01    6.8931457540E-01    6.9539118738E-01    7.0122141075E-01
    7.0678469051E-01    7.1206016833E-01    7.1702680625E-01    7.2166352630E-01
    7.2594936581E-01    7.2986364810E-01    7.3338616756E-01    7.3649738793E-01
    7.3917865196E-01    7.4141240006E-01    7.4318239518E-01    7.4447395034E-01
    7.4527415473E-01    7.4557209369E-01    7.4535905728E-01    7.4462873163E-01
    7.4337736679E-01    7.4160391435E-01    7.3931012820E-01    7.3650062119E-01
    7.3318287121E-01    7.2936717021E-01    7.2506651052E-01    7.2029640378E-01
    7.1507462921E-01    7.0942090951E-01    7.0335651493E-01    6.9690379826E-01
    6.9008566646E-01    6.8292499759E-01    6.7544401491E-01    6.6766363295E-01
    6.5960279684E-01    6.5127783777E-01    6.4270218978E-01    6.3388804080E-01
    6.2484770947E-01    6.1559365579E-01    6.0613847075E-01    5.9649485390E-01
    5.8667559125E-01    5.7669353315E-01    5.6656157226E-01    5.5629262153E-01
    5.4589959234E-01    5.3539537280E-01    5.2479280623E-01    5.1410466995E-01
    5.0334365429E-01    4.9252234201E-01    4.8165318799E-01    4.7074849944E-01
    4.5982041643E-01    4.4888089295E-01    4.3794167851E-01    4.2701430017E-01
    4.1611004525E-01    4.0523994458E-01    3.9441475640E-01    3.8364495092E-01
    3.7294069563E-01    3.6231184127E-01    3.5176790868E-01    3.4131807638E-01
    3.3097116905E-01    3.2073564687E-01    3.1061959579E-01    3.0063071882E-01
    2.9077632822E-01    2.8106333877E-01    2.7149826214E-01    2.6208720220E-01
    2.5283585161E-01    2.4374948940E-01    2.3483297971E-01    2.2609077166E-01
    2.1752690038E-01    2.0914498910E-01    2.0094825239E-01    1.9293950043E-01
    1.8512114439E-01    1.7749520277E-01    1.7006330874E-01    1.6282671840E-01
    1.5578631987E-01    1.4894264329E-01    1.4229587148E-01    1.3584585132E-01
    1.2959210577E-01    1.2353384645E-01    1.1766998666E-01    1.1199915491E-01
    1.0651970867E-01    1.0122974854E-01    9.6127132544E-02    9.1209490577E-02
    8.6474238986E-02    8.1918595132E-02    7.7539591924E-02    7.3334092273E-02
    6.9298803388E-02    6.5430290887E-02    6.1724992672E-02    5.8179232514E-02
    5.4789233331E-02    5.1551130112E-02    4.8460982460E-02    4.5514786738E-02
    4.2708487780E-02    4.0037990174E-02    3.7499169084E-02    3.5087880610E-02
    3.2799971692E-02    3.0631289534E-02    2.8577690571E-02    2.6635048969E-02
    2.4799264670E-02    2.3066270986E-02    2.1432041754E-02    1.9892598058E-02
    1.8444014525E-02    1.7082425215E-02    1.5804029097E-02    1.4605095132E-02
    1.3481966969E-02    1.2431067253E-02    1.1448901557E-02    1.0532061943E-02
    9.6772301487E-03    8.8811804179E-03    8.1407819605E-03    7.4530010607E-03
    6.8149028286E-03    6.2236526034E-03    5.6765170115E-03    5.1708646867E-03
    4.7041666575E-03    4.2739964195E-03    3.8780296743E-03    3.5140437987E-03
    3.1799169952E-03    2.8736271807E-03    2.5932506124E-03    2.3369602680E-03
    2.1030239999E-03    1.8898024780E-03    1.6957469435E-03    1.5193967896E-03
    1.3593769910E-03    1.2143954001E-03    1.0832399311E-03    9.6477564991E-04
    8.5794178985E-04    7.6174871178E-04    6.7527482583E-04    5.9766349260E-04
    5.2811991965E-04    4.6590806878E-04    4.1034758830E-04    3.6081078355E-04
    3.1671963753E-04    2.7754289280E-04    2.4279320408E-04    2.1202437037E-04
    1.8482865378E-04    1.6083419143E-04    1.3970250562E-04    1.2112611631E-04
    1.0482625914E-04    9.0550710989E-05    7.8071724571E-05    6.7184072350E-05
    5.7703199587E-05    4.9463485493E-05    4.2316610917E-05    3.6130030397E-05
    3.0785545982E-05    2.6177979752E-05    2.2213941667E-05    1.8810689066E-05
    1.5895073897E-05    1.3402573606E-05    1.1276401473E-05    9.4666921087E-06
    7.9297577989E-06    6.6274113820E-06
   </PP_CHI.2>
   <PP_CHI.3
       type="real"
       size="1106"
       columns="4"
       index="3"
       occupation=" 2.000"
       pseudo_energy="   -0.2863083290E+00"
       label="4P"
       l="1" >
    0.0000000000E+00    4.6890916290E-11    4.8077965489E-11    4.9295064981E-11
    5.0542975494E-11    5.1822477012E-11    5.3134369265E-11    5.4479472228E-11
    5.5858626636E-11    5.7272694503E-11    5.8722559669E-11    6.0209128346E-11
    6.1733329689E-11    6.3296116372E-11    6.4898465188E-11    6.6541377658E-11
    6.8225880656E-11    6.9953027049E-11    7.1723896362E-11    7.3539595445E-11
    7.5401259169E-11    7.7310051135E-11    7.9267164400E-11    8.1273822222E-11
    8.3331278830E-11    8.5440820199E-11    8.7603764863E-11    8.9821464731E-11
    9.2095305939E-11    9.4426709712E-11    9.6817133252E-11    9.9268070652E-11
    1.0178105383E-10    1.0435765348E-10    1.0699948005E-10    1.0970818479E-10
    1.1248546071E-10    1.1533304371E-10    1.1825271362E-10    1.2124629532E-10
    1.2431565990E-10    1.2746272582E-10    1.3068946009E-10    1.3399787953E-10
    1.3739005200E-10    1.4086809773E-10    1.4443419061E-10    1.4809055956E-10
    1.5183948993E-10    1.5568332492E-10    1.5962446706E-10    1.6366537969E-10
    1.6780858851E-10    1.7205668316E-10    1.7641231884E-10    1.8087821796E-10
    1.8545717185E-10    1.9015204252E-10    1.9496576440E-10    1.9990134623E-10
    2.0496187291E-10    2.1015050743E-10    2.1547049287E-10    2.2092515437E-10
    2.2651790129E-10    2.3225222927E-10    2.3813172246E-10    2.4416005573E-10
    2.5034099698E-10    2.5667840950E-10    2.6317625438E-10    2.6983859299E-10
    2.7666958951E-10    2.8367351353E-10    2.9085474273E-10    2.9821776561E-10
    3.0576718431E-10    3.1350771745E-10    3.2144420312E-10    3.2958160188E-10
    3.3792499987E-10    3.4647961199E-10    3.5525078515E-10    3.6424400161E-10
    3.7346488243E-10    3.8291919097E-10    3.9261283646E-10    4.0255187776E-10
    4.1274252709E-10    4.2319115394E-10    4.3390428904E-10    4.4488862844E-10
    4.5615103772E-10    4.6769855625E-10    4.7953840161E-10    4.9167797408E-10
    5.0412486129E-10    5.1688684295E-10    5.2997189572E-10    5.4338819818E-10
    5.5714413595E-10    5.7124830695E-10    5.8570952674E-10    6.0053683405E-10
    6.1573949644E-10    6.3132701606E-10    6.4730913563E-10    6.6369584448E-10
    6.8049738484E-10    6.9772425822E-10    7.1538723198E-10    7.3349734606E-10
    7.5206591986E-10    7.7110455934E-10    7.9062516429E-10    8.1063993571E-10
    8.3116138348E-10    8.5220233417E-10    8.7377593908E-10    8.9589568240E-10
    9.1857538970E-10    9.4182923652E-10    9.6567175728E-10    9.9011785434E-10
    1.0151828073E-09    1.0408822826E-09    1.0672323432E-09    1.0942494587E-09
    1.1219505158E-09    1.1503528285E-09    1.1794741492E-09    1.2093326796E-09
    1.2399470824E-09    1.2713364924E-09    1.3035205292E-09    1.3365193087E-09
    1.3703534564E-09    1.4050441196E-09    1.4406129811E-09    1.4770822726E-09
    1.5144747886E-09    1.5528139008E-09    1.5921235722E-09    1.6324283726E-09
    1.6737534940E-09    1.7161247658E-09    1.7595686715E-09    1.8041123649E-09
    1.8497836873E-09    1.8966111848E-09    1.9446241260E-09    1.9938525206E-09
    2.0443271380E-09    2.0960795265E-09    2.1491420329E-09    2.2035478232E-09
    2.2593309025E-09    2.3165261373E-09    2.3751692764E-09    2.4352969737E-09
    2.4969468109E-09    2.5601573212E-09    2.6249680132E-09    2.6914193958E-09
    2.7595530032E-09    2.8294114211E-09    2.9010383133E-09    2.9744784489E-09
    3.0497777306E-09    3.1269832226E-09    3.2061431811E-09    3.2873070835E-09
    3.3705256600E-09    3.4558509248E-09    3.5433362091E-09    3.6330361940E-09
    3.7250069448E-09    3.8193059465E-09    3.9159921388E-09    4.0151259538E-09
    4.1167693533E-09    4.2209858679E-09    4.3278406363E-09    4.4374004461E-09
    4.5497337758E-09    4.6649108375E-09    4.7830036204E-09    4.9040859366E-09
    5.0282334663E-09    5.1555238059E-09    5.2860365159E-09    5.4198531711E-09
    5.5570574112E-09    5.6977349934E-09    5.8419738458E-09    5.9898641223E-09
    6.1414982592E-09    6.2969710328E-09    6.4563796187E-09    6.6198236524E-09
    6.7874052918E-09    6.9592292808E-09    7.1354030152E-09    7.3160366092E-09
    7.5012429648E-09    7.6911378419E-09    7.8858399311E-09    8.0854709276E-09
    8.2901556072E-09    8.5000219046E-09    8.7152009930E-09    8.9358273665E-09
    9.1620389238E-09    9.3939770544E-09    9.6317867273E-09    9.8756165813E-09
    1.0125619018E-08    1.0381950297E-08    1.0644770635E-08    1.0914244301E-08
    1.1190539726E-08    1.1473829605E-08    1.1764291001E-08    1.2062105464E-08
    1.2367459137E-08    1.2680542875E-08    1.3001552367E-08    1.3330688255E-08
    1.3668156258E-08    1.4014167305E-08    1.4368937665E-08    1.4732689081E-08
    1.5105648909E-08    1.5488050261E-08    1.5880132152E-08    1.6282139644E-08
    1.6694324006E-08    1.7116942867E-08    1.7550260377E-08    1.7994547373E-08
    1.8450081551E-08    1.8917147634E-08    1.9396037553E-08    1.9887050630E-08
    2.0390493765E-08    2.0906681627E-08    2.1435936849E-08    2.1978590233E-08
    2.2534980957E-08    2.3105456782E-08    2.3690374275E-08    2.4290099028E-08
    2.4905005889E-08    2.5535479196E-08    2.6181913014E-08    2.6844711387E-08
    2.7524288585E-08    2.8221069366E-08    2.8935489242E-08    2.9667994748E-08
    3.0419043726E-08    3.1189105604E-08    3.1978661698E-08    3.2788205506E-08
    3.3618243020E-08    3.4469293041E-08    3.5341887503E-08    3.6236571807E-08
    3.7153905161E-08    3.8094460927E-08    3.9058826985E-08    4.0047606096E-08
    4.1061416280E-08    4.2100891201E-08    4.3166680566E-08    4.4259450529E-08
    4.5379884108E-08    4.6528681611E-08    4.7706561075E-08    4.8914258714E-08
    5.0152529380E-08    5.1422147032E-08    5.2723905225E-08    5.4058617602E-08
    5.5427118401E-08    5.6830262983E-08    5.8268928359E-08    5.9744013744E-08
    6.1256441116E-08    6.2807155793E-08    6.4397127024E-08    6.6027348594E-08
    6.7698839447E-08    6.9412644322E-08    7.1169834405E-08    7.2971507998E-08
    7.4818791209E-08    7.6712838652E-08    7.8654834172E-08    8.0645991582E-08
    8.2687555422E-08    8.4780801741E-08    8.6927038888E-08    8.9127608335E-08
    9.1383885512E-08    9.3697280672E-08    9.6069239764E-08    9.8501245344E-08
    1.0099481750E-07    1.0355151480E-07    1.0617293527E-07    1.0886071739E-07
    1.1161654110E-07    1.1444212891E-07    1.1733924690E-07    1.2030970586E-07
    1.2335536244E-07    1.2647812028E-07    1.2967993122E-07    1.3296279649E-07
    1.3632876800E-07    1.3977994960E-07    1.4331849840E-07    1.4694662613E-07
    1.5066660048E-07    1.5448074657E-07    1.5839144839E-07    1.6240115025E-07
    1.6651235836E-07    1.7072764238E-07    1.7504963700E-07    1.7948104363E-07
    1.8402463206E-07    1.8868324219E-07    1.9345978582E-07    1.9835724847E-07
    2.0337869123E-07    2.0852725267E-07    2.1380615084E-07    2.1921868525E-07
    2.2476823892E-07    2.3045828052E-07    2.3629236656E-07    2.4227414354E-07
    2.4840735029E-07    2.5469582030E-07    2.6114348410E-07    2.6775437172E-07
    2.7453261520E-07    2.8148245121E-07    2.8860822366E-07    2.9591438643E-07
    3.0340550614E-07    3.1108626503E-07    3.1896146387E-07    3.2703602496E-07
    3.3531499521E-07    3.4380354930E-07    3.5250699291E-07    3.6143076603E-07
    3.7058044637E-07    3.7996175284E-07    3.8958054912E-07    3.9944284735E-07
    4.0955481186E-07    4.1992276302E-07    4.3055318124E-07    4.4145271095E-07
    4.5262816479E-07    4.6408652789E-07    4.7583496220E-07    4.8788081097E-07
    5.0023160335E-07    5.1289505912E-07    5.2587909345E-07    5.3919182193E-07
    5.5284156557E-07    5.6683685605E-07    5.8118644103E-07    5.9589928961E-07
    6.1098459798E-07    6.2645179510E-07    6.4231054866E-07    6.5857077109E-07
    6.7524262575E-07    6.9233653331E-07    7.0986317822E-07    7.2783351545E-07
    7.4625877727E-07    7.6515048035E-07    7.8452043286E-07    8.0438074194E-07
    8.2474382124E-07    8.4562239863E-07    8.6702952426E-07    8.8897857860E-07
    9.1148328089E-07    9.3455769768E-07    9.5821625163E-07    9.8247373054E-07
    1.0073452965E-06    1.0328464957E-06    1.0589932674E-06    1.0858019550E-06
    1.1132893151E-06    1.1414725290E-06    1.1703692125E-06    1.1999974277E-06
    1.2303756938E-06    1.2615229990E-06    1.2934588120E-06    1.3262030946E-06
    1.3597763137E-06    1.3941994546E-06    1.4294940338E-06    1.4656821124E-06
    1.5027863101E-06    1.5408298194E-06    1.5798364197E-06    1.6198304925E-06
    1.6608370367E-06    1.7028816839E-06    1.7459907148E-06    1.7901910753E-06
    1.8355103935E-06    1.8819769969E-06    1.9296199305E-06    1.9784689741E-06
    2.0285546620E-06    2.0799083010E-06    2.1325619910E-06    2.1865486442E-06
    2.2419020063E-06    2.2986566772E-06    2.3568481328E-06    2.4165127472E-06
    2.4776878154E-06    2.5404115767E-06    2.6047232383E-06    2.6706630002E-06
    2.7382720803E-06    2.8075927398E-06    2.8786683099E-06    2.9515432191E-06
    3.0262630204E-06    3.1028744203E-06    3.1814253079E-06    3.2619647847E-06
    3.3445431953E-06    3.4292121591E-06    3.5160246021E-06    3.6050347908E-06
    3.6962983652E-06    3.7898723744E-06    3.8858153116E-06    3.9841871514E-06
    4.0850493864E-06    4.1884650665E-06    4.2944988379E-06    4.4032169836E-06
    4.5146874647E-06    4.6289799634E-06    4.7461659258E-06    4.8663186074E-06
    4.9895131182E-06    5.1158264703E-06    5.2453376255E-06    5.3781275451E-06
    5.5142792403E-06    5.6538778242E-06    5.7970105651E-06    5.9437669410E-06
    6.0942386955E-06    6.2485198954E-06    6.4067069891E-06    6.5688988675E-06
    6.7351969257E-06    6.9057051258E-06    7.0805300630E-06    7.2597810314E-06
    7.4435700927E-06    7.6320121463E-06    7.8252250014E-06    8.0233294501E-06
    8.2264493437E-06    8.4347116694E-06    8.6482466307E-06    8.8671877278E-06
    9.0916718421E-06    9.3218393211E-06    9.5578340668E-06    9.7998036251E-06
    1.0047899279E-05    1.0302276142E-05    1.0563093256E-05    1.0830513693E-05
    1.1104704651E-05    1.1385837566E-05    1.1674088213E-05    1.1969636822E-05
    1.2272668184E-05    1.2583371773E-05    1.2901941862E-05    1.3228577643E-05
    1.3563483354E-05    1.3906868405E-05    1.4258947513E-05    1.4619940830E-05
    1.4990074087E-05    1.5369578732E-05    1.5758692075E-05    1.6157657438E-05
    1.6566724307E-05    1.6986148488E-05    1.7416192264E-05    1.7857124568E-05
    1.8309221140E-05    1.8772764709E-05    1.9248045166E-05    1.9735359746E-05
    2.0235013214E-05    2.0747318056E-05    2.1272594676E-05    2.1811171596E-05
    2.2363385661E-05    2.2929582251E-05    2.3510115498E-05    2.4105348504E-05
    2.4715653577E-05    2.5341412455E-05    2.5983016551E-05    2.6640867196E-05
    2.7315375893E-05    2.8006964572E-05    2.8716065855E-05    2.9443123332E-05
    3.0188591832E-05    3.0952937712E-05    3.1736639152E-05    3.2540186450E-05
    3.3364082332E-05    3.4208842267E-05    3.5074994793E-05    3.5963081843E-05
    3.6873659092E-05    3.7807296300E-05    3.8764577673E-05    3.9746102228E-05
    4.0752484171E-05    4.1784353281E-05    4.2842355305E-05    4.3927152368E-05
    4.5039423383E-05    4.6179864480E-05    4.7349189445E-05    4.8548130167E-05
    4.9777437097E-05    5.1037879723E-05    5.2330247050E-05    5.3655348098E-05
    5.5014012412E-05    5.6407090581E-05    5.7835454775E-05    5.9299999293E-05
    6.0801641127E-05    6.2341320537E-05    6.3920001645E-05    6.5538673039E-05
    6.7198348402E-05    6.8900067141E-05    7.0644895051E-05    7.2433924981E-05
    7.4268277523E-05    7.6149101722E-05    7.8077575795E-05    8.0054907882E-05
    8.2082336797E-05    8.4161132821E-05    8.6292598496E-05    8.8478069450E-05
    9.0718915238E-05    9.3016540213E-05    9.5372384405E-05    9.7787924437E-05
    1.0026467445E-04    1.0280418708E-04    1.0540805442E-04    1.0807790902E-04
    1.1081542495E-04    1.1362231883E-04    1.1650035095E-04    1.1945132634E-04
    1.2247709596E-04    1.2557955784E-04    1.2876065829E-04    1.3202239315E-04
    1.3536680904E-04    1.3879600466E-04    1.4231213214E-04    1.4591739838E-04
    1.4961406648E-04    1.5340445716E-04    1.5729095022E-04    1.6127598612E-04
    1.6536206743E-04    1.6955176054E-04    1.7384769720E-04    1.7825257625E-04
    1.8276916532E-04    1.8740030259E-04    1.9214889864E-04    1.9701793826E-04
    2.0201048239E-04    2.0712967006E-04    2.1237872041E-04    2.1776093474E-04
    2.2327969864E-04    2.2893848413E-04    2.3474085193E-04    2.4069045369E-04
    2.4679103440E-04    2.5304643474E-04    2.5946059356E-04    2.6603755045E-04
    2.7278144830E-04    2.7969653599E-04    2.8678717111E-04    2.9405782280E-04
    3.0151307462E-04    3.0915762751E-04    3.1699630283E-04    3.2503404549E-04
    3.3327592714E-04    3.4172714949E-04    3.5039304764E-04    3.5927909357E-04
    3.6839089970E-04    3.7773422255E-04    3.8731496647E-04    3.9713918749E-04
    4.0721309730E-04    4.1754306728E-04    4.2813563268E-04    4.3899749690E-04
    4.5013553589E-04    4.6155680265E-04    4.7326853186E-04    4.8527814468E-04
    4.9759325358E-04    5.1022166740E-04    5.2317139649E-04    5.3645065803E-04
    5.5006788141E-04    5.6403171391E-04    5.7835102635E-04    5.9303491905E-04
    6.0809272787E-04    6.2353403041E-04    6.3936865244E-04    6.5560667447E-04
    6.7225843847E-04    6.8933455484E-04    7.0684590953E-04    7.2480367137E-04
    7.4321929958E-04    7.6210455156E-04    7.8147149078E-04    8.0133249502E-04
    8.2170026474E-04    8.4258783173E-04    8.6400856798E-04    8.8597619486E-04
    9.0850479245E-04    9.3160880926E-04    9.5530307209E-04    9.7960279631E-04
    1.0045235963E-03    1.0300814963E-03    1.0562929416E-03    1.0831748097E-03
    1.1107444223E-03    1.1390195573E-03    1.1680184614E-03    1.1977598627E-03
    1.2282629838E-03    1.2595475558E-03    1.2916338317E-03    1.3245426012E-03
    1.3582952049E-03    1.3929135505E-03    1.4284201273E-03    1.4648380231E-03
    1.5021909406E-03    1.5405032144E-03    1.5797998286E-03    1.6201064351E-03
    1.6614493719E-03    1.7038556826E-03    1.7473531364E-03    1.7919702479E-03
    1.8377362986E-03    1.8846813583E-03    1.9328363076E-03    1.9822328606E-03
    2.0329035888E-03    2.0848819455E-03    2.1382022910E-03    2.1928999182E-03
    2.2490110797E-03    2.3065730153E-03    2.3656239802E-03    2.4262032746E-03
    2.4883512736E-03    2.5521094587E-03    2.6175204496E-03    2.6846280378E-03
    2.7534772201E-03    2.8241142347E-03    2.8965865971E-03    2.9709431376E-03
    3.0472340405E-03    3.1255108836E-03    3.2058266799E-03    3.2882359200E-03
    3.3727946161E-03    3.4595603475E-03    3.5485923074E-03    3.6399513513E-03
    3.7337000472E-03    3.8299027268E-03    3.9286255393E-03    4.0299365060E-03
    4.1339055778E-03    4.2406046930E-03    4.3501078389E-03    4.4624911141E-03
    4.5778327931E-03    4.6962133937E-03    4.8177157457E-03    4.9424250625E-03
    5.0704290152E-03    5.2018178086E-03    5.3366842601E-03    5.4751238816E-03
    5.6172349631E-03    5.7631186605E-03    5.9128790852E-03    6.0666233973E-03
    6.2244619018E-03    6.3865081481E-03    6.5528790325E-03    6.7236949053E-03
    6.8990796797E-03    7.0791609460E-03    7.2640700890E-03    7.4539424094E-03
    7.6489172491E-03    7.8491381213E-03    8.0547528445E-03    8.2659136811E-03
    8.4827774810E-03    8.7055058297E-03    8.9342652014E-03    9.1692271173E-03
    9.4105683094E-03    9.6584708896E-03    9.9131225242E-03    1.0174716615E-02
    1.0443452484E-02    1.0719535571E-02    1.1003177625E-02    1.1294596918E-02
    1.1594018450E-02    1.1901674175E-02    1.2217803222E-02    1.2542652132E-02
    1.2876475096E-02    1.3219534207E-02    1.3572099717E-02    1.3934450296E-02
    1.4306873314E-02    1.4689665115E-02    1.5083131309E-02    1.5487587072E-02
    1.5903357456E-02    1.6330777699E-02    1.6770193560E-02    1.7221961646E-02
    1.7686449765E-02    1.8164037277E-02    1.8655115459E-02    1.9160087881E-02
    1.9679370789E-02    2.0213393505E-02    2.0762598825E-02    2.1327443438E-02
    2.1908398354E-02    2.2505949334E-02    2.3120597339E-02    2.3752858985E-02
    2.4403267008E-02    2.5072370739E-02    2.5760736589E-02    2.6468948539E-02
    2.7197608648E-02    2.7947337558E-02    2.8718775014E-02    2.9512580391E-02
    3.0329433223E-02    3.1170033746E-02    3.2035103435E-02    3.2925385558E-02
    3.3841645723E-02    3.4784672430E-02    3.5755277630E-02    3.6754297273E-02
    3.7782591865E-02    3.8841047011E-02    3.9930573960E-02    4.1052110141E-02
    4.2206619686E-02    4.3395093949E-02    4.4618551999E-02    4.5878041107E-02
    4.7174637206E-02    4.8509445333E-02    4.9883600037E-02    5.1298265762E-02
    5.2754637197E-02    5.4253939581E-02    5.5797428971E-02    5.7386392456E-02
    5.9022148323E-02    6.0706046163E-02    6.2439466908E-02    6.4223822802E-02
    6.6060557292E-02    6.7951144835E-02    6.9897090617E-02    7.1899930161E-02
    7.3961228843E-02    7.6082581279E-02    7.8265610592E-02    8.0511967547E-02
    8.2823329537E-02    8.5201399415E-02    8.7647904166E-02    9.0164593402E-02
    9.2753237662E-02    9.5415626528E-02    9.8153566517E-02    1.0096887876E-01
    1.0386339646E-01    1.0683896204E-01    1.0989742414E-01    1.1304063424E-01
    1.1627044305E-01    1.1958869660E-01    1.2299723201E-01    1.2649787292E-01
    1.3009242464E-01    1.3378266893E-01    1.3757035837E-01    1.4145721047E-01
    1.4544490132E-01    1.4953505892E-01    1.5372925607E-01    1.5802900288E-01
    1.6243573895E-01    1.6695082507E-01    1.7157553453E-01    1.7631104411E-01
    1.8115842462E-01    1.8611863107E-01    1.9119249252E-01    1.9638070148E-01
    2.0168380311E-01    2.0710218402E-01    2.1263606081E-01    2.1828546838E-01
    2.2405024803E-01    2.2993003534E-01    2.3592424801E-01    2.4203207358E-01
    2.4825245712E-01    2.5458408904E-01    2.6102539298E-01    2.6757451391E-01
    2.7422930648E-01    2.8098732384E-01    2.8784580684E-01    2.9480167378E-01
    3.0185151093E-01    3.0899156376E-01    3.1621772907E-01    3.2352554816E-01
    3.3091020111E-01    3.3836650236E-01    3.4588889760E-01    3.5347146228E-01
    3.6110790162E-01    3.6879155248E-01    3.7651538700E-01    3.8427201834E-01
    3.9205370832E-01    3.9985237741E-01    4.0765961681E-01    4.1546670299E-01
    4.2326461443E-01    4.3104405087E-01    4.3879545493E-01    4.4650903612E-01
    4.5417479720E-01    4.6178256284E-01    4.6932201055E-01    4.7678270358E-01
    4.8415412591E-01    4.9142571893E-01    4.9858691970E-01    5.0562720050E-01
    5.1253610953E-01    5.1930331231E-01    5.2591863347E-01    5.3237209871E-01
    5.3865397644E-01    5.4475481874E-01    5.5066550118E-01    5.5637726125E-01
    5.6188173469E-01    5.6717098959E-01    5.7223755762E-01    5.7707446198E-01
    5.8167524179E-01    5.8603397235E-01    5.9014528099E-01    5.9400435806E-01
    5.9760696288E-01    6.0094942408E-01    6.0402863431E-01    6.0684203895E-01
    6.0938761864E-01    6.1166386550E-01    6.1366975296E-01    6.1540469914E-01
    6.1686852393E-01    6.1806139994E-01    6.1898379808E-01    6.1963642696E-01
    6.2002016702E-01    6.2013601046E-01    6.1998509944E-01    6.1956881807E-01
    6.1888879857E-01    6.1794692020E-01    6.1674530711E-01    6.1528632580E-01
    6.1357258231E-01    6.1160691897E-01    6.0939241094E-01    6.0693236231E-01
    6.0423030198E-01    6.0128997925E-01    5.9811535905E-01    5.9471061697E-01
    5.9108013400E-01    5.8722849097E-01    5.8316046273E-01    5.7888101213E-01
    5.7439528363E-01    5.6970859671E-01    5.6482643902E-01    5.5975445919E-01
    5.5449845942E-01    5.4906438774E-01    5.4345833000E-01    5.3768650157E-01
    5.3175523871E-01    5.2567098962E-01    5.1944030528E-01    5.1306982988E-01
    5.0656629097E-01    4.9993648941E-01    4.9318728893E-01    4.8632560549E-01
    4.7935839646E-01    4.7229264949E-01    4.6513537129E-01    4.5789357628E-01
    4.5057427509E-01    4.4318446313E-01    4.3573110906E-01    4.2822114344E-01
    4.2066144743E-01    4.1305884170E-01    4.0542007562E-01    3.9775181669E-01
    3.9006064043E-01    3.8235302055E-01    3.7463531974E-01    3.6691378084E-01
    3.5919451867E-01    3.5148351240E-01    3.4378659856E-01    3.3610946467E-01
    3.2845764363E-01    3.2083650868E-01    3.1325126912E-01    3.0570696671E-01
    2.9820847272E-01    2.9076048571E-01    2.8336752991E-01    2.7603395427E-01
    2.6876393210E-01    2.6156146130E-01    2.5443036508E-01    2.4737429327E-01
    2.4039672402E-01    2.3350096587E-01    2.2669016032E-01    2.1996728452E-01
    2.1333515440E-01    2.0679642781E-01    2.0035360797E-01    1.9400904685E-01
    1.8776494868E-01    1.8162337337E-01    1.7558623984E-01    1.6965532925E-01
    1.6383228801E-01    1.5811863056E-01    1.5251574192E-01    1.4702487995E-01
    1.4164717722E-01    1.3638364275E-01    1.3123516319E-01    1.2620250392E-01
    1.2128630972E-01    1.1648710522E-01    1.1180529515E-01    1.0724116435E-01
    1.0279487775E-01    9.8466480135E-02    9.4255896035E-02    9.0162929543E-02
    8.6187264301E-02    8.2328463614E-02    7.8585970792E-02    7.4959109743E-02
    7.1447085891E-02    6.8048987422E-02    6.4763786923E-02    6.1590343416E-02
    5.8527404808E-02    5.5573610769E-02    5.2727496034E-02    4.9987494121E-02
    4.7351941441E-02    4.4819081862E-02    4.2387071432E-02    4.0053983755E-02
    3.7817815355E-02    3.5676491459E-02    3.3627871954E-02    3.1669757537E-02
    2.9799895993E-02    2.8015988569E-02    2.6315696415E-02    2.4696647026E-02
    2.3156440671E-02    2.1692656762E-02    2.0302860123E-02    1.8984607141E-02
    1.7735451753E-02    1.6552951259E-02    1.5434671914E-02    1.4378194304E-02
    1.3381118467E-02    1.2441068748E-02    1.1555698377E-02    1.0722693763E-02
    9.9397784798E-03    9.2047169615E-03    8.5153178789E-03    7.8694372150E-03
    7.2649810288E-03    6.6999079154E-03    6.1722311624E-03    5.6800206121E-03
    5.2214042332E-03    4.7945694129E-03    4.3977639772E-03    4.0292969504E-03
    3.6875390649E-03    3.3709230338E-03    3.0779435980E-03    2.8071573613E-03
    2.5571824265E-03    2.3266978467E-03    2.1144429047E-03    1.9192162353E-03
    1.7398748022E-03    1.5753327460E-03    1.4245601142E-03    1.2865814872E-03
    1.1604745135E-03    1.0453683656E-03
   </PP_CHI.3>
 </PP_PSWFC>
 <PP_NLCC type="real"  size="1106" columns="4">
    0.0000000000E+00    6.2925408721E+00    6.2925408720E+00    6.2925408719E+00
    6.2925408718E+00    6.2925408716E+00    6.2925408715E+00    6.2925408714E+00
    6.2925408713E+00    6.2925408711E+00    6.2925408710E+00    6.2925408709E+00
    6.2925408707E+00    6.2925408706E+00    6.2925408704E+00    6.2925408703E+00
    6.2925408701E+00    6.2925408700E+00    6.2925408698E+00    6.2925408697E+00
    6.2925408695E+00    6.2925408693E+00    6.2925408691E+00    6.2925408689E+00
    6.2925408688E+00    6.2925408686E+00    6.2925408684E+00    6.2925408682E+00
    6.2925408680E+00    6.2925408677E+00    6.2925408675E+00    6.2925408673E+00
    6.2925408671E+00    6.2925408668E+00    6.2925408666E+00    6.2925408663E+00
    6.2925408661E+00    6.2925408658E+00    6.2925408656E+00    6.2925408653E+00
    6.2925408650E+00    6.2925408647E+00    6.2925408644E+00    6.2925408641E+00
    6.2925408638E+00    6.2925408635E+00    6.2925408632E+00    6.2925408628E+00
    6.2925408625E+00    6.2925408621E+00    6.2925408618E+00    6.2925408614E+00
    6.2925408610E+00    6.2925408606E+00    6.2925408602E+00    6.2925408598E+00
    6.2925408594E+00    6.2925408590E+00    6.2925408585E+00    6.2925408581E+00
    6.2925408576E+00    6.2925408571E+00    6.2925408566E+00    6.2925408561E+00
    6.2925408556E+00    6.2925408551E+00    6.2925408546E+00    6.2925408540E+00
    6.2925408534E+00    6.2925408529E+00    6.2925408523E+00    6.2925408517E+00
    6.2925408510E+00    6.2925408504E+00    6.2925408497E+00    6.2925408491E+00
    6.2925408484E+00    6.2925408477E+00    6.2925408469E+00    6.2925408462E+00
    6.2925408454E+00    6.2925408446E+00    6.2925408438E+00    6.2925408430E+00
    6.2925408422E+00    6.2925408413E+00    6.2925408404E+00    6.2925408395E+00
    6.2925408386E+00    6.2925408376E+00    6.2925408366E+00    6.2925408356E+00
    6.2925408346E+00    6.2925408335E+00    6.2925408324E+00    6.2925408313E+00
    6.2925408302E+00    6.2925408290E+00    6.2925408278E+00    6.2925408266E+00
    6.2925408253E+00    6.2925408240E+00    6.2925408227E+00    6.2925408214E+00
    6.2925408200E+00    6.2925408185E+00    6.2925408171E+00    6.2925408156E+00
    6.2925408140E+00    6.2925408125E+00    6.2925408108E+00    6.2925408092E+00
    6.2925408075E+00    6.2925408057E+00    6.2925408039E+00    6.2925408021E+00
    6.2925408002E+00    6.2925407983E+00    6.2925407963E+00    6.2925407943E+00
    6.2925407922E+00    6.2925407901E+00    6.2925407879E+00    6.2925407857E+00
    6.2925407834E+00    6.2925407810E+00    6.2925407786E+00    6.2925407761E+00
    6.2925407736E+00    6.2925407710E+00    6.2925407683E+00    6.2925407656E+00
    6.2925407628E+00    6.2925407599E+00    6.2925407569E+00    6.2925407539E+00
    6.2925407508E+00    6.2925407476E+00    6.2925407444E+00    6.2925407410E+00
    6.2925407376E+00    6.2925407341E+00    6.2925407305E+00    6.2925407268E+00
    6.2925407230E+00    6.2925407191E+00    6.2925407152E+00    6.2925407111E+00
    6.2925407069E+00    6.2925407026E+00    6.2925406982E+00    6.2925406937E+00
    6.2925406891E+00    6.2925406843E+00    6.2925406795E+00    6.2925406745E+00
    6.2925406694E+00    6.2925406641E+00    6.2925406587E+00    6.2925406532E+00
    6.2925406476E+00    6.2925406418E+00    6.2925406359E+00    6.2925406298E+00
    6.2925406235E+00    6.2925406171E+00    6.2925406106E+00    6.2925406038E+00
    6.2925405969E+00    6.2925405899E+00    6.2925405826E+00    6.2925405752E+00
    6.2925405675E+00    6.2925405597E+00    6.2925405517E+00    6.2925405435E+00
    6.2925405351E+00    6.2925405264E+00    6.2925405176E+00    6.2925405085E+00
    6.2925404992E+00    6.2925404896E+00    6.2925404798E+00    6.2925404698E+00
    6.2925404595E+00    6.2925404489E+00    6.2925404381E+00    6.2925404270E+00
    6.2925404156E+00    6.2925404040E+00    6.2925403920E+00    6.2925403798E+00
    6.2925403672E+00    6.2925403543E+00    6.2925403411E+00    6.2925403275E+00
    6.2925403136E+00    6.2925402994E+00    6.2925402848E+00    6.2925402698E+00
    6.2925402544E+00    6.2925402387E+00    6.2925402226E+00    6.2925402060E+00
    6.2925401890E+00    6.2925401716E+00    6.2925401538E+00    6.2925401355E+00
    6.2925401167E+00    6.2925400975E+00    6.2925400778E+00    6.2925400576E+00
    6.2925400369E+00    6.2925400156E+00    6.2925399938E+00    6.2925399715E+00
    6.2925399486E+00    6.2925399251E+00    6.2925399010E+00    6.2925398763E+00
    6.2925398510E+00    6.2925398250E+00    6.2925397984E+00    6.2925397711E+00
    6.2925397431E+00    6.2925397144E+00    6.2925396850E+00    6.2925396549E+00
    6.2925396239E+00    6.2925395922E+00    6.2925395597E+00    6.2925395264E+00
    6.2925394922E+00    6.2925394572E+00    6.2925394213E+00    6.2925393844E+00
    6.2925393467E+00    6.2925393079E+00    6.2925392682E+00    6.2925392275E+00
    6.2925391858E+00    6.2925391430E+00    6.2925390991E+00    6.2925390541E+00
    6.2925390080E+00    6.2925389607E+00    6.2925389122E+00    6.2925388624E+00
    6.2925388115E+00    6.2925387592E+00    6.2925387056E+00    6.2925386506E+00
    6.2925385943E+00    6.2925385365E+00    6.2925384773E+00    6.2925384166E+00
    6.2925383543E+00    6.2925382904E+00    6.2925382250E+00    6.2925381579E+00
    6.2925380890E+00    6.2925380185E+00    6.2925379461E+00    6.2925378719E+00
    6.2925377959E+00    6.2925377179E+00    6.2925376379E+00    6.2925375560E+00
    6.2925374719E+00    6.2925373857E+00    6.2925372974E+00    6.2925372068E+00
    6.2925371139E+00    6.2925370186E+00    6.2925369209E+00    6.2925368208E+00
    6.2925367181E+00    6.2925366129E+00    6.2925365049E+00    6.2925363943E+00
    6.2925362808E+00    6.2925361645E+00    6.2925360452E+00    6.2925359229E+00
    6.2925357975E+00    6.2925356689E+00    6.2925355371E+00    6.2925354019E+00
    6.2925352633E+00    6.2925351213E+00    6.2925349756E+00    6.2925348262E+00
    6.2925346730E+00    6.2925345160E+00    6.2925343550E+00    6.2925341899E+00
    6.2925340206E+00    6.2925338470E+00    6.2925336691E+00    6.2925334866E+00
    6.2925332996E+00    6.2925331078E+00    6.2925329111E+00    6.2925327095E+00
    6.2925325027E+00    6.2925322907E+00    6.2925320734E+00    6.2925318505E+00
    6.2925316220E+00    6.2925313878E+00    6.2925311476E+00    6.2925309013E+00
    6.2925306488E+00    6.2925303898E+00    6.2925301244E+00    6.2925298522E+00
    6.2925295731E+00    6.2925292870E+00    6.2925289936E+00    6.2925286928E+00
    6.2925283843E+00    6.2925280681E+00    6.2925277439E+00    6.2925274114E+00
    6.2925270705E+00    6.2925267210E+00    6.2925263627E+00    6.2925259953E+00
    6.2925256186E+00    6.2925252323E+00    6.2925248363E+00    6.2925244302E+00
    6.2925240139E+00    6.2925235870E+00    6.2925231493E+00    6.2925227006E+00
    6.2925222405E+00    6.2925217687E+00    6.2925212850E+00    6.2925207890E+00
    6.2925202805E+00    6.2925197591E+00    6.2925192245E+00    6.2925186764E+00
    6.2925181144E+00    6.2925175382E+00    6.2925169474E+00    6.2925163416E+00
    6.2925157205E+00    6.2925150837E+00    6.2925144308E+00    6.2925137613E+00
    6.2925130749E+00    6.2925123711E+00    6.2925116494E+00    6.2925109096E+00
    6.2925101510E+00    6.2925093731E+00    6.2925085756E+00    6.2925077579E+00
    6.2925069195E+00    6.2925060599E+00    6.2925051785E+00    6.2925042748E+00
    6.2925033483E+00    6.2925023982E+00    6.2925014242E+00    6.2925004254E+00
    6.2924994014E+00    6.2924983515E+00    6.2924972750E+00    6.2924961712E+00
    6.2924950395E+00    6.2924938791E+00    6.2924926894E+00    6.2924914695E+00
    6.2924902188E+00    6.2924889364E+00    6.2924876215E+00    6.2924862734E+00
    6.2924848911E+00    6.2924834738E+00    6.2924820207E+00    6.2924805307E+00
    6.2924790031E+00    6.2924774368E+00    6.2924758308E+00    6.2924741842E+00
    6.2924724959E+00    6.2924707648E+00    6.2924689899E+00    6.2924671701E+00
    6.2924653043E+00    6.2924633911E+00    6.2924614296E+00    6.2924594184E+00
    6.2924573563E+00    6.2924552420E+00    6.2924530742E+00    6.2924508515E+00
    6.2924485725E+00    6.2924462358E+00    6.2924438400E+00    6.2924413835E+00
    6.2924388649E+00    6.2924362825E+00    6.2924336347E+00    6.2924309199E+00
    6.2924281363E+00    6.2924252823E+00    6.2924223561E+00    6.2924193557E+00
    6.2924162795E+00    6.2924131253E+00    6.2924098913E+00    6.2924065754E+00
    6.2924031756E+00    6.2923996897E+00    6.2923961156E+00    6.2923924510E+00
    6.2923886937E+00    6.2923848412E+00    6.2923808912E+00    6.2923768412E+00
    6.2923726887E+00    6.2923684310E+00    6.2923640656E+00    6.2923595897E+00
    6.2923550005E+00    6.2923502951E+00    6.2923454705E+00    6.2923405239E+00
    6.2923354520E+00    6.2923302518E+00    6.2923249199E+00    6.2923194530E+00
    6.2923138477E+00    6.2923081006E+00    6.2923022079E+00    6.2922961661E+00
    6.2922899713E+00    6.2922836198E+00    6.2922771074E+00    6.2922704302E+00
    6.2922635840E+00    6.2922565644E+00    6.2922493672E+00    6.2922419878E+00
    6.2922344215E+00    6.2922266638E+00    6.2922187096E+00    6.2922105542E+00
    6.2922021922E+00    6.2921936186E+00    6.2921848280E+00    6.2921758148E+00
    6.2921665735E+00    6.2921570982E+00    6.2921473831E+00    6.2921374221E+00
    6.2921272089E+00    6.2921167372E+00    6.2921060004E+00    6.2920949918E+00
    6.2920837046E+00    6.2920721317E+00    6.2920602657E+00    6.2920480995E+00
    6.2920356252E+00    6.2920228352E+00    6.2920097215E+00    6.2919962758E+00
    6.2919824897E+00    6.2919683547E+00    6.2919538619E+00    6.2919390022E+00
    6.2919237664E+00    6.2919081449E+00    6.2918921280E+00    6.2918757057E+00
    6.2918588676E+00    6.2918416034E+00    6.2918239022E+00    6.2918057529E+00
    6.2917871442E+00    6.2917680645E+00    6.2917485018E+00    6.2917284439E+00
    6.2917078784E+00    6.2916867923E+00    6.2916651725E+00    6.2916430054E+00
    6.2916202772E+00    6.2915969738E+00    6.2915730805E+00    6.2915485824E+00
    6.2915234643E+00    6.2914977104E+00    6.2914713046E+00    6.2914442305E+00
    6.2914164711E+00    6.2913880091E+00    6.2913588267E+00    6.2913289056E+00
    6.2912982273E+00    6.2912667725E+00    6.2912345215E+00    6.2912014543E+00
    6.2911675501E+00    6.2911327878E+00    6.2910971457E+00    6.2910606015E+00
    6.2910231324E+00    6.2909847150E+00    6.2909453253E+00    6.2909049386E+00
    6.2908635298E+00    6.2908210730E+00    6.2907775417E+00    6.2907329087E+00
    6.2906871461E+00    6.2906402253E+00    6.2905921171E+00    6.2905427913E+00
    6.2904922173E+00    6.2904403633E+00    6.2903871971E+00    6.2903326854E+00
    6.2902767942E+00    6.2902194886E+00    6.2901607328E+00    6.2901004901E+00
    6.2900387230E+00    6.2899753927E+00    6.2899104599E+00    6.2898438840E+00
    6.2897756233E+00    6.2897056354E+00    6.2896338765E+00    6.2895603017E+00
    6.2894848653E+00    6.2894075200E+00    6.2893282177E+00    6.2892469088E+00
    6.2891635426E+00    6.2890780670E+00    6.2889904287E+00    6.2889005731E+00
    6.2888084440E+00    6.2887139839E+00    6.2886171339E+00    6.2885178337E+00
    6.2884160211E+00    6.2883116328E+00    6.2882046035E+00    6.2880948666E+00
    6.2879823535E+00    6.2878669941E+00    6.2877487164E+00    6.2876274466E+00
    6.2875031092E+00    6.2873756266E+00    6.2872449192E+00    6.2871109056E+00
    6.2869735022E+00    6.2868326233E+00    6.2866881811E+00    6.2865400856E+00
    6.2863882445E+00    6.2862325630E+00    6.2860729442E+00    6.2859092885E+00
    6.2857414940E+00    6.2855694562E+00    6.2853930677E+00    6.2852122188E+00
    6.2850267967E+00    6.2848366860E+00    6.2846417682E+00    6.2844419218E+00
    6.2842370226E+00    6.2840269427E+00    6.2838115516E+00    6.2835907149E+00
    6.2833642953E+00    6.2831321517E+00    6.2828941398E+00    6.2826501113E+00
    6.2823999144E+00    6.2821433935E+00    6.2818803889E+00    6.2816107370E+00
    6.2813342701E+00    6.2810508162E+00    6.2807601991E+00    6.2804622380E+00
    6.2801567478E+00    6.2798435385E+00    6.2795224154E+00    6.2791931791E+00
    6.2788556249E+00    6.2785095431E+00    6.2781547187E+00    6.2777909314E+00
    6.2774179553E+00    6.2770355588E+00    6.2766435046E+00    6.2762415492E+00
    6.2758294434E+00    6.2754069313E+00    6.2749737509E+00    6.2745296336E+00
    6.2740743040E+00    6.2736074798E+00    6.2731288717E+00    6.2726381830E+00
    6.2721351098E+00    6.2716193405E+00    6.2710905556E+00    6.2705484279E+00
    6.2699926216E+00    6.2694227930E+00    6.2688385895E+00    6.2682396497E+00
    6.2676256033E+00    6.2669960707E+00    6.2663506629E+00    6.2656889812E+00
    6.2650106168E+00    6.2643151510E+00    6.2636021545E+00    6.2628711872E+00
    6.2621217984E+00    6.2613535259E+00    6.2605658961E+00    6.2597584237E+00
    6.2589306113E+00    6.2580819492E+00    6.2572119150E+00    6.2563199733E+00
    6.2554055757E+00    6.2544681599E+00    6.2535071499E+00    6.2525219554E+00
    6.2515119715E+00    6.2504765784E+00    6.2494151409E+00    6.2483270082E+00
    6.2472115135E+00    6.2460679735E+00    6.2448956883E+00    6.2436939404E+00
    6.2424619949E+00    6.2411990990E+00    6.2399044810E+00    6.2385773508E+00
    6.2372168986E+00    6.2358222948E+00    6.2343926896E+00    6.2329272124E+00
    6.2314249714E+00    6.2298850531E+00    6.2283065215E+00    6.2266884181E+00
    6.2250297609E+00    6.2233295441E+00    6.2215867377E+00    6.2198002865E+00
    6.2179691097E+00    6.2160921007E+00    6.2141681258E+00    6.2121960242E+00
    6.2101746072E+00    6.2081026572E+00    6.2059789277E+00    6.2038021420E+00
    6.2015709931E+00    6.1992841425E+00    6.1969402199E+00    6.1945378223E+00
    6.1920755131E+00    6.1895518219E+00    6.1869652431E+00    6.1843142357E+00
    6.1815972221E+00    6.1788125875E+00    6.1759586792E+00    6.1730338053E+00
    6.1700362346E+00    6.1669641952E+00    6.1638158739E+00    6.1605894149E+00
    6.1572829198E+00    6.1538944457E+00    6.1504220048E+00    6.1468635637E+00
    6.1432170417E+00    6.1394803107E+00    6.1356511936E+00    6.1317274637E+00
    6.1277068436E+00    6.1235870040E+00    6.1193655630E+00    6.1150400849E+00
    6.1106080792E+00    6.1060669996E+00    6.1014142427E+00    6.0966471474E+00
    6.0917629934E+00    6.0867590004E+00    6.0816323266E+00    6.0763800683E+00
    6.0709992580E+00    6.0654868640E+00    6.0598397888E+00    6.0540548683E+00
    6.0481288703E+00    6.0420584940E+00    6.0358403681E+00    6.0294710506E+00
    6.0229470267E+00    6.0162647087E+00    6.0094204339E+00    6.0024104645E+00
    5.9952309857E+00    5.9878781051E+00    5.9803478517E+00    5.9726361744E+00
    5.9647389415E+00    5.9566519395E+00    5.9483708719E+00    5.9398913588E+00
    5.9312089355E+00    5.9223190518E+00    5.9132170714E+00    5.9038982705E+00
    5.8943578377E+00    5.8845908730E+00    5.8745923870E+00    5.8643573006E+00
    5.8538804442E+00    5.8431565575E+00    5.8321802888E+00    5.8209461948E+00
    5.8094487407E+00    5.7976822993E+00    5.7856411515E+00    5.7733194864E+00
    5.7607114008E+00    5.7478109003E+00    5.7346118990E+00    5.7211082203E+00
    5.7072935974E+00    5.6931616744E+00    5.6787060067E+00    5.6639200625E+00
    5.6487972239E+00    5.6333307885E+00    5.6175139706E+00    5.6013399035E+00
    5.5848016413E+00    5.5678921613E+00    5.5506043661E+00    5.5329310867E+00
    5.5148650857E+00    5.4963990597E+00    5.4775256437E+00    5.4582374145E+00
    5.4385268949E+00    5.4183865582E+00    5.3978088328E+00    5.3767861076E+00
    5.3553107374E+00    5.3333750487E+00    5.3109713461E+00    5.2880919188E+00
    5.2647290480E+00    5.2408750143E+00    5.2165221056E+00    5.1916626258E+00
    5.1662889038E+00    5.1403933026E+00    5.1139682302E+00    5.0870061491E+00
    5.0594995883E+00    5.0314411546E+00    5.0028235450E+00    4.9736395596E+00
    4.9438821152E+00    4.9135442595E+00    4.8826191860E+00    4.8511002493E+00
    4.8189809816E+00    4.7862551095E+00    4.7529165715E+00    4.7189595364E+00
    4.6843784226E+00    4.6491679175E+00    4.6133229983E+00    4.5768389533E+00
    4.5397114037E+00    4.5019363269E+00    4.4635100793E+00    4.4244294211E+00
    4.3846915413E+00    4.3442940829E+00    4.3032351700E+00    4.2615134344E+00
    4.2191280436E+00    4.1760787292E+00    4.1323658157E+00    4.0879902503E+00
    4.0429536328E+00    3.9972582463E+00    3.9509070882E+00    3.9039039013E+00
    3.8562532058E+00    3.8079603309E+00    3.7590314469E+00    3.7094735973E+00
    3.6592947307E+00    3.6085037328E+00    3.5571104579E+00    3.5051257602E+00
    3.4525615244E+00    3.3994306959E+00    3.3457473101E+00    3.2915265203E+00
    3.2367846253E+00    3.1815390952E+00    3.1258085952E+00    3.0696130090E+00
    3.0129734590E+00    2.9559123251E+00    2.8984532606E+00    2.8406212066E+00
    2.7824424017E+00    2.7239443908E+00    2.6651560287E+00    2.6061074809E+00
    2.5468302208E+00    2.4873570221E+00    2.4277219469E+00    2.3679603295E+00
    2.3081087546E+00    2.2482050307E+00    2.1882881574E+00    2.1283982880E+00
    2.0685766843E+00    2.0088656668E+00    1.9493085572E+00    1.8899496150E+00
    1.8308339662E+00    1.7720075257E+00    1.7135169125E+00    1.6554093569E+00
    1.5977326008E+00    1.5405347906E+00    1.4838643624E+00    1.4277699205E+00
    1.3723001079E+00    1.3175034704E+00    1.2634283138E+00    1.2101225546E+00
    1.1576335646E+00    1.1060080104E+00    1.0552916873E+00    1.0055293488E+00
    9.5676453305E-01    9.0903938550E-01    8.6239448031E-01    8.1686864023E-01
    7.7249875656E-01    7.2931961029E-01    6.8736369552E-01    6.4666104652E-01
    6.0723906977E-01    5.6912238236E-01    5.3233265835E-01    4.9688848442E-01
    4.6280522661E-01    4.3009490939E-01    3.9876610903E-01    3.6882386245E-01
    3.4026959330E-01    3.1310105668E-01    2.8731230382E-01    2.6289366813E-01
    2.3983177364E-01    2.1810956697E-01    1.9770637353E-01    1.7859797873E-01
    1.6075673446E-01    1.4415169111E-01    1.2874875495E-01    1.1451087041E-01
    1.0139822671E-01    8.9368487547E-02    7.8377042688E-02    6.8377279537E-02
    5.9320872765E-02    5.1158089501E-02    4.3838107403E-02    3.7309342553E-02
    3.1519783892E-02    2.6417330629E-02    2.1950128896E-02    1.8066903742E-02
    1.4717282507E-02    1.1852105539E-02    9.4237203282E-03    7.3862551900E-03
    5.6958688690E-03    4.3109727000E-03    3.1924223219E-03    2.3036763781E-03
    1.6109201508E-03    1.0831526497E-03    6.9223631087E-04    4.1290914140E-04
    2.2275985089E-04    1.0216723718E-04    3.4205808834E-05    4.5203213651E-06
    1.1725513242E-06    1.4464214042E-05    3.6740424856E-05    6.2178492001E-05
    8.6567094506E-05    1.0708102679E-04    1.2205667326E-04    1.3077320617E-04
    1.3324417807E-04    1.3002371353E-04    1.2203090477E-04    1.1039530154E-04
    9.6325581318E-05    8.1002620964E-05    6.5497299169E-05    5.0712476773E-05
    3.7347767129E-05    2.5884957934E-05    1.6591313862E-05    9.5375052867E-06
    4.6265952849E-06    1.6303892199E-06    2.2951302042E-07    5.3831534865E-08
    7.2022989363E-07    1.8653311184E-06    3.1713756175E-06    4.3841990389E-06
    5.3229662613E-06    5.8820021706E-06    6.0256579647E-06    5.7776250828E-06
    5.2064271382E-06    4.4089656482E-06    3.4939644841E-06    2.5669624700E-06
    1.7181695561E-06    1.0140678945E-06    4.9315232641E-07    1.6571696043E-07
    1.7156561052E-08    1.3908004918E-08    1.1094144197E-07    2.5964121842E-07
    4.1499375430E-07    5.4120632042E-07    6.1518408313E-07    6.2764818097E-07
    5.8203433714E-07    4.9161992353E-07    3.7554579873E-07    2.5450005530E-07
    1.4680481799E-07    6.5505098896E-08    1.6835982931E-08    2.7270716856E-10
    1.7515439643E-11    0.0000000000E+00    0.0000000000E+00    0.0000000000E+00
    0.0000000000E+00    0.0000000000E+00    0.0000000000E+00    0.0000000000E+00
    0.0000000000E+00    0.0000000000E+00    0.0000000000E+00    0.0000000000E+00
    0.0000000000E+00    0.0000000000E+00    0.0000000000E+00    0.0000000000E+00
    0.0000000000E+00    0.0000000000E+00    0.0000000000E+00    0.0000000000E+00
    0.0000000000E+00    0.0000000000E+00    0.0000000000E+00    0.0000000000E+00
    0.0000000000E+00    0.0000000000E+00    0.0000000000E+00    0.0000000000E+00
    0.0000000000E+00    0.0000000000E+00    0.0000000000E+00    0.0000000000E+00
    0.0000000000E+00    0.0000000000E+00    0.0000000000E+00    0.0000000000E+00
    0.0000000000E+00    0.0000000000E+00    0.0000000000E+00    0.0000000000E+00
    0.0000000000E+00    0.0000000000E+00    0.0000000000E+00    0.0000000000E+00
    0.0000000000E+00    0.0000000000E+00    0.0000000000E+00    0.0000000000E+00
    0.0000000000E+00    0.0000000000E+00    0.0000000000E+00    0.0000000000E+00
    0.0000000000E+00    0.0000000000E+00    0.0000000000E+00    0.0000000000E+00
    0.0000000000E+00    0.0000000000E+00    0.0000000000E+00    0.0000000000E+00
    0.0000000000E+00    0.0000000000E+00    0.0000000000E+00    0.0000000000E+00
    0.0000000000E+00    0.0000000000E+00    0.0000000000E+00    0.0000000000E+00
    0.0000000000E+00    0.0000000000E+00    0.0000000000E+00    0.0000000000E+00
    0.0000000000E+00    0.0000000000E+00    0.0000000000E+00    0.0000000000E+00
    0.0000000000E+00    0.0000000000E+00    0.0000000000E+00    0.0000000000E+00
    0.0000000000E+00    0.0000000000E+00    0.0000000000E+00    0.0000000000E+00
    0.0000000000E+00    0.0000000000E+00    0.0000000000E+00    0.0000000000E+00
    0.0000000000E+00    0.0000000000E+00    0.0000000000E+00    0.0000000000E+00
    0.0000000000E+00    0.0000000000E+00    0.0000000000E+00    0.0000000000E+00
    0.0000000000E+00    0.0000000000E+00    0.0000000000E+00    0.0000000000E+00
    0.0000000000E+00    0.0000000000E+00    0.0000000000E+00    0.0000000000E+00
    0.0000000000E+00    0.0000000000E+00    0.0000000000E+00    0.0000000000E+00
    0.0000000000E+00    0.0000000000E+00    0.0000000000E+00    0.0000000000E+00
    0.0000000000E+00    0.0000000000E+00    0.0000000000E+00    0.0000000000E+00
    0.0000000000E+00    0.0000000000E+00    0.0000000000E+00    0.0000000000E+00
    0.0000000000E+00    0.0000000000E+00    0.0000000000E+00    0.0000000000E+00
    0.0000000000E+00    0.0000000000E+00
 </PP_NLCC>
 <PP_RHOATOM type="real"  size="1106" columns="4">
    0.0000000000E+00    5.0067035526E-11    5.1334488567E-11    5.2634027335E-11
    5.3966464084E-11    5.5332631629E-11    5.6733383871E-11    5.8169596324E-11
    5.9642166669E-11    6.1152015310E-11    6.2700085951E-11    6.4287346187E-11
    6.5914788107E-11    6.7583428916E-11    6.9294311568E-11    7.1048505421E-11
    7.2847106902E-11    7.4691240197E-11    7.6582057949E-11    7.8520741980E-11
    8.0508504031E-11    8.2546586518E-11    8.4636263309E-11    8.6778840520E-11
    8.8975657332E-11    9.1228086826E-11    9.3537536844E-11    9.5905450868E-11
    9.8333308921E-11    1.0082262849E-10    1.0337496549E-10    1.0599191521E-10
    1.0867511332E-10    1.1142623692E-10    1.1424700554E-10    1.1713918226E-10
    1.2010457479E-10    1.2314503658E-10    1.2626246803E-10    1.2945881764E-10
    1.3273608322E-10    1.3609631317E-10    1.3954160775E-10    1.4307412038E-10
    1.4669605899E-10    1.5040968741E-10    1.5421732678E-10    1.5812135701E-10
    1.6212421823E-10    1.6622841236E-10    1.7043650467E-10    1.7475112534E-10
    1.7917497115E-10    1.8371080715E-10    1.8836146839E-10    1.9312986168E-10
    1.9801896742E-10    2.0303184146E-10    2.0817161701E-10    2.1344150661E-10
    2.1884480409E-10    2.2438488670E-10    2.3006521717E-10    2.3588934589E-10
    2.4186091313E-10    2.4798365131E-10    2.5426138736E-10    2.6069804505E-10
    2.6729764750E-10    2.7406431969E-10    2.8100229100E-10    2.8811589789E-10
    2.9540958660E-10    3.0288791592E-10    3.1055556005E-10    3.1841731151E-10
    3.2647808416E-10    3.3474291625E-10    3.4321697355E-10    3.5190555264E-10
    3.6081408416E-10    3.6994813623E-10    3.7931341793E-10    3.8891578287E-10
    3.9876123284E-10    4.0885592156E-10    4.1920615854E-10    4.2981841303E-10
    4.4069931802E-10    4.5185567443E-10    4.6329445535E-10    4.7502281039E-10
    4.8704807016E-10    4.9937775083E-10    5.1201955886E-10    5.2498139578E-10
    5.3827136318E-10    5.5189776770E-10    5.6586912630E-10    5.8019417153E-10
    5.9488185701E-10    6.0994136303E-10    6.2538210226E-10    6.4121372567E-10
    6.5744612854E-10    6.7408945666E-10    6.9115411263E-10    7.0865076244E-10
    7.2659034205E-10    7.4498406429E-10    7.6384342583E-10    7.8318021439E-10
    8.0300651609E-10    8.2333472302E-10    8.4417754097E-10    8.6554799738E-10
    8.8745944947E-10    9.0992559263E-10    9.3296046892E-10    9.5657847589E-10
    9.8079437557E-10    1.0056233037E-09    1.0310807791E-09    1.0571827136E-09
    1.0839454218E-09    1.1113856311E-09    1.1395204927E-09    1.1683675916E-09
    1.1979449584E-09    1.2282710799E-09    1.2593649107E-09    1.2912458857E-09
    1.3239339314E-09    1.3574494790E-09    1.3918134767E-09    1.4270474031E-09
    1.4631732807E-09    1.5002136893E-09    1.5381917803E-09    1.5771312913E-09
    1.6170565607E-09    1.6579925432E-09    1.6999648251E-09    1.7429996404E-09
    1.7871238872E-09    1.8323651447E-09    1.8787516902E-09    1.9263125167E-09
    1.9750773513E-09    2.0250766736E-09    2.0763417348E-09    2.1289045773E-09
    2.1827980546E-09    2.2380558518E-09    2.2947125069E-09    2.3528034321E-09
    2.4123649361E-09    2.4734342469E-09    2.5360495347E-09    2.6002499362E-09
    2.6660755787E-09    2.7335676053E-09    2.8027682008E-09    2.8737206179E-09
    2.9464692041E-09    3.0210594296E-09    3.0975379158E-09    3.1759524642E-09
    3.2563520865E-09    3.3387870351E-09    3.4233088344E-09    3.5099703135E-09
    3.5988256386E-09    3.6899303471E-09    3.7833413824E-09    3.8791171296E-09
    3.9773174516E-09    4.0780037268E-09    4.1812388874E-09    4.2870874587E-09
    4.3956155997E-09    4.5068911439E-09    4.6209836422E-09    4.7379644062E-09
    4.8579065526E-09    4.9808850492E-09    5.1069767616E-09    5.2362605013E-09
    5.3688170748E-09    5.5047293344E-09    5.6440822296E-09    5.7869628606E-09
    5.9334605324E-09    6.0836668110E-09    6.2376755801E-09    6.3955831003E-09
    6.5574880690E-09    6.7234916821E-09    6.8936976973E-09    7.0682124989E-09
    7.2471451645E-09    7.4306075327E-09    7.6187142737E-09    7.8115829604E-09
    8.0093341419E-09    8.2120914194E-09    8.4199815226E-09    8.6331343899E-09
    8.8516832488E-09    9.0757646994E-09    9.3055188001E-09    9.5410891548E-09
    9.7826230026E-09    1.0030271310E-08    1.0284188866E-08    1.0544534377E-08
    1.0811470567E-08    1.1085164281E-08    1.1365786586E-08    1.1653512880E-08
    1.1948523002E-08    1.2251001342E-08    1.2561136961E-08    1.2879123702E-08
    1.3205160318E-08    1.3539450592E-08    1.3882203468E-08    1.4233633177E-08
    1.4593959374E-08    1.4963407275E-08    1.5342207798E-08    1.5730597704E-08
    1.6128819752E-08    1.6537122842E-08    1.6955762178E-08    1.7384999423E-08
    1.7825102864E-08    1.8276347582E-08    1.8739015619E-08    1.9213396158E-08
    1.9699785703E-08    2.0198488263E-08    2.0709815544E-08    2.1234087143E-08
    2.1771630746E-08    2.2322782338E-08    2.2887886405E-08    2.3467296157E-08
    2.4061373745E-08    2.4670490486E-08    2.5295027100E-08    2.5935373942E-08
    2.6591931250E-08    2.7265109396E-08    2.7955329139E-08    2.8663021888E-08
    2.9388629976E-08    3.0132606932E-08    3.0895417766E-08    3.1677539263E-08
    3.2479460273E-08    3.3301682025E-08    3.4144718435E-08    3.5009096430E-08
    3.5895356274E-08    3.6804051912E-08    3.7735751308E-08    3.8691036806E-08
    3.9670505492E-08    4.0674769568E-08    4.1704456733E-08    4.2760210578E-08
    4.3842690983E-08    4.4952574537E-08    4.6090554955E-08    4.7257343514E-08
    4.8453669497E-08    4.9680280649E-08    5.0937943644E-08    5.2227444566E-08
    5.3549589397E-08    5.4905204523E-08    5.6295137252E-08    5.7720256340E-08
    5.9181452535E-08    6.0679639136E-08    6.2215752563E-08    6.3790752941E-08
    6.5405624699E-08    6.7061377190E-08    6.8759045317E-08    7.0499690184E-08
    7.2284399754E-08    7.4114289534E-08    7.5990503271E-08    7.7914213665E-08
    7.9886623104E-08    8.1908964415E-08    8.3982501633E-08    8.6108530793E-08
    8.8288380741E-08    9.0523413961E-08    9.2815027430E-08    9.5164653491E-08
    9.7573760744E-08    1.0004385497E-07    1.0257648007E-07    1.0517321902E-07
    1.0783569489E-07    1.1056557182E-07    1.1336455608E-07    1.1623439714E-07
    1.1917688876E-07    1.2219387011E-07    1.2528722691E-07    1.2845889264E-07
    1.3171084969E-07    1.3504513067E-07    1.3846381962E-07    1.4196905337E-07
    1.4556302281E-07    1.4924797431E-07    1.5302621112E-07    1.5690009477E-07
    1.6087204660E-07    1.6494454922E-07    1.6912014812E-07    1.7340145320E-07
    1.7779114046E-07    1.8229195362E-07    1.8690670587E-07    1.9163828161E-07
    1.9648963828E-07    2.0146380816E-07    2.0656390031E-07    2.1179310251E-07
    2.1715468321E-07    2.2265199363E-07    2.2828846982E-07    2.3406763481E-07
    2.3999310081E-07    2.4606857151E-07    2.5229784432E-07    2.5868481280E-07
    2.6523346910E-07    2.7194790640E-07    2.7883232151E-07    2.8589101751E-07
    2.9312840638E-07    3.0054901182E-07    3.0815747204E-07    3.1595854267E-07
    3.2395709973E-07    3.3215814269E-07    3.4056679758E-07    3.4918832019E-07
    3.5802809939E-07    3.6709166044E-07    3.7638466851E-07    3.8591293218E-07
    3.9568240706E-07    4.0569919956E-07    4.1596957065E-07    4.2649993985E-07
    4.3729688914E-07    4.4836716716E-07    4.5971769342E-07    4.7135556255E-07
    4.8328804884E-07    4.9552261072E-07    5.0806689543E-07    5.2092874381E-07
    5.3411619522E-07    5.4763749253E-07    5.6150108730E-07    5.7571564503E-07
    5.9029005063E-07    6.0523341392E-07    6.2055507536E-07    6.3626461188E-07
    6.5237184286E-07    6.6888683628E-07    6.8581991498E-07    7.0318166318E-07
    7.2098293303E-07    7.3923485143E-07    7.5794882698E-07    7.7713655709E-07
    7.9681003534E-07    8.1698155893E-07    8.3766373640E-07    8.5886949548E-07
    8.8061209122E-07    9.0290511424E-07    9.2576249921E-07    9.4919853363E-07
    9.7322786667E-07    9.9786551843E-07    1.0231268892E-06    1.0490277693E-06
    1.0755843488E-06    1.1028132274E-06    1.1307314253E-06    1.1593563938E-06
    1.1887060255E-06    1.2187986666E-06    1.2496531273E-06    1.2812886942E-06
    1.3137251424E-06    1.3469827474E-06    1.3810822980E-06    1.4160451097E-06
    1.4518930373E-06    1.4886484891E-06    1.5263344407E-06    1.5649744494E-06
    1.6045926690E-06    1.6452138648E-06    1.6868634291E-06    1.7295673971E-06
    1.7733524633E-06    1.8182459980E-06    1.8642760644E-06    1.9114714364E-06
    1.9598616164E-06    2.0094768538E-06    2.0603481637E-06    2.1125073469E-06
    2.1659870090E-06    2.2208205813E-06    2.2770423418E-06    2.3346874361E-06
    2.3937918998E-06    2.4543926812E-06    2.5165276638E-06    2.5802356906E-06
    2.6455565879E-06    2.7125311907E-06    2.7812013678E-06    2.8516100484E-06
    2.9238012484E-06    2.9978200986E-06    3.0737128725E-06    3.1515270152E-06
    3.2313111734E-06    3.3131152256E-06    3.3969903133E-06    3.4829888733E-06
    3.5711646698E-06    3.6615728291E-06    3.7542698729E-06    3.8493137546E-06
    3.9467638952E-06    4.0466812203E-06    4.1491281987E-06    4.2541688810E-06
    4.3618689400E-06    4.4722957115E-06    4.5855182368E-06    4.7016073058E-06
    4.8206355010E-06    4.9426772433E-06    5.0678088385E-06    5.1961085249E-06
    5.3276565225E-06    5.4625350829E-06    5.6008285412E-06    5.7426233684E-06
    5.8880082258E-06    6.0370740204E-06    6.1899139620E-06    6.3466236211E-06
    6.5073009892E-06    6.6720465402E-06    6.8409632928E-06    7.0141568756E-06
    7.1917355928E-06    7.3738104924E-06    7.5604954356E-06    7.7519071680E-06
    7.9481653930E-06    8.1493928465E-06    8.3557153741E-06    8.5672620098E-06
    8.7841650567E-06    9.0065601703E-06    9.2345864431E-06    9.4683864922E-06
    9.7081065482E-06    9.9538965474E-06    1.0205910225E-05    1.0464305214E-05
    1.0729243138E-05    1.1000889722E-05    1.1279414886E-05    1.1564992859E-05
    1.1857802287E-05    1.2158026341E-05    1.2465852837E-05    1.2781474351E-05
    1.3105088341E-05    1.3436897269E-05    1.3777108733E-05    1.4125935590E-05
    1.4483596095E-05    1.4850314039E-05    1.5226318884E-05    1.5611845912E-05
    1.6007136371E-05    1.6412437627E-05    1.6828003319E-05    1.7254093519E-05
    1.7690974895E-05    1.8138920879E-05    1.8598211840E-05    1.9069135258E-05
    1.9551985906E-05    2.0047066038E-05    2.0554685575E-05    2.1075162303E-05
    2.1608822072E-05    2.2155999003E-05    2.2717035694E-05    2.3292283444E-05
    2.3882102464E-05    2.4486862116E-05    2.5106941134E-05    2.5742727874E-05
    2.6394620550E-05    2.7063027492E-05    2.7748367401E-05    2.8451069613E-05
    2.9171574374E-05    2.9910333113E-05    3.0667808733E-05    3.1444475900E-05
    3.2240821347E-05    3.3057344179E-05    3.3894556192E-05    3.4752982196E-05
    3.5633160348E-05    3.6535642496E-05    3.7460994526E-05    3.8409796724E-05
    3.9382644146E-05    4.0380146992E-05    4.1402931002E-05    4.2451637846E-05
    4.3526925540E-05    4.4629468864E-05    4.5759959792E-05    4.6919107935E-05
    4.8107640994E-05    4.9326305227E-05    5.0575865928E-05    5.1857107916E-05
    5.3170836039E-05    5.4517875693E-05    5.5899073352E-05    5.7315297114E-05
    5.8767437258E-05    6.0256406824E-05    6.1783142197E-05    6.3348603719E-05
    6.4953776307E-05    6.6599670096E-05    6.8287321093E-05    7.0017791851E-05
    7.1792172166E-05    7.3611579783E-05    7.5477161135E-05    7.7390092085E-05
    7.9351578707E-05    8.1362858075E-05    8.3425199081E-05    8.5539903270E-05
    8.7708305707E-05    8.9931775861E-05    9.2211718514E-05    9.4549574704E-05
    9.6946822683E-05    9.9404978913E-05    1.0192559908E-04    1.0451027916E-04
    1.0716065648E-04    1.0987841082E-04    1.1266526561E-04    1.1552298905E-04
    1.1845339534E-04    1.2145834596E-04    1.2453975092E-04    1.2769957009E-04
    1.3093981460E-04    1.3426254821E-04    1.3766988879E-04    1.4116400979E-04
    1.4474714181E-04    1.4842157419E-04    1.5218965666E-04    1.5605380100E-04
    1.6001648284E-04    1.6408024345E-04    1.6824769161E-04    1.7252150555E-04
    1.7690443494E-04    1.8139930295E-04    1.8600900841E-04    1.9073652799E-04
    1.9558491851E-04    2.0055731931E-04    2.0565695469E-04    2.1088713646E-04
    2.1625126657E-04    2.2175283986E-04    2.2739544688E-04    2.3318277682E-04
    2.3911862061E-04    2.4520687404E-04    2.5145154110E-04    2.5785673738E-04
    2.6442669364E-04    2.7116575954E-04    2.7807840750E-04    2.8516923668E-04
    2.9244297725E-04    2.9990449469E-04    3.0755879441E-04    3.1541102647E-04
    3.2346649057E-04    3.3173064125E-04    3.4020909330E-04    3.4890762748E-04
    3.5783219643E-04    3.6698893091E-04    3.7638414633E-04    3.8602434957E-04
    3.9591624619E-04    4.0606674791E-04    4.1648298057E-04    4.2717229238E-04
    4.3814226270E-04    4.4940071122E-04    4.6095570758E-04    4.7281558161E-04
    4.8498893405E-04    4.9748464782E-04    5.1031189997E-04    5.2348017430E-04
    5.3699927458E-04    5.5087933870E-04    5.6513085340E-04    5.7976467008E-04
    5.9479202132E-04    6.1022453855E-04    6.2607427064E-04    6.4235370364E-04
    6.5907578175E-04    6.7625392949E-04    6.9390207530E-04    7.1203467651E-04
    7.3066674599E-04    7.4981388032E-04    7.6949228984E-04    7.8971883059E-04
    8.1051103827E-04    8.3188716437E-04    8.5386621471E-04    8.7646799038E-04
    8.9971313150E-04    9.2362316373E-04    9.4822054792E-04    9.7352873307E-04
    9.9957221284E-04    1.0263765858E-03    1.0539686198E-03    1.0823763207E-03
    1.1116290057E-03    1.1417573820E-03    1.1727936300E-03    1.2047714937E-03
    1.2377263758E-03    1.2716954401E-03    1.3067177214E-03    1.3428342425E-03
    1.3800881391E-03    1.4185247947E-03    1.4581919833E-03    1.4991400238E-03
    1.5414219439E-03    1.5850936567E-03    1.6302141492E-03    1.6768456842E-03
    1.7250540170E-03    1.7749086271E-03    1.8264829666E-03    1.8798547263E-03
    1.9351061213E-03    1.9923241961E-03    2.0516011527E-03    2.1130347013E-03
    2.1767284369E-03    2.2427922427E-03    2.3113427225E-03    2.3825036642E-03
    2.4564065369E-03    2.5331910237E-03    2.6130055926E-03    2.6960081094E-03
    2.7823664940E-03    2.8722594240E-03    2.9658770898E-03    3.0634220034E-03
    3.1651098657E-03    3.2711704963E-03    3.3818488306E-03    3.4974059881E-03
    3.6181204176E-03    3.7442891257E-03    3.8762289919E-03    4.0142781795E-03
    4.1587976475E-03    4.3101727697E-03    4.4688150712E-03    4.6351640882E-03
    4.8096893604E-03    4.9928925664E-03    5.1853098098E-03    5.3875140696E-03
    5.6001178225E-03    5.8237758531E-03    6.0591882611E-03    6.3071036825E-03
    6.5683227363E-03    6.8437017150E-03    7.1341565329E-03    7.4406669523E-03
    7.7642811033E-03    8.1061203202E-03    8.4673843132E-03    8.8493566991E-03
    9.2534109141E-03    9.6810165344E-03    1.0133746032E-02    1.0613281991E-02
    1.1121424821E-02    1.1660100991E-02    1.2231371825E-02    1.2837442891E-02
    1.3480674020E-02    1.4163590000E-02    1.4888891984E-02    1.5659469653E-02
    1.6478414186E-02    1.7349032087E-02    1.8274859913E-02    1.9259679968E-02
    2.0307537008E-02    2.1422756036E-02    2.2609961222E-02    2.3874096044E-02
    2.5220444697E-02    2.6654654849E-02    2.8182761827E-02    2.9811214297E-02
    3.1546901527E-02    3.3397182320E-02    3.5369915696E-02    3.7473493424E-02
    3.9716874483E-02    4.2109621569E-02    4.4661939720E-02    4.7384717186E-02
    5.0289568627E-02    5.3388880759E-02    5.6695860542E-02    6.0224586029E-02
    6.3990059974E-02    6.8008266313E-02    7.2296229629E-02    7.6872077694E-02
    8.1755107208E-02    8.6965852822E-02    9.2526159550E-02    9.8459258659E-02
    1.0478984711E-01    1.1154417066E-01    1.1875011062E-01    1.2643727442E-01
    1.3463708992E-01    1.4338290358E-01    1.5271008240E-01    1.6265611971E-01
    1.7326074471E-01    1.8456603564E-01    1.9661653664E-01    2.0945937798E-01
    2.2314439959E-01    2.3772427762E-01    2.5325465387E-01    2.6979426757E-01
    2.8740508931E-01    3.0615245658E-01    3.2610521045E-01    3.4733583275E-01
    3.6992058308E-01    3.9393963493E-01    4.1947720997E-01    4.4662170957E-01
    4.7546584244E-01    5.0610674720E-01    5.3864610853E-01    5.7319026536E-01
    6.0985030950E-01    6.4874217305E-01    6.8998670230E-01    7.3370971637E-01
    7.8004204807E-01    8.2911956443E-01    8.8108316444E-01    9.3607875085E-01
    9.9425717318E-01    1.0557741384E+00    1.1207900859E+00    1.1894700233E+00
    1.2619833187E+00    1.3385034452E+00    1.4192076747E+00    1.5042767143E+00
    1.5938942830E+00    1.6882466221E+00    1.7875219357E+00    1.8919097557E+00
    2.0016002269E+00    2.1167833061E+00    2.2376478723E+00    2.3643807411E+00
    2.4971655800E+00    2.6361817206E+00    2.7816028618E+00    2.9335956636E+00
    3.0923182252E+00    3.2579184479E+00    3.4305322794E+00    3.6102818407E+00
    3.7972734336E+00    3.9915954342E+00    4.1933160714E+00    4.4024810990E+00
    4.6191113651E+00    4.8432002885E+00    5.0747112523E+00    5.3135749282E+00
    5.5596865449E+00    5.8129031212E+00    6.0730406821E+00    6.3398714835E+00
    6.6131212709E+00    6.8924666029E+00    7.1775322727E+00    7.4678888638E+00
    7.7630504798E+00    8.0624726912E+00    8.3655507458E+00    8.6716180902E+00
    8.9799452554E+00    9.2897391588E+00    9.6001428778E+00    9.9102359524E+00
    1.0219035272E+01    1.0525496604E+01    1.0828516817E+01    1.1126936852E+01
    1.1419545497E+01    1.1705083992E+01    1.1982251521E+01    1.2249711611E+01
    1.2506099458E+01    1.2750030198E+01    1.2980108106E+01    1.3194936718E+01
    1.3393129842E+01    1.3573323399E+01    1.3734188031E+01    1.3874442387E+01
    1.3992866974E+01    1.4088318442E+01    1.4159744152E+01    1.4206196846E+01
    1.4226849227E+01    1.4221008234E+01    1.4188128778E+01    1.4127826684E+01
    1.4039890591E+01    1.3924292536E+01    1.3781196946E+01    1.3610967791E+01
    1.3414173610E+01    1.3191590198E+01    1.2944200713E+01    1.2673193031E+01
    1.2379954186E+01    1.2066061802E+01    1.1733272455E+01    1.1383506994E+01
    1.1018832868E+01    1.0641443632E+01    1.0253635828E+01    9.8577835475E+00
    9.4563110234E+00    9.0516637014E+00    8.6462782722E+00    8.2425522208E+00
    7.8428134843E+00    7.4492908387E+00    7.0640856514E+00    6.6891456271E+00
    6.3262411550E+00    5.9769448175E+00    5.6426145593E+00    5.3243809306E+00
    5.0231387183E+00    4.7395431645E+00    4.4740108427E+00    4.2267251301E+00
    3.9976460786E+00    3.7865243538E+00    3.5929187884E+00    3.4162169890E+00
    3.2556583439E+00    3.1103587183E+00    2.9793360843E+00    2.8615363298E+00
    2.7558585113E+00    2.6611788748E+00    2.5763730488E+00    2.5003359188E+00
    2.4319988178E+00    2.3703437990E+00    2.3144148958E+00    2.2633264056E+00
    2.2162683545E+00    2.1725094020E+00    2.1313975218E+00    2.0923588418E+00
    2.0548950490E+00    2.0185797514E+00    1.9830541542E+00    1.9480223451E+00
    1.9132464106E+00    1.8785415491E+00    1.8437714678E+00    1.8088439382E+00
    1.7737061066E+00    1.7383396637E+00    1.7027541048E+00    1.6669711842E+00
    1.6310153380E+00    1.5949132215E+00    1.5586933985E+00    1.5223861017E+00
    1.4860229939E+00    1.4496369316E+00    1.4132617342E+00    1.3769319585E+00
    1.3406826802E+00    1.3045492818E+00    1.2685672502E+00    1.2327719821E+00
    1.1971985988E+00    1.1618817717E+00    1.1268555574E+00    1.0921532442E+00
    1.0578072092E+00    1.0238487866E+00    9.9030814793E-01    9.5721419312E-01
    9.2459445345E-01    8.9247500582E-01    8.6088039831E-01    8.2983358706E-01
    7.9935588408E-01    7.6946691577E-01    7.4018459203E-01    7.1152508544E-01
    6.8350282022E-01    6.5613047066E-01    6.2941896844E-01    6.0337751859E-01
    5.7801362334E-01    5.5333311367E-01    5.2934018776E-01    5.0603745595E-01
    4.8342599163E-01    4.6150538740E-01    4.4027381603E-01    4.1972809551E-01
    3.9986375768E-01    3.8067511979E-01    3.6215535842E-01    3.4429658515E-01
    3.2708992345E-01    3.1052558623E-01    2.9459295344E-01    2.7928064940E-01
    2.6457661914E-01    2.5046820356E-01    2.3694221288E-01    2.2398499791E-01
    2.1158251912E-01    1.9972041288E-01    1.8838405491E-01    1.7755862049E-01
    1.6722914151E-01    1.5738056002E-01    1.4799777836E-01    1.3906570569E-01
    1.3056930101E-01    1.2249361257E-01    1.1482381385E-01    1.0754523601E-01
    1.0064339707E-01    9.4104027820E-02    8.7913094592E-02    8.2056819125E-02
    7.6521695589E-02    7.1294504987E-02    6.6362327105E-02    6.1712550179E-02
    5.7332878494E-02    5.3211338079E-02    4.9336280704E-02    4.5696386362E-02
    4.2280664412E-02    3.9078453567E-02    3.6079420892E-02    3.3273559964E-02
    3.0651188341E-02    2.8202944478E-02    2.5919784201E-02    2.3792976835E-02
    2.1814101093E-02    1.9975040782E-02    1.8267980377E-02    1.6685400534E-02
    1.5220073533E-02    1.3865058696E-02    1.2613697777E-02    1.1459610307E-02
    1.0396688912E-02    9.4190945530E-03    8.5212516921E-03    7.6978433553E-03
    6.9438060625E-03    6.2543246092E-03    5.6248266772E-03    5.0509772581E-03
    4.5286728729E-03    4.0540355956E-03    3.6234068287E-03    3.2333409265E-03
    2.8805985586E-03    2.5621399100E-03    2.2751176982E-03    2.0168700343E-03
    1.7849131520E-03    1.5769340295E-03    1.3907829356E-03    1.2244659271E-03
    1.0761373323E-03    9.4409224905E-04    8.2675909098E-04    7.2269221110E-04
    6.3056463316E-04    5.4916091782E-04    4.7737018965E-04    4.1417934843E-04
    3.5866648567E-04    3.0999452484E-04    2.6740510092E-04    2.3021269233E-04
    1.9779901540E-04    1.6960768899E-04    1.4513917436E-04    1.2394599291E-04
    1.0562822201E-04    8.9829267456E-05    7.6231908645E-05    6.4554611392E-05
    5.4548101429E-05    4.5992190578E-05    3.8692846390E-05    3.2479495229E-05
    2.7202548029E-05    2.2731137473E-05    1.8951054977E-05    1.5762875661E-05
    1.3080259424E-05    1.0828416312E-05    8.9427245131E-06    7.3674895994E-06
    6.0548339610E-06    4.9637057790E-06    4.0589973523E-06    3.3107630831E-06
    2.6935279553E-06    2.1856778848E-06
 </PP_RHOATOM>
 <PP_GIPAW gipaw_data_format="2">
   <PP_GIPAW_CORE_ORBITALS number_of_core_orbitals="5">
     <PP_GIPAW_CORE_ORBITAL.1 size="1106" index="1" label="1S" n="1" l="0">
   0.0000000000000000E+00   6.9946169730137325E-03   7.0801509889150561E-03
   7.1667293895191784E-03   7.2543648529958780E-03   7.3430702659567360E-03
   7.4328586885869692E-03   7.5237433403417230E-03   7.6157376014996375E-03
   7.7088550151051226E-03   7.8031092889394678E-03   7.8985142975160141E-03
   7.9950840840992479E-03   8.0928328627480443E-03   8.1917750203833236E-03
   8.2919251188804700E-03   8.3932978971867217E-03   8.4959082734639060E-03
   8.5997713472567485E-03   8.7049024016870799E-03   8.8113169056742574E-03
   8.9190305161820551E-03   9.0280590804924215E-03   9.1384186385062901E-03
   9.2501254250719044E-03   9.3631958723408015E-03   9.4776466121519846E-03
   9.5934944784444066E-03   9.7107565096982255E-03   9.8294499514051132E-03
   9.9495922585679658E-03   1.0071201098230355E-02   1.0194294352036047E-02
   1.0318890118818955E-02   1.0445006717223869E-02   1.0572662688358348E-02
   1.0701876798476012E-02   1.0832668041691813E-02   1.0965055642729413E-02
   1.1099059059701195E-02   1.1234697986921248E-02   1.1371992357751661E-02
   1.1510962347482528E-02   1.1651628376246097E-02   1.1794011111965387E-02
   1.1938131473337677E-02   1.2084010632853298E-02   1.2231670019850120E-02
   1.2381131323604112E-02   1.2532416496456400E-02   1.2685547756977255E-02
   1.2840547593167452E-02   1.2997438765697268E-02   1.3156244311183837E-02
   1.3316987545506949E-02   1.3479692067164064E-02   1.3644381760664702E-02
   1.3811080799964820E-02   1.3979813651941583E-02   1.4150605079908975E-02
   1.4323480147174734E-02   1.4498464220639004E-02   1.4675582974435301E-02
   1.4854862393614115E-02   1.5036328777869758E-02   1.5220008745310862E-02
   1.5405929236275045E-02   1.5594117517188252E-02   1.5784601184469171E-02
   1.5977408168479451E-02   1.6172566737519933E-02   1.6370105501873636E-02
   1.6570053417895973E-02   1.6772439792152607E-02   1.6977294285605626E-02
   1.7184646917848465E-02   1.7394528071390164E-02   1.7606968495989510E-02
   1.7821999313039572E-02   1.8039652020003238E-02   1.8259958494900329E-02
   1.8482951000846681E-02   1.8708662190646090E-02   1.8937125111435370E-02
   1.9168373209383315E-02   1.9402440334444142E-02   1.9639360745165781E-02
   1.9879169113554085E-02   2.0121900529992961E-02   2.0367590508221567E-02
   2.0616274990368905E-02   2.0867990352046509E-02   2.1122773407499844E-02
   2.1380661414819126E-02   2.1641692081210029E-02   2.1905903568325190E-02
   2.2173334497656939E-02   2.2444023955991994E-02   2.2718011500928788E-02
   2.2995337166458227E-02   2.3276041468608271E-02   2.3560165411153272E-02
   2.3847750491388701E-02   2.4138838705971933E-02   2.4433472556829757E-02
   2.4731695057133442E-02   2.5033549737341936E-02   2.5339080651314055E-02
   2.5648332382490271E-02   2.5961350050144910E-02   2.6278179315709551E-02
   2.6598866389168144E-02   2.6923458035524865E-02   2.7252001581345466E-02
   2.7584544921372554E-02   2.7921136525216016E-02   2.8261825444118944E-02
   2.8606661317800305E-02   2.8955694381374724E-02   2.9308975472350316E-02
   2.9666556037705571E-02   3.0028488141045785E-02   3.0394824469839966E-02
   3.0765618342739262E-02   3.1140923716977204E-02   3.1520795195853345E-02
   3.1905288036300203E-02   3.2294458156535283E-02   3.2688362143798312E-02
   3.3087057262174903E-02   3.3490601460507426E-02   3.3899053380393875E-02
   3.4312472364275530E-02   3.4730918463614688E-02   3.5154452447162740E-02
   3.5583135809319807E-02   3.6017030778586895E-02   3.6456200326111243E-02
   3.6900708174325642E-02   3.7350618805683244E-02   3.7805997471487739E-02
   3.8266910200820792E-02   3.8733423809566903E-02   3.9205605909537165E-02
   3.9683524917692156E-02   4.0167250065465614E-02   4.0656851408189323E-02
   4.1152399834619970E-02   4.1653967076569577E-02   4.2161625718639545E-02
   4.2675449208059983E-02   4.3195511864634765E-02   4.3721888890793197E-02
   4.4254656381749712E-02   4.4793891335772010E-02   4.5339671664558441E-02
   4.5892076203726435E-02   4.6451184723411490E-02   4.7017077938979163E-02
   4.7589837521849823E-02   4.8169546110437340E-02   4.8756287321203302E-02
   4.9350145759826443E-02   4.9951207032489627E-02   5.0559557757283824E-02
   5.1175285575731262E-02   5.1798479164427765E-02   5.2429228246805730E-02
   5.3067623605018314E-02   5.3713757091945785E-02   5.4367721643325310E-02
   5.5029611290004284E-02   5.5699521170319073E-02   5.6377547542598980E-02
   5.7063787797797486E-02   5.7758340472250577E-02   5.8461305260563687E-02
   5.9172783028627933E-02   5.9892875826766605E-02   6.0621686903012270E-02
   6.1359320716516383E-02   6.2105882951091054E-02   6.2861480528884781E-02
   6.3626221624192361E-02   6.4400215677400077E-02   6.5183573409067094E-02
   6.5976406834143464E-02   6.6778829276326265E-02   6.7590955382553608E-02
   6.8412901137638413E-02   6.9244783879042024E-02   7.0086722311788849E-02
   7.0938836523522106E-02   7.1801247999702569E-02   7.2674079638949715E-02
   7.3557455768527222E-02   7.4451502159972510E-02   7.5356346044871680E-02
   7.6272116130780249E-02   7.7198942617290572E-02   7.8136957212246075E-02
   7.9086293148103642E-02   8.0047085198444071E-02   8.1019469694631752E-02
   8.2003584542623825E-02   8.2999569239929280E-02   8.4007564892719017E-02
   8.5027714233086457E-02   8.6060161636460047E-02   8.7105053139168151E-02
   8.8162536456155530E-02   8.9232760998853411E-02   9.0315877893202015E-02
   9.1412039997827349E-02   9.2521401922371127E-02   9.3644120045975263E-02
   9.4780352535920126E-02   9.5930259366417400E-02   9.7094002337557911E-02
   9.8271745094413707E-02   9.9463653146294892E-02   1.0066989388616145E-01
   1.0189063661018997E-01   1.0312605253749431E-01   1.0437631483000173E-01
   1.0564159861248294E-01   1.0692208099273606E-01   1.0821794108192496E-01
   1.0952936001507081E-01   1.1085652097169715E-01   1.1219960919662689E-01
   1.1355881202093246E-01   1.1493431888303680E-01   1.1632632134996558E-01
   1.1773501313875007E-01   1.1916059013797842E-01   1.2060325042949697E-01
   1.2206319431025790E-01   1.2354062431431441E-01   1.2503574523496111E-01
   1.2654876414701938E-01   1.2807989042926457E-01   1.2962933578699681E-01
   1.3119731427475098E-01   1.3278404231914581E-01   1.3438973874187052E-01
   1.3601462478280665E-01   1.3765892412328415E-01   1.3932286290946855E-01
   1.4100666977587839E-01   1.4271057586903058E-01   1.4443481487121007E-01
   1.4617962302436377E-01   1.4794523915411467E-01   1.4973190469389286E-01
   1.5153986370918396E-01   1.5336936292188738E-01   1.5522065173478514E-01
   1.5709398225611793E-01   1.5898960932426151E-01   1.6090779053250515E-01
   1.6284878625392440E-01   1.6481285966634629E-01   1.6680027677740394E-01
   1.6881130644967371E-01   1.7084622042589340E-01   1.7290529335425633E-01
   1.7498880281377560E-01   1.7709702933971555E-01   1.7923025644908427E-01
   1.8138877066618186E-01   1.8357286154820115E-01   1.8578282171087218E-01
   1.8801894685414797E-01   1.9028153578792242E-01   1.9257089045777789E-01
   1.9488731597075210E-01   1.9723112062112141E-01   1.9960261591619086E-01
   2.0200211660208534E-01   2.0442994068953421E-01   2.0688640947964318E-01
   2.0937184758964023E-01   2.1188658297859764E-01   2.1443094697310977E-01
   2.1700527429292743E-01   2.1960990307653561E-01   2.2224517490666462E-01
   2.2491143483572809E-01   2.2760903141117636E-01   2.3033831670075319E-01
   2.3309964631765137E-01   2.3589337944554695E-01   2.3871987886351126E-01
   2.4157951097078170E-01   2.4447264581138237E-01   2.4739965709858289E-01
   2.5036092223918094E-01   2.5335682235759793E-01   2.5638774231977124E-01
   2.5945407075683302E-01   2.6255620008855862E-01   2.6569452654657028E-01
   2.6886945019728381E-01   2.7208137496457774E-01   2.7533070865217518E-01
   2.7861786296571694E-01   2.8194325353451066E-01   2.8530729993294118E-01
   2.8871042570151978E-01   2.9215305836755767E-01   2.9563562946544375E-01
   2.9915857455650602E-01   3.0272233324843884E-01   3.0632734921427479E-01
   3.0997407021087864E-01   3.1366294809694661E-01   3.1739443885047908E-01
   3.2116900258571801E-01   3.2498710356951210E-01   3.2884921023709457E-01
   3.3275579520724569E-01   3.3670733529681268E-01   3.4070431153456787E-01
   3.4474720917436913E-01   3.4883651770760621E-01   3.5297273087489189E-01
   3.5715634667698093E-01   3.6138786738488354E-01   3.6566779954913792E-01
   3.6999665400822113E-01   3.7437494589605369E-01   3.7880319464858003E-01
   3.8328192400937688E-01   3.8781166203426659E-01   3.9239294109489620E-01
   3.9702629788124166E-01   4.0171227340300975E-01   4.0645141298989423E-01
   4.1124426629064564E-01   4.1609138727092321E-01   4.2099333420987678E-01
   4.2595066969543088E-01   4.3096396061821746E-01   4.3603377816411770E-01
   4.4116069780537387E-01   4.4634529929021216E-01   4.5158816663094720E-01
   4.5688988809050679E-01   4.6225105616733431E-01   4.6767226757862351E-01
   4.7315412324181882E-01   4.7869722825435124E-01   4.8430219187153656E-01
   4.8996962748259643E-01   4.9570015258473943E-01   5.0149438875524055E-01
   5.0735296162147481E-01   5.1327650082883725E-01   5.1926564000648079E-01
   5.2532101673083276E-01   5.3144327248679957E-01   5.3763305262661676E-01
   5.4389100632626952E-01   5.5021778653941311E-01   5.5661404994873609E-01
   5.6308045691467945E-01   5.6961767142145903E-01   5.7622636102030567E-01
   5.8290719676984981E-01   5.8966085317358663E-01   5.9648800811431857E-01
   6.0338934278553380E-01   6.1036554161960344E-01   6.1741729221273778E-01
   6.2454528524661723E-01   6.3175021440659940E-01   6.3903277629642763E-01
   6.4639367034935502E-01   6.5383359873557934E-01   6.6135326626591684E-01
   6.6895338029160079E-01   6.7663465060013350E-01   6.8439778930707307E-01
   6.9224351074367230E-01   7.0017253134026280E-01   7.0818556950528522E-01
   7.1628334549986028E-01   7.2446658130780073E-01   7.3273600050094845E-01
   7.4109232809974290E-01   7.4953629042889314E-01   7.5806861496805300E-01
   7.6669003019739024E-01   7.7540126543791610E-01   7.8420305068647966E-01
   7.9309611644529632E-01   8.0208119354588492E-01   8.1115901296730841E-01
   8.2033030564857701E-01   8.2959580229510121E-01   8.3895623317905632E-01
   8.4841232793353594E-01   8.5796481534036750E-01   8.6761442311144477E-01
   8.7736187766345697E-01   8.8720790388587267E-01   8.9715322490203708E-01
   9.0719856182325653E-01   9.1734463349571593E-01   9.2759215624009461E-01
   9.3794184358374355E-01   9.4839440598525904E-01   9.5895055055133149E-01
   9.6961098074570995E-01   9.8037639609012361E-01   9.9124749185704053E-01
   1.0022249587540695E+00   1.0133094825998965E+00   1.0245017439915742E+00
   1.0358024179630156E+00   1.0472121736345537E+00   1.0587316738533745E+00
   1.0703615748247151E+00   1.0821025257336212E+00   1.0939551683571467E+00
   1.1059201366668090E+00   1.1179980564211507E+00   1.1301895447482533E+00
   1.1424952097180388E+00   1.1549156499041950E+00   1.1674514539355816E+00
   1.1801032000369280E+00   1.1928714555587046E+00   1.2057567764959738E+00
   1.2187597069960769E+00   1.2318807788550172E+00   1.2451205110023358E+00
   1.2584794089743869E+00   1.2719579643758114E+00   1.2855566543290757E+00
   1.2992759409119352E+00   1.3131162705826442E+00   1.3270780735928032E+00
   1.3411617633876689E+00   1.3553677359938066E+00   1.3696963693939410E+00
   1.3841480228888534E+00   1.3987230364462253E+00   1.4134217300362766E+00
   1.4282444029540755E+00   1.4431913331284187E+00   1.4582627764171354E+00
   1.4734589658887360E+00   1.4887801110902852E+00   1.5042263973013907E+00
   1.5197979847742351E+00   1.5354950079595437E+00   1.5513175747184116E+00
   1.5672657655199365E+00   1.5833396326245432E+00   1.5995391992530084E+00
   1.6158644587410518E+00   1.6323153736795402E+00   1.6488918750401951E+00
   1.6655938612868360E+00   1.6824211974721117E+00   1.6993737143197312E+00
   1.7164512072922047E+00   1.7336534356441102E+00   1.7509801214609144E+00
   1.7684309486834138E+00   1.7860055621178172E+00   1.8037035664315832E+00
   1.8215245251350796E+00   1.8394679595491563E+00   1.8575333477587830E+00
   1.8757201235528496E+00   1.8940276753503120E+00   1.9124553451128321E+00
   1.9310024272441135E+00   1.9496681674761420E+00   1.9684517617425372E+00
   1.9873523550392997E+00   2.0063690402731895E+00   2.0255008570980593E+00
   2.0447467907394330E+00   2.0641057708076844E+00   2.0835766701001726E+00
   2.1031583033927417E+00   2.1228494262209723E+00   2.1426487336516624E+00
   2.1625548590449797E+00   2.1825663728078171E+00   2.2026817811388599E+00
   2.2228995247659360E+00   2.2432179776762546E+00   2.2636354458401358E+00
   2.2841501659289305E+00   2.3047603040277824E+00   2.3254639543440150E+00
   2.3462591379118649E+00   2.3671438012944024E+00   2.3881158152834625E+00
   2.4091729735984999E+00   2.4303129915852537E+00   2.4515335049152438E+00
   2.4728320682870497E+00   2.4942061541304703E+00   2.5156531513146478E+00
   2.5371703638613035E+00   2.5587550096642682E+00   2.5804042192165637E+00
   2.6021150343462978E+00   2.6238844069627407E+00   2.6457091978139351E+00
   2.6675861752573145E+00   2.6895120140447784E+00   2.7114832941238145E+00
   2.7334964994562174E+00   2.7555480168561091E+00   2.7776341348488938E+00
   2.7997510425529941E+00   2.8218948285861147E+00   2.8440614799979542E+00
   2.8662468812312896E+00   2.8884468131134069E+00   2.9106569518799503E+00
   2.9328728682332872E+00   2.9550900264375621E+00   2.9773037834526725E+00
   2.9995093881094457E+00   3.0217019803283649E+00   3.0438765903842593E+00
   3.0660281382194370E+00   3.0881514328077437E+00   3.1102411715722020E+00
   3.1322919398588058E+00   3.1542982104692263E+00   3.1762543432551715E+00
   3.1981545847772179E+00   3.2199930680309845E+00   3.2417638122435899E+00
   3.2634607227433774E+00   3.2850775909059284E+00   3.3066080941794818E+00
   3.3280457961928565E+00   3.3493841469491046E+00   3.3706164831080878E+00
   3.3917360283612883E+00   3.4127358939021342E+00   3.4336090789952300E+00
   3.4543484716478488E+00   3.4749468493871238E+00   3.4953968801464059E+00
   3.5156911232642374E+00   3.5358220305994701E+00   3.5557819477660275E+00
   3.5755631154908540E+00   3.5951576710986033E+00   3.6145576501265988E+00
   3.6337549880736266E+00   3.6527415222861057E+00   3.6715089939851571E+00
   3.6900490504381169E+00   3.7083532472779579E+00   3.7264130509740965E+00
   3.7442198414580372E+00   3.7617649149071943E+00   3.7790394866902788E+00
   3.7960346944775032E+00   3.8127416015188218E+00   3.8291512000933445E+00
   3.8452544151329837E+00   3.8610421080232968E+00   3.8765050805843919E+00
   3.8916340792346413E+00   3.9064197993398420E+00   3.9208528897503006E+00
   3.9349239575282362E+00   3.9486235728676671E+00   3.9619422742088455E+00
   3.9748705735490937E+00   3.9873989619517070E+00   3.9995179152544198E+00
   4.0112178999786643E+00   4.0224893794406826E+00   4.0333228200652682E+00
   4.0437086979026970E+00   4.0536375053490898E+00   4.0630997580702513E+00
   4.0720860021286303E+00   4.0805868213128393E+00   4.0885928446687707E+00
   4.0960947542310544E+00   4.1030832929532242E+00   4.1095492728346352E+00
   4.1154835832416952E+00   4.1208771994207298E+00   4.1257211911992071E+00
   4.1300067318717959E+00   4.1337251072671588E+00   4.1368677249909949E+00
   4.1394261238403587E+00   4.1413919833837838E+00   4.1427571337012914E+00
   4.1435135652777726E+00   4.1436534390427813E+00   4.1431690965492232E+00
   4.1420530702828362E+00   4.1402980940938514E+00   4.1378971137416531E+00
   4.1348432975426039E+00   4.1311300471107364E+00   4.1267510081803005E+00
   4.1217000814986280E+00   4.1159714337771556E+00   4.1095595086877985E+00
   4.1024590378913217E+00   4.0946650520836743E+00   4.0861728920456883E+00
   4.0769782196808926E+00   4.0670770290256293E+00   4.0564656572149955E+00
   4.0451407953876073E+00   4.0330994995115406E+00   4.0203392011132548E+00
   4.0068577178907399E+00   3.9926532641915693E+00   3.9777244613360505E+00
   3.9620703477650538E+00   3.9456903889917840E+00   3.9285844873361033E+00
   3.9107529914196939E+00   3.8921967053998947E+00   3.8729168979196951E+00
   3.8529153107509071E+00   3.8321941671073554E+00   3.8107561796045228E+00
   3.7886045578418508E+00   3.7657430155836580E+00   3.7421757775144640E+00
   3.7179075855442996E+00   3.6929437046393896E+00   3.6672899281536471E+00
   3.6409525826361158E+00   3.6139385320895192E+00   3.5862551816551553E+00
   3.5579104806990691E+00   3.5289129252747249E+00   3.4992715599372799E+00
   3.4689959788845059E+00   3.4380963263998021E+00   3.4065832965724128E+00
   3.3744681322705139E+00   3.3417626233428650E+00   3.3084791040248551E+00
   3.2746304495256116E+00   3.2402300717728130E+00   3.2052919142929484E+00
   3.1698304462054940E+00   3.1338606553104182E+00   3.0973980402502588E+00
   3.0604586017293207E+00   3.0230588327758241E+00   2.9852157080348203E+00
   2.9469466720633619E+00   2.9082696266707284E+00   2.8692029172448112E+00
   2.8297653180972309E+00   2.7899760168258441E+00   2.7498545977055819E+00
   2.7094210241231398E+00   2.6686956200759817E+00   2.6276990507608176E+00
   2.5864523022814501E+00   2.5449766605098745E+00   2.5032936891384172E+00
   2.4614252069635407E+00   2.4193932644447820E+00   2.3772201195837130E+00
   2.3349282131691700E+00   2.2925401434355721E+00   2.2500786401807944E+00
   2.2075665383901271E+00   2.1650267514115122E+00   2.1224822437264783E+00
   2.0799560033600648E+00   2.0374710139713850E+00   1.9950502266659114E+00
   1.9527165315689254E+00   1.9104927291990688E+00   1.8684015016806657E+00
   1.8264653838329106E+00   1.7847067341752829E+00   1.7431477058892320E+00
   1.7018102177781316E+00   1.6607159252704815E+00   1.6198861915139566E+00
   1.5793420586121938E+00   1.5391042190601048E+00   1.4991929874375465E+00
   1.4596282724259102E+00   1.4204295492153562E+00   1.3816158323742429E+00
   1.3432056492547801E+00   1.3052170140106221E+00   1.2676674023036347E+00
   1.2305737267768564E+00   1.1939523133705958E+00   1.1578188785573538E+00
   1.1221885075695288E+00   1.0870756336919318E+00   1.0524940186884262E+00
   1.0184567344292159E+00   9.8497614578233927E-01   9.5206389482931031E-01
   9.1973088646153034E-01   8.8798727541016764E-01   8.5684245475824383E-01
   8.2630504597948751E-01   7.9638289054401190E-01   7.6708304312632725E-01
   7.3841176644619622E-01   7.1037452776796239E-01   6.8297599707848244E-01
   6.5622004695853065E-01   6.3010975415686243E-01   6.0464740287026131E-01
   5.7983448972730012E-01   5.5567173046729601E-01   5.3215906830012394E-01
   5.0929568392651503E-01   4.8708000719231132E-01   4.6550973034438203E-01
   4.4458182284979048E-01   4.2429254773407038E-01   4.0463747938887962E-01
   3.8561152279357203E-01   3.6720893409013333E-01   3.4942334244567869E-01
   3.3224777313183734E-01   3.1567467174595693E-01   2.9969592949452462E-01
   2.8430290945549447E-01   2.6948647373250550E-01   2.5523701141070099E-01
   2.4154446722123965E-01   2.2839837081892692E-01   2.1578786657560389E-01
   2.0370174379031561E-01   1.9212846721614490E-01   1.8105620780308387E-01
   1.7047287355603433E-01   1.6036614040738720E-01   1.5072348300443220E-01
   1.4153220531299418E-01   1.3277947094049461E-01   1.2445233308370483E-01
   1.1653776400906497E-01   1.0902268397647309E-01   1.0189398952080105E-01
   9.5138581009243259E-02   8.8743389396719163E-02   8.2695402106058580E-02
   7.6981687964489551E-02   7.1589421133017833E-02   6.6505903970619853E-02
   6.1718588780704568E-02   5.7215098393032592E-02   5.2983245540131195E-02
   4.9011050993283289E-02   4.5286760429196167E-02   4.1798860004630727E-02
   3.8536090622424760E-02   3.5487460878475791E-02   3.2642258685419416E-02
   2.9990061574764783E-02   2.7520745685250692E-02   2.5224493451069741E-02
   2.3091800009316727E-02   2.1113478351612019E-02   1.9280663250203049E-02
   1.7584813993956356E-02   1.6017715974499781E-02   1.4571481167212217E-02
   1.3238547555843944E-02   1.2011677553112015E-02   1.0883955472658335E-02
   9.8487841102327320E-03   8.8998804938007544E-03   8.0312708635306620E-03
   7.2372849432628334E-03   6.5125495651757181E-03   5.8519817090011790E-03
   5.2507810163688468E-03   4.7044218397688424E-03   4.2086448842991930E-03
   3.7594484988960251E-03   3.3530796722406877E-03   2.9860247870840528E-03
   2.6550001853936052E-03   2.3569425955213773E-03   2.0889994714395361E-03
   1.8485192928483375E-03   1.6330418734326029E-03   1.4402887225531613E-03
   1.2681535030945696E-03   1.1146926250601434E-03   9.7811601090316207E-04
   8.5677806468938177E-04   7.4916887318911426E-04   6.5390566305991316E-04
   5.6972453452332694E-04   4.9547248841951908E-04   4.3009976026223834E-04
   3.7265247190701564E-04   3.2226560866457769E-04   2.7815632711859794E-04
   2.3961759652683319E-04   2.0601217447895583E-04   1.7676691545323857E-04
   1.5136740904958366E-04   1.2935294298087633E-04   1.1031178437748569E-04
   9.3876771600966111E-05   7.9721207573270724E-05   6.7555044603629383E-05
   5.7121349834825982E-05   4.8193039727132639E-05   4.0569871448005165E-05
   3.4075678628151451E-05   2.8555838673247085E-05   2.3874958674925213E-05
   1.9914766934714764E-05   1.6572197189540924E-05   1.3757652796560044E-05
   1.1393438387365161E-05   9.4123468261296332E-06   7.7563896926296024E-06
   6.3756599483059447E-06   5.2273159228463908E-06   4.2746762695119409E-06
   3.4864160714671232E-06   2.8358548301458325E-06   2.3003276227076294E-06
   1.8606313986351383E-06   1.4885655084771653E-06   3.9994851626423776E-08
  -6.6763758495693261E-10   0.0000000000000000E+00   0.0000000000000000E+00
   0.0000000000000000E+00   0.0000000000000000E+00   0.0000000000000000E+00
   0.0000000000000000E+00   0.0000000000000000E+00   0.0000000000000000E+00
   0.0000000000000000E+00   0.0000000000000000E+00   0.0000000000000000E+00
   0.0000000000000000E+00   0.0000000000000000E+00   0.0000000000000000E+00
   0.0000000000000000E+00   0.0000000000000000E+00   0.0000000000000000E+00
   0.0000000000000000E+00   0.0000000000000000E+00   0.0000000000000000E+00
   0.0000000000000000E+00   0.0000000000000000E+00   0.0000000000000000E+00
   0.0000000000000000E+00   0.0000000000000000E+00   0.0000000000000000E+00
   0.0000000000000000E+00   0.0000000000000000E+00   0.0000000000000000E+00
   0.0000000000000000E+00   0.0000000000000000E+00   0.0000000000000000E+00
   0.0000000000000000E+00   0.0000000000000000E+00   0.0000000000000000E+00
   0.0000000000000000E+00   0.0000000000000000E+00   0.0000000000000000E+00
   0.0000000000000000E+00   0.0000000000000000E+00   0.0000000000000000E+00
   0.0000000000000000E+00   0.0000000000000000E+00   0.0000000000000000E+00
   0.0000000000000000E+00   0.0000000000000000E+00   0.0000000000000000E+00
   0.0000000000000000E+00   0.0000000000000000E+00   0.0000000000000000E+00
   0.0000000000000000E+00   0.0000000000000000E+00   0.0000000000000000E+00
   0.0000000000000000E+00   0.0000000000000000E+00   0.0000000000000000E+00
   0.0000000000000000E+00   0.0000000000000000E+00   0.0000000000000000E+00
   0.0000000000000000E+00   0.0000000000000000E+00   0.0000000000000000E+00
   0.0000000000000000E+00   0.0000000000000000E+00   0.0000000000000000E+00
   0.0000000000000000E+00   0.0000000000000000E+00   0.0000000000000000E+00
   0.0000000000000000E+00   0.0000000000000000E+00   0.0000000000000000E+00
   0.0000000000000000E+00   0.0000000000000000E+00   0.0000000000000000E+00
   0.0000000000000000E+00   0.0000000000000000E+00   0.0000000000000000E+00
   0.0000000000000000E+00   0.0000000000000000E+00   0.0000000000000000E+00
   0.0000000000000000E+00   0.0000000000000000E+00   0.0000000000000000E+00
   0.0000000000000000E+00   0.0000000000000000E+00   0.0000000000000000E+00
   0.0000000000000000E+00   0.0000000000000000E+00   0.0000000000000000E+00
   0.0000000000000000E+00   0.0000000000000000E+00   0.0000000000000000E+00
   0.0000000000000000E+00   0.0000000000000000E+00   0.0000000000000000E+00
   0.0000000000000000E+00   0.0000000000000000E+00   0.0000000000000000E+00
   0.0000000000000000E+00   0.0000000000000000E+00   0.0000000000000000E+00
   0.0000000000000000E+00   0.0000000000000000E+00   0.0000000000000000E+00
   0.0000000000000000E+00   0.0000000000000000E+00   0.0000000000000000E+00
   0.0000000000000000E+00   0.0000000000000000E+00   0.0000000000000000E+00
   0.0000000000000000E+00   0.0000000000000000E+00   0.0000000000000000E+00
   0.0000000000000000E+00   0.0000000000000000E+00   0.0000000000000000E+00
   0.0000000000000000E+00   0.0000000000000000E+00   0.0000000000000000E+00
   0.0000000000000000E+00   0.0000000000000000E+00   0.0000000000000000E+00
   0.0000000000000000E+00   0.0000000000000000E+00   0.0000000000000000E+00
   0.0000000000000000E+00   0.0000000000000000E+00   0.0000000000000000E+00
   0.0000000000000000E+00   0.0000000000000000E+00   0.0000000000000000E+00
   0.0000000000000000E+00   0.0000000000000000E+00   0.0000000000000000E+00
   0.0000000000000000E+00   0.0000000000000000E+00   0.0000000000000000E+00
   0.0000000000000000E+00   0.0000000000000000E+00   0.0000000000000000E+00
   0.0000000000000000E+00   0.0000000000000000E+00   0.0000000000000000E+00
   0.0000000000000000E+00   0.0000000000000000E+00   0.0000000000000000E+00
   0.0000000000000000E+00   0.0000000000000000E+00   0.0000000000000000E+00
   0.0000000000000000E+00   0.0000000000000000E+00   0.0000000000000000E+00
   0.0000000000000000E+00   0.0000000000000000E+00   0.0000000000000000E+00
   0.0000000000000000E+00   0.0000000000000000E+00   0.0000000000000000E+00
   0.0000000000000000E+00   0.0000000000000000E+00   0.0000000000000000E+00
   0.0000000000000000E+00   0.0000000000000000E+00   0.0000000000000000E+00
   0.0000000000000000E+00   0.0000000000000000E+00   0.0000000000000000E+00
   0.0000000000000000E+00   0.0000000000000000E+00   0.0000000000000000E+00
   0.0000000000000000E+00   0.0000000000000000E+00   0.0000000000000000E+00
   0.0000000000000000E+00   0.0000000000000000E+00   0.0000000000000000E+00
   0.0000000000000000E+00   0.0000000000000000E+00   0.0000000000000000E+00
   0.0000000000000000E+00   0.0000000000000000E+00   0.0000000000000000E+00
   0.0000000000000000E+00   0.0000000000000000E+00   0.0000000000000000E+00
   0.0000000000000000E+00   0.0000000000000000E+00   0.0000000000000000E+00
   0.0000000000000000E+00   0.0000000000000000E+00   0.0000000000000000E+00
   0.0000000000000000E+00   0.0000000000000000E+00   0.0000000000000000E+00
   0.0000000000000000E+00   0.0000000000000000E+00   0.0000000000000000E+00
   0.0000000000000000E+00   0.0000000000000000E+00   0.0000000000000000E+00
   0.0000000000000000E+00   0.0000000000000000E+00   0.0000000000000000E+00
   0.0000000000000000E+00   0.0000000000000000E+00   0.0000000000000000E+00
   0.0000000000000000E+00   0.0000000000000000E+00   0.0000000000000000E+00
   0.0000000000000000E+00   0.0000000000000000E+00   0.0000000000000000E+00
   0.0000000000000000E+00   0.0000000000000000E+00   0.0000000000000000E+00
   0.0000000000000000E+00   0.0000000000000000E+00   0.0000000000000000E+00
   0.0000000000000000E+00   0.0000000000000000E+00   0.0000000000000000E+00
   0.0000000000000000E+00   0.0000000000000000E+00   0.0000000000000000E+00
   0.0000000000000000E+00   0.0000000000000000E+00   0.0000000000000000E+00
   0.0000000000000000E+00   0.0000000000000000E+00   0.0000000000000000E+00
   0.0000000000000000E+00   0.0000000000000000E+00   0.0000000000000000E+00
   0.0000000000000000E+00   0.0000000000000000E+00   0.0000000000000000E+00
   0.0000000000000000E+00   0.0000000000000000E+00   0.0000000000000000E+00
   0.0000000000000000E+00   0.0000000000000000E+00   0.0000000000000000E+00
   0.0000000000000000E+00   0.0000000000000000E+00   0.0000000000000000E+00
   0.0000000000000000E+00   0.0000000000000000E+00   0.0000000000000000E+00
   0.0000000000000000E+00   0.0000000000000000E+00   0.0000000000000000E+00
   0.0000000000000000E+00   0.0000000000000000E+00   0.0000000000000000E+00
   0.0000000000000000E+00   0.0000000000000000E+00
     </PP_GIPAW_CORE_ORBITAL.1>
     <PP_GIPAW_CORE_ORBITAL.2 size="1106" index="2" label="2S" n="2" l="0">
   0.0000000000000000E+00  -2.2066399819395733E-03  -2.2336239858570203E-03
  -2.2609374610274438E-03  -2.2885844065549639E-03  -2.3165688875599224E-03
  -2.3448950239988672E-03  -2.3735669860693322E-03  -2.4025889946977974E-03
  -2.4319653221522432E-03  -2.4617002926638040E-03  -2.4917982830560126E-03
  -2.5222637233815797E-03  -2.5531010975667801E-03  -2.5843149440635581E-03
  -2.6159098565094159E-03  -2.6478904843951815E-03  -2.6802615337407809E-03
  -2.7130277677790441E-03  -2.7461940076477032E-03  -2.7797651330896374E-03
  -2.8137460831614684E-03  -2.8481418569506270E-03  -2.8829575143009393E-03
  -2.9181981765468903E-03  -2.9538690272566210E-03  -2.9899753129837840E-03
  -3.0265223440283395E-03  -3.0635154952064229E-03  -3.1009602066293623E-03
  -3.1388619844919712E-03  -3.1772264018702008E-03  -3.2160590995282943E-03
  -3.2553657867355071E-03  -3.2951522420925517E-03  -3.3354243143678399E-03
  -3.3761879233436490E-03  -3.4174490606723412E-03  -3.4592137907427235E-03
  -3.5014882515566710E-03  -3.5442786556161739E-03  -3.5875912908208398E-03
  -3.6314325213760643E-03  -3.6758087887119296E-03  -3.7207266124129777E-03
  -3.7661925911589796E-03  -3.8122134036768151E-03  -3.8587958097036140E-03
  -3.9059466509612645E-03  -3.9536728521424097E-03  -4.0019814219080978E-03
  -4.0508794538971936E-03  -4.1003741277476696E-03  -4.1504727101299580E-03
  -4.2011825557924489E-03  -4.2525111086193015E-03  -4.3044659027007054E-03
  -4.3570545634157255E-03  -4.4102848085278432E-03  -4.4641644492934363E-03
  -4.5187013915831869E-03  -4.5739036370167291E-03  -4.6297792841105360E-03
  -4.6863365294393068E-03  -4.7435836688109528E-03  -4.8015290984553295E-03
  -4.8601813162268944E-03  -4.9195489228214141E-03  -4.9796406230069165E-03
  -5.0404652268690306E-03  -5.1020316510708170E-03  -5.1643489201273806E-03
  -5.2274261676952772E-03  -5.2912726378770061E-03  -5.3558976865406629E-03
  -5.4213107826549707E-03  -5.4875215096398585E-03  -5.5545395667327283E-03
  -5.6223747703706096E-03  -5.6910370555883737E-03  -5.7605364774331652E-03
  -5.8308832123952527E-03  -5.9020875598554704E-03  -5.9741599435494223E-03
  -6.0471109130486398E-03  -6.1209511452588921E-03  -6.1956914459358097E-03
  -6.2713427512180262E-03  -6.3479161291780358E-03  -6.4254227813909251E-03
  -6.5038740445212276E-03  -6.5832813919280524E-03  -6.6636564352886962E-03
  -6.7450109262409529E-03  -6.8273567580442902E-03  -6.9107059672601692E-03
  -6.9950707354515919E-03  -7.0804633909022164E-03  -7.1668964103551438E-03
  -7.2543824207716686E-03  -7.3429342011101378E-03  -7.4325646841251741E-03
  -7.5232869581874856E-03  -7.6151142691244546E-03  -7.7080600220817107E-03
  -7.8021377834060265E-03  -7.8973612825495500E-03  -7.9937444139958295E-03
  -8.0913012392076853E-03  -8.1900459885972804E-03  -8.2899930635185071E-03
  -8.3911570382820475E-03  -8.4935526621932374E-03  -8.5971948616130594E-03
  -8.7020987420424068E-03  -8.8082795902299574E-03  -8.9157528763038618E-03
  -9.0245342559274466E-03  -9.1346395724792983E-03  -9.2460848592577777E-03
  -9.3588863417104935E-03  -9.4730604396886919E-03  -9.5886237697270452E-03
  -9.7055931473489700E-03  -9.8239855893977584E-03  -9.9438183163938383E-03
  -1.0065108754918324E-02  -1.0187874540023182E-02  -1.0312133517668310E-02
  -1.0437903747185666E-02  -1.0565203503770892E-02  -1.0694051281002511E-02
  -1.0824465793389106E-02  -1.0956465978944724E-02  -1.1090071001792714E-02
  -1.1225300254798320E-02  -1.1362173362230315E-02  -1.1500710182451905E-02
  -1.1640930810641234E-02  -1.1782855581541719E-02  -1.1926505072242490E-02
  -1.2071900104989278E-02  -1.2219061750025947E-02  -1.2368011328466981E-02
  -1.2518770415201257E-02  -1.2671360841827283E-02  -1.2825804699620290E-02
  -1.2982124342531333E-02  -1.3140342390218865E-02  -1.3300481731112838E-02
  -1.3462565525511821E-02  -1.3626617208713316E-02  -1.3792660494177503E-02
  -1.3960719376724840E-02  -1.4130818135767701E-02  -1.4302981338576323E-02
  -1.4477233843579429E-02  -1.4653600803699695E-02  -1.4832107669724466E-02
  -1.5012780193711930E-02  -1.5195644432432999E-02  -1.5380726750849259E-02
  -1.5568053825627272E-02  -1.5757652648689370E-02  -1.5949550530801413E-02
  -1.6143775105197652E-02  -1.6340354331243038E-02  -1.6539316498133217E-02
  -1.6740690228632549E-02  -1.6944504482850301E-02  -1.7150788562055454E-02
  -1.7359572112530284E-02  -1.7570885129463022E-02  -1.7784757960879787E-02
  -1.8001221311616293E-02  -1.8220306247329229E-02  -1.8442044198547988E-02
  -1.8666466964766665E-02  -1.8893606718576820E-02  -1.9123496009841052E-02
  -1.9356167769907930E-02  -1.9591655315868230E-02  -1.9829992354853044E-02
  -2.0071212988373572E-02  -2.0315351716703369E-02  -2.0562443443303009E-02
  -2.0812523479287283E-02  -2.1065627547935530E-02  -2.1321791789245002E-02
  -2.1581052764527694E-02  -2.1843447461050845E-02  -2.2109013296721224E-02
  -2.2377788124813575E-02  -2.2649810238743316E-02  -2.2925118376883841E-02
  -2.3203751727428456E-02  -2.3485749933297297E-02  -2.3771153097089427E-02
  -2.4060001786080212E-02  -2.4352337037264186E-02  -2.4648200362443740E-02
  -2.4947633753363552E-02  -2.5250679686891229E-02  -2.5557381130243851E-02
  -2.5867781546261379E-02  -2.6181924898726068E-02  -2.6499855657728881E-02
  -2.6821618805082537E-02  -2.7147259839781432E-02  -2.7476824783508800E-02
  -2.7810360186190729E-02  -2.8147913131597594E-02  -2.8489531242992680E-02
  -2.8835262688828200E-02  -2.9185156188488874E-02  -2.9539261018082755E-02
  -2.9897627016279901E-02  -3.0260304590198198E-02  -3.0627344721337137E-02
  -3.0998798971558855E-02  -3.1374719489116930E-02  -3.1755159014732456E-02
  -3.2140170887717888E-02  -3.2529809052147841E-02  -3.2924128063077734E-02
  -3.3323183092809273E-02  -3.3727029937203112E-02  -3.4135725022038550E-02
  -3.4549325409420101E-02  -3.4967888804230608E-02  -3.5391473560630729E-02
  -3.5820138688605001E-02  -3.6253943860553473E-02  -3.6692949417929402E-02
  -3.7137216377922395E-02  -3.7586806440186554E-02  -3.8041781993613563E-02
  -3.8502206123150279E-02  -3.8968142616660408E-02  -3.9439655971829753E-02
  -3.9916811403115052E-02  -4.0399674848735134E-02  -4.0888312977704670E-02
  -4.1382793196909941E-02  -4.1883183658225173E-02  -4.2389553265670052E-02
  -4.2901971682607058E-02  -4.3420509338978105E-02  -4.3945237438580038E-02
  -4.4476227966377693E-02  -4.5013553695854622E-02  -4.5557288196399717E-02
  -4.6107505840729604E-02  -4.6664281812345644E-02  -4.7227692113024619E-02
  -4.7797813570342143E-02  -4.8374723845227834E-02  -4.8958501439551008E-02
  -4.9549225703736197E-02  -5.0146976844406853E-02  -5.0751835932056233E-02
  -5.1363884908744516E-02  -5.1983206595819960E-02  -5.2609884701664042E-02
  -5.3244003829457966E-02  -5.3885649484969503E-02  -5.4534908084359235E-02
  -5.5191866962003150E-02  -5.5856614378331733E-02  -5.6529239527682226E-02
  -5.7209832546163304E-02  -5.7898484519530051E-02  -5.8595287491066905E-02
  -5.9300334469477183E-02  -6.0013719436776879E-02  -6.0735537356190306E-02
  -6.1465884180045956E-02  -6.2204856857669605E-02  -6.2952553343273113E-02
  -6.3709072603835390E-02  -6.4474514626974067E-02  -6.5248980428804670E-02
  -6.6032572061784325E-02  -6.6825392622538046E-02  -6.7627546259663635E-02
  -6.8439138181513204E-02  -6.9260274663947491E-02  -7.0091063058059885E-02
  -7.0931611797867541E-02  -7.1782030407964728E-02  -7.2642429511136655E-02
  -7.3512920835928877E-02  -7.4393617224168582E-02  -7.5284632638434809E-02
  -7.6186082169472646E-02  -7.7098082043547872E-02  -7.8020749629737221E-02
  -7.8954203447150567E-02  -7.9898563172080272E-02  -8.0853949645072629E-02
  -8.1820484877917307E-02  -8.2798292060549547E-02  -8.3787495567859624E-02
  -8.4788220966405245E-02  -8.5800595021020776E-02  -8.6824745701317860E-02
  -8.7860802188072296E-02  -8.8908894879490288E-02  -8.9969155397349010E-02
  -9.1041716593004821E-02  -9.2126712553262602E-02  -9.3224278606100275E-02
  -9.4334551326240523E-02  -9.5457668540564533E-02  -9.6593769333358878E-02
  -9.7742994051388948E-02  -9.8905484308792424E-02  -1.0008138299178242E-01
  -1.0127083426315500E-01  -1.0247398356659156E-01  -1.0369097763074757E-01
  -1.0492196447312006E-01  -1.0616709340368290E-01  -1.0742651502828375E-01
  -1.0870038125179042E-01  -1.0998884528097956E-01  -1.1129206162715451E-01
  -1.1261018610848647E-01  -1.1394337585206490E-01  -1.1529178929564850E-01
  -1.1665558618910545E-01  -1.1803492759553019E-01  -1.1942997589202860E-01
  -1.2084089477015543E-01  -1.2226784923599598E-01  -1.2371100560987672E-01
  -1.2517053152569274E-01  -1.2664659592984021E-01  -1.2813936907973961E-01
  -1.2964902254193397E-01  -1.3117572918975345E-01  -1.3271966320052431E-01
  -1.3428100005231483E-01  -1.3585991652019819E-01  -1.3745659067201774E-01
  -1.3907120186364164E-01  -1.4070393073368498E-01  -1.4235495919768815E-01
  -1.4402447044173214E-01  -1.4571264891547167E-01  -1.4741968032457220E-01
  -1.4914575162252713E-01  -1.5089105100184189E-01  -1.5265576788456151E-01
  -1.5444009291212443E-01  -1.5624421793452156E-01  -1.5806833599873882E-01
  -1.5991264133646460E-01  -1.6177732935103861E-01  -1.6366259660361984E-01
  -1.6556864079855377E-01  -1.6749566076791036E-01  -1.6944385645517632E-01
  -1.7141342889807096E-01  -1.7340458021046479E-01  -1.7541751356337507E-01
  -1.7745243316501030E-01  -1.7950954423983981E-01  -1.8158905300666170E-01
  -1.8369116665563773E-01  -1.8581609332427329E-01  -1.8796404207230594E-01
  -1.9013522285548118E-01  -1.9232984649817944E-01  -1.9454812466486590E-01
  -1.9679026983033304E-01  -1.9905649524870109E-01  -2.0134701492114601E-01
  -2.0366204356232198E-01  -2.0600179656544101E-01  -2.0836648996598106E-01
  -2.1075634040397997E-01  -2.1317156508488572E-01  -2.1561238173892167E-01
  -2.1807900857893145E-01  -2.2057166425666502E-01  -2.2309056781746575E-01
  -2.2563593865331960E-01  -2.2820799645422568E-01  -2.3080696115784716E-01
  -2.3343305289739968E-01  -2.3608649194773493E-01  -2.3876749866957336E-01
  -2.4147629345184757E-01  -2.4421309665210197E-01  -2.4697812853491116E-01
  -2.4977160920826522E-01  -2.5259375855787219E-01  -2.5544479617933596E-01
  -2.5832494130815237E-01  -2.6123441274747844E-01  -2.6417342879362049E-01
  -2.6714220715918857E-01  -2.7014096489386774E-01  -2.7316991830274751E-01
  -2.7622928286215725E-01  -2.7931927313295218E-01  -2.8244010267119030E-01
  -2.8559198393614699E-01  -2.8877512819560519E-01  -2.9198974542836170E-01
  -2.9523604422389460E-01  -2.9851423167912133E-01  -3.0182451329219423E-01
  -3.0516709285326649E-01  -3.0854217233216258E-01  -3.1194995176289531E-01
  -3.1539062912495197E-01  -3.1886440022129786E-01  -3.2237145855301702E-01
  -3.2591199519052766E-01  -3.2948619864130502E-01  -3.3309425471403381E-01
  -3.3673634637912858E-01  -3.4041265362554313E-01  -3.4412335331379984E-01
  -3.4786861902516725E-01  -3.5164862090690313E-01  -3.5546352551350041E-01
  -3.5931349564385046E-01  -3.6319869017425171E-01  -3.6711926388718558E-01
  -3.7107536729577956E-01  -3.7506714646388550E-01  -3.7909474282168365E-01
  -3.8315829297674342E-01  -3.8725792852045465E-01  -3.9139377582974444E-01
  -3.9556595586401033E-01  -3.9977458395717536E-01  -4.0401976960479041E-01
  -4.0830161624609984E-01  -4.1262022104098184E-01  -4.1697567464169050E-01
  -4.2136806095930512E-01  -4.2579745692481252E-01  -4.3026393224473253E-01
  -4.3476754915120297E-01  -4.3930836214644409E-01  -4.4388641774151716E-01
  -4.4850175418928828E-01  -4.5315440121152589E-01  -4.5784437972003261E-01
  -4.6257170153174626E-01  -4.6733636907771303E-01  -4.7213837510585976E-01
  -4.7697770237748327E-01  -4.8185432335737000E-01  -4.8676819989747616E-01
  -4.9171928291408379E-01  -4.9670751205835578E-01  -5.0173281538021663E-01
  -5.0679510898547886E-01  -5.1189429668614983E-01  -5.1703026964383569E-01
  -5.2220290600618691E-01  -5.2741207053630168E-01  -5.3265761423503455E-01
  -5.3793937395613389E-01  -5.4325717201416068E-01  -5.4861081578511339E-01
  -5.5400009729971955E-01  -5.5942479282932212E-01  -5.6488466246432600E-01
  -5.7037944968515197E-01  -5.7590888092564740E-01  -5.8147266512892615E-01
  -5.8707049329558880E-01  -5.9270203802430310E-01  -5.9836695304470655E-01
  -6.0406487274261411E-01  -6.0979541167751483E-01  -6.1555816409233099E-01
  -6.2135270341545268E-01  -6.2717858175502739E-01  -6.3303532938551843E-01
  -6.3892245422654115E-01  -6.4483944131398863E-01  -6.5078575226347357E-01
  -6.5676082472612474E-01  -6.6276407183675790E-01  -6.6879488165448897E-01
  -6.7485261659582330E-01  -6.8093661286030083E-01  -6.8704617984876293E-01
  -6.9318059957431011E-01  -6.9933912606607007E-01  -7.0552098476584102E-01
  -7.1172537191775620E-01  -7.1795145395106819E-01  -7.2419836685619654E-01
  -7.3046521555418731E-01  -7.3675107325973554E-01  -7.4305498083794586E-01
  -7.4937594615501690E-01  -7.5571294342304518E-01  -7.6206491253916198E-01
  -7.6843075841922770E-01  -7.7480935032633125E-01  -7.8119952119434954E-01
  -7.8760006694684170E-01  -7.9400974581157191E-01  -8.0042727763096699E-01
  -8.0685134316883966E-01  -8.1328058341372234E-01  -8.1971359887917206E-01
  -8.2614894890144386E-01  -8.3258515093492269E-01  -8.3902067984575324E-01
  -8.4545396720411192E-01  -8.5188340057559087E-01  -8.5830732281219191E-01
  -8.6472403134344056E-01  -8.7113177746817394E-01  -8.7752876564756332E-01
  -8.8391315279995997E-01  -8.9028304759819732E-01  -8.9663650976998188E-01
  -9.0297154940205293E-01  -9.0928612624882155E-01  -9.1557814904620816E-01
  -9.2184547483144830E-01  -9.2808590826965953E-01  -9.3429720098799041E-01
  -9.4047705091821199E-01  -9.4662310164863106E-01  -9.5273294178626411E-01
  -9.5880410433020513E-01  -9.6483406605720268E-01  -9.7082024692045088E-01
  -9.7676000946267050E-01  -9.8265065824457554E-01  -9.8848943928985389E-01
  -9.9427353954784969E-01  -1.0000000863751461E+00  -1.0056661470373114E+00
  -1.0112687282320940E+00  -1.0168047756353922E+00  -1.0222711734713847E+00
  -1.0276647441082218E+00  -1.0329822476807415E+00  -1.0382203817416964E+00
  -1.0433757809430408E+00  -1.0484450167488568E+00  -1.0534245971815377E+00
  -1.0583109666029034E+00  -1.0631005055319589E+00  -1.0677895305010439E+00
  -1.0723742939521765E+00  -1.0768509841754406E+00  -1.0812157252912780E+00
  -1.0854645772786449E+00  -1.0895935360509827E+00  -1.0935985335820251E+00
  -1.0974754380835039E+00  -1.1012200542368442E+00  -1.1048281234809971E+00
  -1.1082953243585947E+00  -1.1116172729226410E+00  -1.1147895232060117E+00
  -1.1178075677560562E+00  -1.1206668382366505E+00  -1.1233627061000646E+00
  -1.1258904833310612E+00  -1.1282454232656738E+00  -1.1304227214871294E+00
  -1.1324175168014345E+00  -1.1342248922951528E+00  -1.1358398764779332E+00
  -1.1372574445123846E+00  -1.1384725195339005E+00  -1.1394799740630486E+00
  -1.1402746315131984E+00  -1.1408512677960105E+00  -1.1412046130274873E+00
  -1.1413293533372337E+00  -1.1412201327836342E+00  -1.1408715553776039E+00
  -1.1402781872176035E+00  -1.1394345587385810E+00  -1.1383351670774988E+00
  -1.1369744785580818E+00  -1.1353469312974052E+00  -1.1334469379369116E+00
  -1.1312688885004143E+00  -1.1288071533816031E+00  -1.1260560864635329E+00
  -1.1230100283725128E+00  -1.1196633098687609E+00  -1.1160102553761424E+00
  -1.1120451866532028E+00  -1.1077624266076642E+00  -1.1031563032564538E+00
  -1.0982211538332263E+00  -1.0929513290452681E+00  -1.0873411974815346E+00
  -1.0813851501734677E+00  -1.0750776053101105E+00  -1.0684130131088880E+00
  -1.0613858608432916E+00  -1.0539906780285364E+00  -1.0462220417660899E+00
  -1.0380745822478159E+00  -1.0295429884202505E+00  -1.0206220138093649E+00
  -1.0113064825059412E+00  -1.0015912953114556E+00  -9.9147143604416221E-01
  -9.8094197800478666E-01  -9.6999809060101272E-01  -9.5863504612964823E-01
  -9.4684822671510593E-01  -9.3463313140251070E-01  -9.2198538340345448E-01
  -9.0890073749209022E-01  -8.9537508754894135E-01  -8.8140447424942236E-01
  -8.6698509289375536E-01  -8.5211330137453090E-01  -8.3678562827785052E-01
  -8.2099878111350821E-01  -8.0474965466931569E-01  -7.8803533948422566E-01
  -7.7085313043443426E-01  -7.5320053542624754E-01  -7.3507528418896895E-01
  -7.1647533716058842E-01  -6.9739889445859715E-01  -6.7784440492764209E-01
  -6.5781057525531395E-01  -6.3729637914669723E-01  -6.1630106654784356E-01
  -5.9482417290771283E-01  -5.7286552846746830E-01  -5.5042526756557741E-01
  -5.2750383794635902E-01  -5.0410201005905952E-01  -4.8022088633404197E-01
  -4.5586191042171786E-01  -4.3102687637957710E-01  -4.0571793779176890E-01
  -3.7993761680509175E-01  -3.5368881306484823E-01  -3.2697481253309202E-01
  -2.9979929617156476E-01  -2.7216634847095206E-01  -2.4408046580754453E-01
  -2.1554656460831700E-01  -1.8656998930473787E-01  -1.5715652005570030E-01
  -1.2731238021974856E-01  -9.7044243556601489E-02  -6.6359241138370384E-02
  -3.5264967950724972E-02  -3.7694891647152211E-03   2.8118653939688289E-02
   6.0390438417030907E-02   9.3036354484844166E-02   1.2604640075504600E-01
   1.5941007988560149E-01   1.9311639466976674E-01   2.2715384458004134E-01
   2.6151042278413039E-01   2.9617361365064354E-01   3.3113039076291523E-01
   3.6636721546020068E-01   4.0187003592688619E-01   4.3762428685162935E-01
   4.7361488968029530E-01   5.0982625348809285E-01   5.4624227649854118E-01
   5.8284634827863402E-01   6.1962135264136364E-01   6.5654967128869723E-01
   6.9361318822899909E-01   7.3079329500441403E-01   7.6807089676406792E-01
   8.0542641921903402E-01   8.4283981651496354E-01   8.8029058005677829E-01
   9.1775774831867896E-01   9.5521991767030623E-01   9.9265525424679035E-01
   1.0300415068874713E+00   1.0673560211634650E+00   1.1045757545102735E+00
   1.1416772924769683E+00   1.1786368660983753E+00   1.2154303703926443E+00
   1.2520333839817843E+00   1.2884211898290543E+00   1.3245687970838709E+00
   1.3604509640215514E+00   1.3960422220634088E+00   1.4313169008603053E+00
   1.4662491544212302E+00   1.5008129882670151E+00   1.5349822875873715E+00
   1.5687308463781302E+00   1.6020323975332984E+00   1.6348606438644846E+00
   1.6671892900178287E+00   1.6989920752556096E+00   1.7302428070669189E+00
   1.7609153955685894E+00   1.7909838886541785E+00   1.8204225078457155E+00
   1.8492056847993981E+00   1.8773080984132824E+00   1.9047047124817449E+00
   1.9313708138384225E+00   1.9572820509263478E+00   1.9824144727310518E+00
   2.0067445680097658E+00   2.0302493047469770E+00   2.0529061697642708E+00
   2.0746932084097272E+00   2.0955890642498405E+00   2.1155730186847577E+00
   2.1346250304051879E+00   2.1527257746075339E+00   2.1698566818816394E+00
   2.1859999766836831E+00   2.2011387153051172E+00   2.2152568232467207E+00
   2.2283391319055368E+00   2.2403714144810292E+00   2.2513404210055761E+00
   2.2612339124035090E+00   2.2700406934819815E+00   2.2777506447563360E+00
   2.2843547530122885E+00   2.2898451405068871E+00   2.2942150927103948E+00
   2.2974590844913840E+00   2.2995728046479482E+00   2.3005531786887610E+00
   2.3003983897687679E+00   2.2991078976858605E+00   2.2966824558465699E+00
   2.2931241261111297E+00   2.2884362914306990E+00   2.2826236661927135E+00
   2.2756923041937331E+00   2.2676496041632030E+00   2.2585043127661222E+00
   2.2482665250176983E+00   2.2369476820488701E+00   2.2245605661679249E+00
   2.2111192931704706E+00   2.1966393018577874E+00   2.1811373407318220E+00
   2.1646314518441341E+00   2.1471409517855644E+00   2.1286864098133349E+00
   2.1092896231225500E+00   2.0889735892793864E+00   2.0677624758434474E+00
   2.0456815872164551E+00   2.0227573287633760E+00   1.9990171682594720E+00
   1.9744895947228520E+00   1.9492040746953057E+00   1.9231910060351867E+00
   1.8964816692836959E+00   1.8691081766597726E+00   1.8411034187299211E+00
   1.8125010087863838E+00   1.7833352249524055E+00   1.7536409500177490E+00
   1.7234536089928985E+00   1.6928091043603586E+00   1.6617437489986513E+00
   1.6302941967535505E+00   1.5984973707219354E+00   1.5663903891916244E+00
   1.5340104894731927E+00   1.5013949497794890E+00   1.4685810094888401E+00
   1.4356057882441806E+00   1.4025062044762779E+00   1.3693188940737233E+00
   1.3360801300417637E+00   1.3028257440825697E+00   1.2695910510763821E+00
   1.2364107774301147E+00   1.2033189941735696E+00   1.1703490555121920E+00
   1.1375335432857274E+00   1.1049042174450332E+00   1.0724919722734150E+00
   1.0403267976944341E+00   1.0084377446890784E+00   9.7685289365573580E-01
   9.4559932453103834E-01   9.1470308765604447E-01   8.8418917468672165E-01
   8.5408148924229277E-01   8.2440281738066878E-01   7.9517479831698634E-01
   7.6641789601724364E-01   7.3815137239408535E-01   7.1039326282095971E-01
   6.8316035459550717E-01   6.5646816885604653E-01   6.3033094631522735E-01
   6.0476163704289809E-01   5.7977189441619381E-01   5.5537207326413063E-01
   5.3157123216563307E-01   5.0837713981094157E-01   4.8579628530395869E-01
   4.6383389226200594E-01   4.4249393655751074E-01   4.2177916753980871E-01
   4.0169113257186689E-01   3.8223020471557612E-01   3.6339561339776000E-01
   3.4518547788727943E-01   3.2759684341097733E-01   3.1062571973188535E-01
   2.9426712200831523E-01   2.7851511374634957E-01   2.6336285165181339E-01
   2.4880263218141443E-01   2.3482593958634601E-01   2.2142349523616697E-01
   2.0858530800612937E-01   1.9630072550758873E-01   1.8455848593921187E-01
   1.7334677033594387E-01   1.6265325499371613E-01   1.5246516385036366E-01
   1.4276932060714811E-01   1.3355220038085514E-01   1.2479998068319514E-01
   1.1649859153243382E-01   1.0863376451147537E-01   1.0119108059699404E-01
   9.4156016595552852E-02   8.7513990034738615E-02   8.1250402370197802E-02
   7.5350680382778340E-02   6.9800315653812797E-02   6.4584902020665358E-02
   5.9690170928942882E-02   5.5102024612136979E-02   5.0806567043754997E-02
   4.6790132621152176E-02   4.3039312554188525E-02   3.9540978945350122E-02
   3.6282306561128984E-02   3.3250792307001724E-02   3.0434272430373957E-02
   2.7820937487198331E-02   2.5399345118575545E-02   2.3158430693548671E-02
   2.1087515883325917E-02   1.9176315240402756E-02   1.7414940863424967E-02
   1.5793905235093018E-02   1.4304122326036766E-02   1.2936907062287123E-02
   1.1683973257808055E-02   1.0537430116542870E-02   9.4897774105348713E-03
   8.5338994420177203E-03   7.6630578978862610E-03   6.8708837047374615E-03
   6.1513679917554456E-03   5.4988522671101424E-03   4.9080179113472440E-03
   4.3738750884772760E-03   3.8917511721919219E-03   3.4572787809130363E-03
   3.0663835112376137E-03   2.7152714548729115E-03   2.4004165793860897E-03
   2.1185480480906500E-03   1.8666375492116100E-03   1.6418866991558334E-03
   1.4417145793227506E-03   1.2637454604646863E-03   1.1057967631928852E-03
   9.6586729786664999E-04   8.4212582183740921E-04   7.3289994688057586E-04
   6.3666542467398426E-04   5.5203583339230773E-04   4.7775268391518627E-04
   4.1267595980953772E-04   3.5577510116410445E-04   3.0612043853968309E-04
   2.6287507976379017E-04   2.2528724905095023E-04   1.9268307497352706E-04
   1.6445982114610607E-04   1.4007955111397489E-04   1.1906321685460984E-04
   1.0098515849843860E-04   8.5468001345868650E-05   7.2177934990788864E-05
   6.0820358342932378E-05   5.1135873559867540E-05   4.2896611338176714E-05
   3.5902869656352665E-05   2.9980047892337636E-05   2.4975858238615006E-05
   2.0757796488981480E-05   1.7210854556927526E-05   1.4235457486901459E-05
   1.1745608220238458E-05   9.6672239608663326E-06   7.9366486364480840E-06
   6.4993266542083617E-06   5.3086238940088472E-06   4.3247826524138398E-06
   3.5139980395478943E-06   2.8476041258608892E-06   2.3013589296465518E-06
   1.8548181208310243E-06   1.4907880855042159E-06   1.1948497428445105E-06
   9.5494522707805939E-07   7.6102023767992291E-07   6.0471551811103551E-07
   4.7910154464246251E-07   3.7845109062528379E-07   2.9804487697712015E-07
   2.3400602635106675E-07   1.8315950660795916E-07   1.4291317947214447E-07
   1.1115746376728207E-07   8.6180980567098871E-08   6.6599871763273204E-08
   5.1298775638030386E-08   3.9381705003128884E-08   3.0131307342917784E-08
   2.2975194236695110E-08   1.7458211197094374E-08   1.3219680981786151E-08
   9.9747954000559134E-09   7.4994545330719258E-09   5.6179599745067004E-09
   4.1930618318685027E-09   3.1179394615204309E-09   2.3097647012655979E-09
   1.7045550900617114E-09   1.2530744742110493E-09   9.1758062778241580E-10
   6.6925508461881092E-10   4.8618020556830881E-10   3.5175340287094430E-10
   2.5344913141220202E-10   1.8185637578580404E-10   1.2822595135729040E-10
   4.5854413532972538E-11   1.9838390052082975E-12  -0.0000000000000000E+00
  -0.0000000000000000E+00  -0.0000000000000000E+00  -0.0000000000000000E+00
  -0.0000000000000000E+00  -0.0000000000000000E+00  -0.0000000000000000E+00
  -0.0000000000000000E+00  -0.0000000000000000E+00  -0.0000000000000000E+00
  -0.0000000000000000E+00  -0.0000000000000000E+00  -0.0000000000000000E+00
  -0.0000000000000000E+00  -0.0000000000000000E+00  -0.0000000000000000E+00
  -0.0000000000000000E+00  -0.0000000000000000E+00  -0.0000000000000000E+00
  -0.0000000000000000E+00  -0.0000000000000000E+00  -0.0000000000000000E+00
  -0.0000000000000000E+00  -0.0000000000000000E+00  -0.0000000000000000E+00
  -0.0000000000000000E+00  -0.0000000000000000E+00  -0.0000000000000000E+00
  -0.0000000000000000E+00  -0.0000000000000000E+00  -0.0000000000000000E+00
  -0.0000000000000000E+00  -0.0000000000000000E+00  -0.0000000000000000E+00
  -0.0000000000000000E+00  -0.0000000000000000E+00  -0.0000000000000000E+00
  -0.0000000000000000E+00  -0.0000000000000000E+00  -0.0000000000000000E+00
  -0.0000000000000000E+00  -0.0000000000000000E+00  -0.0000000000000000E+00
  -0.0000000000000000E+00  -0.0000000000000000E+00  -0.0000000000000000E+00
  -0.0000000000000000E+00  -0.0000000000000000E+00  -0.0000000000000000E+00
  -0.0000000000000000E+00  -0.0000000000000000E+00  -0.0000000000000000E+00
  -0.0000000000000000E+00  -0.0000000000000000E+00  -0.0000000000000000E+00
  -0.0000000000000000E+00  -0.0000000000000000E+00  -0.0000000000000000E+00
  -0.0000000000000000E+00  -0.0000000000000000E+00  -0.0000000000000000E+00
  -0.0000000000000000E+00  -0.0000000000000000E+00  -0.0000000000000000E+00
  -0.0000000000000000E+00  -0.0000000000000000E+00  -0.0000000000000000E+00
  -0.0000000000000000E+00  -0.0000000000000000E+00  -0.0000000000000000E+00
  -0.0000000000000000E+00  -0.0000000000000000E+00  -0.0000000000000000E+00
  -0.0000000000000000E+00  -0.0000000000000000E+00  -0.0000000000000000E+00
  -0.0000000000000000E+00  -0.0000000000000000E+00  -0.0000000000000000E+00
  -0.0000000000000000E+00  -0.0000000000000000E+00  -0.0000000000000000E+00
  -0.0000000000000000E+00  -0.0000000000000000E+00  -0.0000000000000000E+00
  -0.0000000000000000E+00  -0.0000000000000000E+00  -0.0000000000000000E+00
  -0.0000000000000000E+00  -0.0000000000000000E+00  -0.0000000000000000E+00
  -0.0000000000000000E+00  -0.0000000000000000E+00  -0.0000000000000000E+00
  -0.0000000000000000E+00  -0.0000000000000000E+00  -0.0000000000000000E+00
  -0.0000000000000000E+00  -0.0000000000000000E+00  -0.0000000000000000E+00
  -0.0000000000000000E+00  -0.0000000000000000E+00  -0.0000000000000000E+00
  -0.0000000000000000E+00  -0.0000000000000000E+00  -0.0000000000000000E+00
  -0.0000000000000000E+00  -0.0000000000000000E+00  -0.0000000000000000E+00
  -0.0000000000000000E+00  -0.0000000000000000E+00  -0.0000000000000000E+00
  -0.0000000000000000E+00  -0.0000000000000000E+00  -0.0000000000000000E+00
  -0.0000000000000000E+00  -0.0000000000000000E+00  -0.0000000000000000E+00
  -0.0000000000000000E+00  -0.0000000000000000E+00  -0.0000000000000000E+00
  -0.0000000000000000E+00  -0.0000000000000000E+00  -0.0000000000000000E+00
  -0.0000000000000000E+00  -0.0000000000000000E+00  -0.0000000000000000E+00
  -0.0000000000000000E+00  -0.0000000000000000E+00  -0.0000000000000000E+00
  -0.0000000000000000E+00  -0.0000000000000000E+00  -0.0000000000000000E+00
  -0.0000000000000000E+00  -0.0000000000000000E+00  -0.0000000000000000E+00
  -0.0000000000000000E+00  -0.0000000000000000E+00
     </PP_GIPAW_CORE_ORBITAL.2>
     <PP_GIPAW_CORE_ORBITAL.3 size="1106" index="3" label="2P" n="2" l="1">
   0.0000000000000000E+00   9.3530995009977038E-07   9.5478567184151321E-07
   9.7470059611427407E-07   9.9506544689454475E-07   1.0158900297545296E-06
   1.0371840048282767E-06   1.0589572421435675E-06   1.0812198346204981E-06
   1.1039821028166152E-06   1.1272545997620005E-06   1.1510481159026786E-06
   1.1753736841562183E-06   1.2002425850819775E-06   1.2256663521685004E-06
   1.2516567772405947E-06   1.2782259159886814E-06   1.3053860936231108E-06
   1.3331499106561212E-06   1.3615302488142592E-06   1.3905402770841038E-06
   1.4201934578941842E-06   1.4505035534361296E-06   1.4814846321280192E-06
   1.5131510752231397E-06   1.5455175835672794E-06   1.5785991845078488E-06
   1.6124112389581826E-06   1.6469694486204027E-06   1.6822898633703825E-06
   1.7183888888083526E-06   1.7552832939788336E-06   1.7929902192636248E-06
   1.8315271844516732E-06   1.8709120969897578E-06   1.9111632604179834E-06
   1.9522993829941787E-06   1.9943395865114075E-06   2.0373034153128636E-06
   2.0812108455085513E-06   2.1260822943982421E-06   2.1719386301052765E-06
   2.2188011814259354E-06   2.2666917478991759E-06   2.3156326101016378E-06
   2.3656465401729600E-06   2.4167568125765536E-06   2.4689872151010687E-06
   2.5223620601079821E-06   2.5769061960307611E-06   2.6326450191312769E-06
   2.6896044855192093E-06   2.7478111234403385E-06   2.8072920458397621E-06
   2.8680749632061996E-06   2.9301881967037013E-06   2.9936606915972011E-06
   3.0585220309785476E-06   3.1248024497997287E-06   3.1925328492202357E-06
   3.2617448112756335E-06   3.3324706138745423E-06   3.4047432461314487E-06
   3.4785964240429342E-06   3.5540646065150313E-06   3.6311830117496457E-06
   3.7099876339981563E-06   3.7905152606904503E-06   3.8728034899479441E-06
   3.9568907484891862E-06   4.0428163099369559E-06   4.1306203135359722E-06
   4.2203437832904418E-06   4.3120286475310039E-06   4.4057177589207463E-06
   4.5014549149102984E-06   4.5992848786521439E-06   4.6992534003845398E-06
   4.8014072392957856E-06   4.9057941858796286E-06   5.0124630847930407E-06
   5.1214638582277383E-06   5.2328475298071183E-06   5.3466662490205616E-06
   5.4629733162073166E-06   5.5818232081024427E-06   5.7032716039576577E-06
   5.8273754122501141E-06   5.9541927979924894E-06   6.0837832106581734E-06
   6.2162074127354551E-06   6.3515275089251069E-06   6.4898069759960477E-06
   6.6311106933140820E-06   6.7755049740590172E-06   6.9230575971459981E-06
   7.0738378398670438E-06   7.2279165112692338E-06   7.3853659862864806E-06
   7.5462602406420279E-06   7.7106748865392664E-06   7.8786872091591085E-06
   8.0503762039821163E-06   8.2258226149544987E-06   8.4051089735171437E-06
   8.5883196385176547E-06   8.7755408370254210E-06   8.9668607060706265E-06
   9.1623693353283337E-06   9.3621588107693204E-06   9.5663232592999716E-06
   9.7749588944138414E-06   9.9881640628782815E-06   1.0206039292479911E-05
   1.0428687340853253E-05   1.0656213245417568E-05   1.0888724374447455E-05
   1.1126330479303257E-05   1.1369143747848200E-05   1.1617278859079527E-05
   1.1870853039001710E-05   1.2129986117770735E-05   1.2394800588138279E-05
   1.2665421665226610E-05   1.2941977347664403E-05   1.3224598480115584E-05
   1.3513418817232962E-05   1.3808575089070355E-05   1.4110207067986461E-05
   1.4418457637075916E-05   1.4733472860162167E-05   1.5055402053389624E-05
   1.5384397858451182E-05   1.5720616317490507E-05   1.6064216949717052E-05
   1.6415362829774774E-05   1.6774220667904765E-05   1.7140960891944512E-05
   1.7515757731206232E-05   1.7898789302278726E-05   1.8290237696797560E-05
   1.8690289071230300E-05   1.9099133738723398E-05   1.9516966263060054E-05
   1.9943985554778066E-05   2.0380394969499182E-05   2.0826402408521300E-05
   2.1282220421727725E-05   2.1748066312867899E-05   2.2224162247265159E-05
   2.2710735362009906E-05   2.3208017878695986E-05   2.3716247218761272E-05
   2.4235666121493740E-05   2.4766522764766530E-05   2.5309070888566309E-05
   2.5863569921381948E-05   2.6430285109520624E-05   2.7009487649421828E-05
   2.7601454823040038E-05   2.8206470136368950E-05   2.8824823461182530E-05
   2.9456811180069507E-05   3.0102736334838999E-05   3.0762908778379075E-05
   3.1437645330048904E-05   3.2127269934690552E-05   3.2832113825345254E-05
   3.3552515689763976E-05   3.4288821840801584E-05   3.5041386390788735E-05
   3.5810571429975574E-05   3.6596747209145049E-05   3.7400292326494860E-05
   3.8221593918892012E-05   3.9061047857601370E-05   3.9919058948598934E-05
   4.0796041137576568E-05   4.1692417719751814E-05   4.2608621554597826E-05
   4.3545095285610989E-05   4.4502291565236366E-05   4.5480673285075727E-05
   4.6480713811502591E-05   4.7502897226816416E-05   4.8547718576065907E-05
   4.9615684119679456E-05   5.0707311592040290E-05   5.1823130466149259E-05
   5.2963682224521485E-05   5.4129520636465299E-05   5.5321212041897666E-05
   5.6539335641850971E-05   5.7784483795833277E-05   5.9057262326205599E-05
   6.0358290829743142E-05   6.1688202996555258E-05   6.3047646936538338E-05
   6.4437285513542638E-05   6.5857796687439140E-05   6.7309873864274496E-05
   6.8794226254708280E-05   7.0311579240932601E-05   7.1862674752274221E-05
   7.3448271649692763E-05   7.5069146119381876E-05   7.6726092075698313E-05
   7.8419921573637466E-05   8.0151465231087607E-05   8.1921572661097325E-05
   8.3731112914395256E-05   8.5580974932408666E-05   8.7472068011034933E-05
   8.9405322275420897E-05   9.1381689166018196E-05   9.3402141936182721E-05
   9.5467676161596534E-05   9.7579310261797667E-05   9.9738086034106596E-05
   1.0194506920024997E-04   1.0420134996598452E-04   1.0650804359403556E-04
   1.0886629099067060E-04   1.1127725930623306E-04   1.1374214254997754E-04
   1.1626216221954469E-04   1.1883856794543217E-04   1.2147263815082120E-04
   1.2416568072712845E-04   1.2691903372566221E-04   1.2973406606576863E-04
   1.3261217825986937E-04   1.3555480315579176E-04   1.3856340669681232E-04
   1.4163948869983826E-04   1.4478458365216381E-04   1.4800026152724839E-04
   1.5128812861997520E-04   1.5464982840185943E-04   1.5808704239668526E-04
   1.6160149107706550E-04   1.6519493478242355E-04   1.6886917465891861E-04
   1.7262605362183895E-04   1.7646745734100342E-04   1.8039531524972658E-04
   1.8441160157791448E-04   1.8851833640986919E-04   1.9271758676739925E-04
   1.9701146771884209E-04   2.0140214351462284E-04   2.0589182874998626E-04
   2.1048278955555574E-04   2.1517734481638800E-04   2.1997786742020484E-04
   2.2488678553550837E-04   2.2990658392029034E-04   2.3503980526207372E-04
   2.4028905155003939E-04   2.4565698548000161E-04   2.5114633189302565E-04
   2.5675987924849239E-04   2.6250048113242962E-04   2.6837105780196460E-04
   2.7437459776675328E-04   2.8051415940827466E-04   2.8679287263789783E-04
   2.9321394059464326E-04   2.9978064138359292E-04   3.0649632985591636E-04
   3.1336443943150432E-04   3.2038848396523498E-04   3.2757205965790122E-04
   3.3491884701287539E-04   3.4243261283959292E-04   3.5011721230497346E-04
   3.5797659103392008E-04   3.6601478726006168E-04   3.7423593402793822E-04
   3.8264426144784462E-04   3.9124409900458503E-04   4.0003987792142521E-04
   4.0903613358053557E-04   4.1823750800128200E-04   4.2764875237772000E-04
   4.3727472967670141E-04   4.4712041729802812E-04   4.5719090979810833E-04
   4.6749142167863315E-04   4.7802729024179274E-04   4.8880397851360608E-04
   4.9982707823697961E-04   5.1110231293611489E-04   5.2263554105396750E-04
   5.3443275916446409E-04   5.4650010526122996E-04   5.5884386212463476E-04
   5.7147046076897942E-04   5.8438648397171958E-04   5.9759866988663094E-04
   6.1111391574288532E-04   6.2493928163205798E-04   6.3908199438509337E-04
   6.5354945154135944E-04   6.6834922541191162E-04   6.8348906723917551E-04
   6.9897691145528887E-04   7.1482088004138928E-04   7.3102928699020125E-04
   7.4761064287431726E-04   7.6457365952260943E-04   7.8192725480730066E-04
   7.9968055754422280E-04   8.1784291250890616E-04   8.3642388557115285E-04
   8.5543326895082857E-04   8.7488108659768116E-04   8.9477759969800352E-04
   9.1513331231108828E-04   9.3595897713844045E-04   9.5726560142877289E-04
   9.7906445302192789E-04   1.0013670665348520E-03   1.0241852496929290E-03
   1.0475310898099123E-03   1.0714169604199187E-03   1.0958555280648559E-03
   1.1208597592408940E-03   1.1464429275075334E-03   1.1726186207629671E-03
   1.1994007486895149E-03   1.2268035503729244E-03   1.2548416020995174E-03
   1.2835298253351297E-03   1.3128834948899690E-03   1.3429182472735560E-03
   1.3736500892439728E-03   1.4050954065558219E-03   1.4372709729112976E-03
   1.4701939591188846E-03   1.5038819424643651E-03   1.5383529162987669E-03
   1.5736252998481436E-03   1.6097179482500558E-03   1.6466501628217547E-03
   1.6844417015652385E-03   1.7231127899142939E-03   1.7626841317289540E-03
   1.8031769205427335E-03   1.8446128510681624E-03   1.8870141309663439E-03
   1.9304034928861564E-03   1.9748042067791087E-03   2.0202400924957445E-03
   2.0667355326697084E-03   2.1143154858957354E-03   2.1630055002078096E-03
   2.2128317268640652E-03   2.2638209344449452E-03   2.3160005232712951E-03
   2.3693985401493519E-03   2.4240436934494193E-03   2.4799653685254881E-03
   2.5371936434829311E-03   2.5957593053016412E-03   2.6556938663221835E-03
   2.7170295811024697E-03   2.7797994636528413E-03   2.8440373050574452E-03
   2.9097776914898989E-03   2.9770560226315581E-03   3.0459085305005809E-03
   3.1163722987004451E-03   3.1884852820964443E-03   3.2622863269289840E-03
   3.3378151913726535E-03   3.4151125665501220E-03   3.4942200980101136E-03
   3.5751804076789308E-03   3.6580371162949696E-03   3.7428348663360914E-03
   3.8296193454495624E-03   3.9184373103947684E-03   4.0093366115087894E-03
   4.1023662177052111E-03   4.1975762420167657E-03   4.2950179676924062E-03
   4.3947438748596886E-03   4.4968076677635513E-03   4.6012643025925212E-03
   4.7081700159038922E-03   4.8175823536591982E-03   4.9295602008817534E-03
   5.0441638119481606E-03   5.1614548415256567E-03   5.2814963761675599E-03
   5.4043529665792457E-03   5.5300906605668457E-03   5.6587770366817777E-03
   5.7904812385735490E-03   5.9252740100640576E-03   6.0632277309564820E-03
   6.2044164535919400E-03   6.3489159401676955E-03   6.4968037008301359E-03
   6.6481590325566317E-03   6.8030630588400620E-03   6.9615987701899503E-03
   7.1238510654647522E-03   7.2899067940492895E-03   7.4598547988920455E-03
   7.6337859604170095E-03   7.8117932413244136E-03   7.9939717322958358E-03
   8.1804186986182102E-03   8.3712336277419822E-03   8.5665182777888461E-03
   8.7663767270239040E-03   8.9709154243081957E-03   9.1802432405468024E-03
   9.3944715211480880E-03   9.6137141395100656E-03   9.8380875515490223E-03
   1.0067710851286910E-02   1.0302705827512679E-02   1.0543197021533867E-02
   1.0789311786034192E-02   1.1041180345052819E-02   1.1298935855101685E-02
   1.1562714467436388E-02   1.1832655391496631E-02   1.2108900959532211E-02
   1.2391596692429981E-02   1.2680891366757999E-02   1.2976937083042055E-02
   1.3279889335290358E-02   1.3589907081781922E-02   1.3907152817133329E-02
   1.4231792645659999E-02   1.4563996356045932E-02   1.4903937497337311E-02
   1.5251793456274462E-02   1.5607745535975876E-02   1.5971979035989268E-02
   1.6344683333722597E-02   1.6726051967268892E-02   1.7116282719637999E-02
   1.7515577704407401E-02   1.7924143452805262E-02   1.8342191002236830E-02
   1.8769935986265786E-02   1.9207598726061821E-02   1.9655404323323855E-02
   2.0113582754689805E-02   2.0582368967641117E-02   2.1062002977910967E-02
   2.1552729968404131E-02   2.2054800389634758E-02   2.2568470061689265E-02
   2.3094000277719382E-02   2.3631657908969504E-02   2.4181715511343033E-02
   2.4744451433508681E-02   2.5320149926550278E-02   2.5909101255158877E-02
   2.6511601810367769E-02   2.7127954223827723E-02   2.7758467483619740E-02
   2.8403457051600463E-02   2.9063244982275225E-02   2.9738160043190010E-02
   3.0428537836834982E-02   3.1134720924047669E-02   3.1857058948904414E-02
   3.2595908765086355E-02   3.3351634563702832E-02   3.4124608002556192E-02
   3.4915208336826445E-02   3.5723822551155374E-02   3.6550845493104910E-02
   3.7396680007964020E-02   3.8261737074875152E-02   3.9146435944248263E-02
   4.0051204276429712E-02   4.0976478281588860E-02   4.1922702860782202E-02
   4.2890331748154521E-02   4.3879827654229313E-02   4.4891662410242075E-02
   4.5926317113463525E-02   4.6984282273457349E-02   4.8066057959214668E-02
   4.9172153947101671E-02   5.0303089869554916E-02   5.1459395364454145E-02
   5.2641610225097273E-02   5.3850284550701344E-02   5.5085978897343131E-02
   5.6349264429255759E-02   5.7640723070386826E-02   5.8960947656121233E-02
   6.0310542085068461E-02   6.1690121470805034E-02   6.3100312293461108E-02
   6.4541752551033338E-02   6.6015091910299209E-02   6.7520991857205004E-02
   6.9060125846589965E-02   7.0633179451106268E-02   7.2240850509186633E-02
   7.3883849271903376E-02   7.5562898548559299E-02   7.7278733850839582E-02
   7.9032103535350756E-02   8.0823768944362481E-02   8.2654504544561108E-02
   8.4525098063617535E-02   8.6436350624360683E-02   8.8389076876343550E-02
   9.0384105124577507E-02   9.2422277455202484E-02   9.4504449857852751E-02
   9.6631492344467232E-02   9.8804289064285636E-02   1.0102373841476167E-01
   1.0329075314811348E-01   1.0560626047322323E-01   1.0797120215258728E-01
   1.1038653459400528E-01   1.1285322893669210E-01   1.1537227113147694E-01
   1.1794466201475202E-01   1.2057141737581323E-01   1.2325356801723071E-01
   1.2599215980787298E-01   1.2878825372819291E-01   1.3164292590737878E-01
   1.3455726765195408E-01   1.3753238546540289E-01   1.4056940105838084E-01
   1.4366945134906195E-01   1.4683368845315675E-01   1.5006327966312200E-01
   1.5335940741607559E-01   1.5672326924990856E-01   1.6015607774707880E-01
   1.6365906046555237E-01   1.6723345985634971E-01   1.7088053316713320E-01
   1.7460155233126828E-01   1.7839780384176510E-01   1.8227058860950152E-01
   1.8622122180511169E-01   1.9025103268390794E-01   1.9436136439319507E-01
   1.9855357376131513E-01   2.0282903106775391E-01   2.0718911979361754E-01
   2.1163523635178519E-01   2.1616878979601836E-01   2.2079120150830270E-01
   2.2550390486368013E-01   2.3030834487181512E-01   2.3520597779453339E-01
   2.4019827073854830E-01   2.4528670122258694E-01   2.5047275671810953E-01
   2.5575793416281029E-01   2.6114373944607028E-01   2.6663168686553107E-01
   2.7222329855393862E-01   2.7792010387540661E-01   2.8372363879022866E-01
   2.8963544518737755E-01   2.9565707018380422E-01   3.0179006538965863E-01
   3.0803598613853800E-01   3.1439639068186875E-01   3.2087283934653049E-01
   3.2746689365481257E-01   3.3418011540581322E-01   3.4101406571737436E-01
   3.4797030402765400E-01   3.5505038705544617E-01   3.6225586771834972E-01
   3.6958829400791171E-01   3.7704920782085516E-01   3.8464014374553585E-01
   3.9236262780276643E-01   4.0021817614016419E-01   4.0820829367920258E-01
   4.1633447271414686E-01   4.2459819146208844E-01   4.3300091256331574E-01
   4.4154408153126418E-01   4.5022912515134483E-01   4.5905744982795416E-01
   4.6803043987900989E-01   4.7714945577740475E-01   4.8641583233878116E-01
   4.9583087685510369E-01   5.0539586717351970E-01   5.1511204972006741E-01
   5.2498063746783652E-01   5.3500280784923493E-01   5.4517970061208176E-01
   5.5551241561930231E-01   5.6600201059206856E-01   5.7664949879630489E-01
   5.8745584667254158E-01   5.9842197140918396E-01   6.0954873845935131E-01
   6.2083695900150371E-01   6.3228738734421341E-01   6.4390071827547268E-01
   6.5567758435708290E-01   6.6761855316475494E-01   6.7972412447464203E-01
   6.9199472739719115E-01   7.0443071745926322E-01   7.1703237363565409E-01
   7.2979989533123646E-01   7.4273339931509919E-01   7.5583291660822205E-01
   7.6909838932633423E-01   7.8252966747980068E-01   7.9612650573252186E-01
   8.0988856012199284E-01   8.2381538474288674E-01   8.3790642839664342E-01
   8.5216103120980302E-01   8.6657842122396922E-01   8.8115771096050266E-01
   8.9589789396328967E-01   9.1079784132308417E-01   9.2585629818720239E-01
   9.4107188025855437E-01   9.5644307028821707E-01   9.7196821456603766E-01
   9.8764551941393630E-01   1.0034730476869060E+00   1.0194487152868732E+00
   1.0355702876948762E+00   1.0518353765273021E+00   1.0682414361220351E+00
   1.0847857601607560E+00   1.1014654783337725E+00   1.1182775530539031E+00
   1.1352187762263006E+00   1.1522857660810260E+00   1.1694749640754627E+00
   1.1867826318737507E+00   1.2042048484102774E+00   1.2217375070445051E+00
   1.2393763128141120E+00   1.2571167797933971E+00   1.2749542285637734E+00
   1.2928837838026910E+00   1.3109003719972645E+00   1.3289987192883281E+00
   1.3471733494502482E+00   1.3654185820115059E+00   1.3837285305203750E+00
   1.4020971009598286E+00   1.4205179903153138E+00   1.4389846852987502E+00
   1.4574904612320783E+00   1.4760283810936161E+00   1.4945912947308608E+00
   1.5131718382438011E+00   1.5317624335437363E+00   1.5503552880936677E+00
   1.5689423948377363E+00   1.5875155323289771E+00   1.6060662650665591E+00
   1.6245859440558523E+00   1.6430657076069819E+00   1.6614964823897540E+00
   1.6798689847651873E+00   1.6981737224158204E+00   1.7164009962988940E+00
   1.7345409029479468E+00   1.7525833371493189E+00   1.7705179950208729E+00
   1.7883343775200133E+00   1.8060217944079198E+00   1.8235693686957619E+00
   1.8409660415971025E+00   1.8582005780087978E+00   1.8752615725397970E+00
   1.8921374561044353E+00   1.9088165030930579E+00   1.9252868391288509E+00
   1.9415364494157463E+00   1.9575531876776748E+00   1.9733247856853884E+00
   1.9888388633630700E+00   2.0040829394632764E+00   2.0190444427961127E+00
   2.0337107239962315E+00   2.0480690678100002E+00   2.0621067058847427E+00
   2.0758108300418807E+00   2.0891686060167545E+00   2.1021671876486341E+00
   2.1147937315056624E+00   2.1270354119304375E+00   2.1388794364926218E+00
   2.1503130618354334E+00   2.1613236099027375E+00   2.1718984845330178E+00
   2.1820251884056332E+00   2.1916913403234983E+00   2.2008846928149137E+00
   2.2095931500356447E+00   2.2178047859505465E+00   2.2255078627724294E+00
   2.2326908496340696E+00   2.2393424414676790E+00   2.2454515780646545E+00
   2.2510074632869745E+00   2.2559995844002860E+00   2.2604177314975362E+00
   2.2642520169808136E+00   2.2674928950679667E+00   2.2701311812895510E+00
   2.2721580719406251E+00   2.2735651634509044E+00   2.2743444716358918E+00
   2.2744884507905359E+00   2.2739900125861308E+00   2.2728425447301932E+00
   2.2710399293481567E+00   2.2685765610448576E+00   2.2654473646028985E+00
   2.2616478122742292E+00   2.2571739406204134E+00   2.2520223668564125E+00
   2.2461903046519840E+00   2.2396755793442296E+00   2.2324766425142513E+00
   2.2245925858804125E+00   2.2160231544603963E+00   2.2067687589538343E+00
   2.1968304872972459E+00   2.1862101153428970E+00   2.1749101166132183E+00
   2.1629336710827665E+00   2.1502846729399323E+00   2.1369677372812719E+00
   2.1229882056920677E+00   2.1083521506676348E+00   2.0930663788312689E+00
   2.0771384329060902E+00   2.0605765923999506E+00   2.0433898729647164E+00
   2.0255880243936990E+00   2.0071815272239899E+00   1.9881815879137288E+00
   1.9686001325680540E+00   1.9484497991917704E+00   1.9277439284511959E+00
   1.9064965529327946E+00   1.8847223848914332E+00   1.8624368024867124E+00
   1.8396558345115701E+00   1.8163961436230289E+00   1.7926750080904688E+00
   1.7685103020818445E+00   1.7439204745125461E+00   1.7189245264846067E+00
   1.6935419873459010E+00   1.6677928893984169E+00   1.6416977412823548E+00
   1.6152775000623041E+00   1.5885535420103321E+00   1.5615476321206854E+00
   1.5342818923249057E+00   1.5067787683846299E+00   1.4790609954273850E+00
   1.4511515620700521E+00   1.4230736730660956E+00   1.3948507104089400E+00
   1.3665061928298921E+00   1.3380637336490051E+00   1.3095469969724314E+00
   1.2809796522847534E+00   1.2523853275574062E+00   1.2237875610847202E+00
   1.1952097523631142E+00   1.1666751124392920E+00   1.1382066142626790E+00
   1.1098269436744317E+00   1.0815584517391428E+00   1.0534231091637809E+00
   1.0254424635385129E+00   9.9763760006445223E-01   9.7002910629497252E-01
   9.4263704120690772E-01   9.1548090864449694E-01   8.8857963486571589E-01
   8.6195154960861919E-01   8.3561436983682791E-01   8.0958518517091127E-01
   7.8388044400264734E-01   7.5851593942844686E-01   7.3350679439906519E-01
   7.0886744580951522E-01   6.8461162758106953E-01   6.6075235305901636E-01
   6.3730189723098973E-01   6.1427177935285115E-01   5.9167274656446911E-01
   5.6951475901200477E-01   5.4780697689339075E-01   5.2655774973317282E-01
   5.0577460808867425E-01   4.8546425779988656E-01   4.6563257682490217E-01
   4.4628461465041025E-01   4.2742459423017753E-01   4.0905591638135430E-01
   3.9118116655449031E-01   3.7380212388649159E-01   3.5691977244359918E-01
   3.4053431456151012E-01   3.2464518619145138E-01   3.0925107416219244E-01
   2.9434993526867687E-01   2.7993901709765417E-01   2.6601488049870814E-01
   2.5257342360634033E-01   2.3960990731463208E-01   2.2711898210120521E-01
   2.1509471609206982E-01   2.0353062425342186E-01   1.9241969859130784E-01
   1.8175443923523371E-01   1.7152688627750712E-01   1.6172865223680249E-01
   1.5235095501176607E-01   1.4338465118896437E-01   1.3482026956889751E-01
   1.2664804477414371E-01   1.1885795080518628E-01   1.1143973441173685E-01
   1.0438294815065774E-01   9.7676983005646881E-02   9.1311100448699847E-02
   8.5274463828945601E-02   7.9556168980617320E-02   7.4145273948712120E-02
   6.9030827738093964E-02   6.4201897999476704E-02   5.9647597573698641E-02
   5.5357109823949209E-02   5.1319712694064240E-02   4.7524801439564349E-02
   4.3961909986733695E-02   4.0620730883665621E-02   3.7491133815715880E-02
   3.4563182666256909E-02   3.1827151111817664E-02   2.9273536748707942E-02
   2.6893073755936737E-02   2.4676744106591375E-02   2.2615787346892985E-02
   2.0701708968728184E-02   1.8926287407650382E-02   1.7281579704078891E-02
   1.5759925870647853E-02   1.4353952013435973E-02   1.3056572259039563E-02
   1.1860989543183511E-02   1.0760695319797320E-02   9.7494682521617523E-03
   8.8213719499414863E-03   7.9707518175949638E-03   7.1922310808476952E-03
   6.4807060586483485E-03   5.8313407482763983E-03   5.2395607911093654E-03
   4.7010468859693304E-03   4.2117277159925475E-03   3.7677724536420874E-03
   3.3655829068093765E-03   3.0017853669908438E-03   2.6732222182845843E-03
   2.3769433634716619E-03   2.1101975207604442E-03   1.8704234419021934E-03
   1.6552410993724768E-03   1.4624428871798832E-03   1.2899848766429135E-03
   1.1359781651965231E-03   9.9868035297820922E-04   8.7648717862509812E-04
   7.6792434241702693E-04   6.7163954164279097E-04   5.8639473987525737E-04
   5.1105868873162587E-04   4.4459971768809337E-04   3.8607880462804847E-04
   3.3464293704509387E-04   2.8951877120838665E-04   2.5000659413799888E-04
   2.1547459094224954E-04   1.8535341794045956E-04   1.5913108004282929E-04
   1.3634810908247510E-04   1.1659303819664375E-04   9.9498165934435546E-05
   8.4735602523560797E-05   7.2013589656487798E-05   6.1073084251100687E-05
   5.1684595896254197E-05   4.3645267101178726E-05   3.6776185020367247E-05
   3.0919913012395139E-05   2.5938230202684905E-05   2.1710067144288045E-05
   1.8129625696913174E-05   1.5104671361403719E-05   1.2554986503660696E-05
   1.0410973168257017E-05   8.6123945075760904E-06   7.1072442280699804E-06
   5.8507338722503759E-06   4.8043882052609247E-06   3.9352394505728507E-06
   3.2151116135664982E-06   2.6199866380112824E-06   2.1294446523414708E-06
   1.7261710750594072E-06   1.3955238563392627E-06   1.1251546316087663E-06
   9.0467804871952885E-07   7.2538400000835583E-07   5.7998794141180322E-07
   4.6241491070655205E-07   3.6761326427286958E-07   2.9139453537494088E-07
   2.3029617626109220E-07   1.8146428088671930E-07   1.4255369503111094E-07
   1.1164320623500685E-07   8.7163767967864210E-08   6.7837951538188200E-08
   5.2629036453762855E-08   4.0698346312515297E-08   3.1369614043097895E-08
   2.4099318666884129E-08   1.8452076974720785E-08   1.4080298950469037E-08
   1.0707426629367325E-08   8.1141736666134617E-09   6.1356431258675051E-09
   4.9588140227905367E-09  -2.0012179121126266E-10  -3.2473136386627359E-12
   0.0000000000000000E+00   0.0000000000000000E+00   0.0000000000000000E+00
   0.0000000000000000E+00   0.0000000000000000E+00   0.0000000000000000E+00
   0.0000000000000000E+00   0.0000000000000000E+00   0.0000000000000000E+00
   0.0000000000000000E+00   0.0000000000000000E+00   0.0000000000000000E+00
   0.0000000000000000E+00   0.0000000000000000E+00   0.0000000000000000E+00
   0.0000000000000000E+00   0.0000000000000000E+00   0.0000000000000000E+00
   0.0000000000000000E+00   0.0000000000000000E+00   0.0000000000000000E+00
   0.0000000000000000E+00   0.0000000000000000E+00   0.0000000000000000E+00
   0.0000000000000000E+00   0.0000000000000000E+00   0.0000000000000000E+00
   0.0000000000000000E+00   0.0000000000000000E+00   0.0000000000000000E+00
   0.0000000000000000E+00   0.0000000000000000E+00   0.0000000000000000E+00
   0.0000000000000000E+00   0.0000000000000000E+00   0.0000000000000000E+00
   0.0000000000000000E+00   0.0000000000000000E+00   0.0000000000000000E+00
   0.0000000000000000E+00   0.0000000000000000E+00   0.0000000000000000E+00
   0.0000000000000000E+00   0.0000000000000000E+00   0.0000000000000000E+00
   0.0000000000000000E+00   0.0000000000000000E+00   0.0000000000000000E+00
   0.0000000000000000E+00   0.0000000000000000E+00   0.0000000000000000E+00
   0.0000000000000000E+00   0.0000000000000000E+00   0.0000000000000000E+00
   0.0000000000000000E+00   0.0000000000000000E+00   0.0000000000000000E+00
   0.0000000000000000E+00   0.0000000000000000E+00   0.0000000000000000E+00
   0.0000000000000000E+00   0.0000000000000000E+00   0.0000000000000000E+00
   0.0000000000000000E+00   0.0000000000000000E+00   0.0000000000000000E+00
   0.0000000000000000E+00   0.0000000000000000E+00   0.0000000000000000E+00
   0.0000000000000000E+00   0.0000000000000000E+00   0.0000000000000000E+00
   0.0000000000000000E+00   0.0000000000000000E+00   0.0000000000000000E+00
   0.0000000000000000E+00   0.0000000000000000E+00   0.0000000000000000E+00
   0.0000000000000000E+00   0.0000000000000000E+00   0.0000000000000000E+00
   0.0000000000000000E+00   0.0000000000000000E+00   0.0000000000000000E+00
   0.0000000000000000E+00   0.0000000000000000E+00   0.0000000000000000E+00
   0.0000000000000000E+00   0.0000000000000000E+00   0.0000000000000000E+00
   0.0000000000000000E+00   0.0000000000000000E+00   0.0000000000000000E+00
   0.0000000000000000E+00   0.0000000000000000E+00   0.0000000000000000E+00
   0.0000000000000000E+00   0.0000000000000000E+00   0.0000000000000000E+00
   0.0000000000000000E+00   0.0000000000000000E+00   0.0000000000000000E+00
   0.0000000000000000E+00   0.0000000000000000E+00   0.0000000000000000E+00
   0.0000000000000000E+00   0.0000000000000000E+00   0.0000000000000000E+00
   0.0000000000000000E+00   0.0000000000000000E+00   0.0000000000000000E+00
   0.0000000000000000E+00   0.0000000000000000E+00   0.0000000000000000E+00
   0.0000000000000000E+00   0.0000000000000000E+00   0.0000000000000000E+00
   0.0000000000000000E+00   0.0000000000000000E+00   0.0000000000000000E+00
   0.0000000000000000E+00   0.0000000000000000E+00   0.0000000000000000E+00
   0.0000000000000000E+00   0.0000000000000000E+00   0.0000000000000000E+00
   0.0000000000000000E+00   0.0000000000000000E+00   0.0000000000000000E+00
   0.0000000000000000E+00   0.0000000000000000E+00   0.0000000000000000E+00
   0.0000000000000000E+00   0.0000000000000000E+00   0.0000000000000000E+00
   0.0000000000000000E+00   0.0000000000000000E+00   0.0000000000000000E+00
   0.0000000000000000E+00   0.0000000000000000E+00   0.0000000000000000E+00
   0.0000000000000000E+00   0.0000000000000000E+00   0.0000000000000000E+00
   0.0000000000000000E+00   0.0000000000000000E+00
     </PP_GIPAW_CORE_ORBITAL.3>
     <PP_GIPAW_CORE_ORBITAL.4 size="1106" index="4" label="3S" n="3" l="0">
   0.0000000000000000E+00   8.6218144905517483E-04   8.7272467661980496E-04
   8.8339663526025721E-04   8.9419888748434396E-04   9.0513302160645970E-04
   9.1620064737048929E-04   9.2740339415030206E-04   9.3874291114029776E-04
   9.5022086759474354E-04   9.6183895307064976E-04   9.7359887767362572E-04
   9.8550237230667082E-04   9.9755118892194119E-04   1.0097471007755304E-03
   1.0220919026852910E-03   1.0345874112917387E-03   1.0472354653220724E-03
   1.0600379258573502E-03   1.0729966766028494E-03   1.0861136241616567E-03
   1.0993906983115221E-03   1.1128298522850156E-03   1.1264330630530212E-03
   1.1402023316116128E-03   1.1541396832723456E-03   1.1682471679560092E-03
   1.1825268604898759E-03   1.1969808609084817E-03   1.2116112947579993E-03
   1.2264203134042192E-03   1.2414100943441979E-03   1.2565828415216113E-03
   1.2719407856458501E-03   1.2874861845149103E-03   1.3032213233421166E-03
   1.3191485150867174E-03   1.3352701007884103E-03   1.3515884499058276E-03
   1.3681059606590381E-03   1.3848250603761044E-03   1.4017482058437476E-03
   1.4188778836621615E-03   1.4362166106040254E-03   1.4537669339777649E-03
   1.4715314319951106E-03   1.4895127141429905E-03   1.5077134215598289E-03
   1.5261362274162815E-03   1.5447838373004615E-03   1.5636589896077203E-03
   1.5827644559350124E-03   1.6021030414799145E-03   1.6216775854443523E-03
   1.6414909614430621E-03   1.6615460779168811E-03   1.6818458785508852E-03
   1.7023933426974500E-03   1.7231914858042755E-03   1.7442433598474502E-03
   1.7655520537695887E-03   1.7871206939231176E-03   1.8089524445187529E-03
   1.8310505080792430E-03   1.8534181258984142E-03   1.8760585785056088E-03
   1.8989751861355395E-03   1.9221713092036543E-03   1.9456503487870482E-03
   1.9694157471109989E-03   1.9934709880411812E-03   2.0178195975816228E-03
   2.0424651443784717E-03   2.0674112402296395E-03   2.0926615406003653E-03
   2.1182197451448028E-03   2.1440895982336602E-03   2.1702748894879848E-03
   2.1967794543191459E-03   2.2236071744750874E-03   2.2507619785929363E-03
   2.2782478427579972E-03   2.3060687910692380E-03   2.3342288962113367E-03
   2.3627322800333370E-03   2.3915831141340027E-03   2.4207856204539412E-03
   2.4503440718745728E-03   2.4802627928240109E-03   2.5105461598899318E-03
   2.5411986024395242E-03   2.5722246032465613E-03   2.6036286991257245E-03
   2.6354154815741953E-03   2.6675895974206465E-03   2.7001557494816808E-03
   2.7331186972258175E-03   2.7664832574450784E-03   2.8002543049343090E-03
   2.8344367731782424E-03   2.8690356550464574E-03   2.9040560034962900E-03
   2.9395029322837486E-03   2.9753816166825909E-03   3.0116972942115768E-03
   3.0484552653700361E-03   3.0856608943818026E-03   3.1233196099476291E-03
   3.1614369060061569E-03   3.2000183425035414E-03   3.2390695461718051E-03
   3.2785962113160397E-03   3.3186041006105162E-03   3.3590990459038280E-03
   3.4000869490331304E-03   3.4415737826475903E-03   3.4835655910411406E-03
   3.5260684909946215E-03   3.5690886726274279E-03   3.6126324002587291E-03
   3.6567060132783884E-03   3.7013159270276696E-03   3.7464686336898113E-03
   3.7921707031906113E-03   3.8384287841090750E-03   3.8852496045982655E-03
   3.9326399733164213E-03   3.9806067803684940E-03   4.0291569982581462E-03
   4.0782976828503707E-03   4.1280359743447910E-03   4.1783790982597938E-03
   4.2293343664275146E-03   4.2809091779999198E-03   4.3331110204659264E-03
   4.3859474706798088E-03   4.4394261959009029E-03   4.4935549548447747E-03
   4.5483415987459010E-03   4.6037940724320591E-03   4.6599204154104340E-03
   4.7167287629656107E-03   4.7742273472695558E-03   4.8324244985036777E-03
   4.8913286459930901E-03   4.9509483193531925E-03   5.0112921496486412E-03
   5.0723688705648830E-03   5.1341873195922920E-03   5.1967564392230835E-03
   5.2600852781610613E-03   5.3241829925443542E-03   5.3890588471811988E-03
   5.4547222167989412E-03   5.5211825873063307E-03   5.5884495570692021E-03
   5.6565328381997038E-03   5.7254422578591141E-03   5.7951877595744418E-03
   5.8657794045688574E-03   5.9372273731060589E-03   6.0095419658487371E-03
   6.0827336052311932E-03   6.1568128368462609E-03   6.2317903308466019E-03
   6.3076768833605166E-03   6.3844834179223727E-03   6.4622209869177206E-03
   6.5409007730432810E-03   6.6205340907818100E-03   6.7011323878920512E-03
   6.7827072469138130E-03   6.8652703866883000E-03   6.9488336638937678E-03
   7.0334090745967272E-03   7.1190087558185939E-03   7.2056449871181075E-03
   7.2933301921894672E-03   7.3820769404763543E-03   7.4718979488019258E-03
   7.5628060830149006E-03   7.6548143596517747E-03   7.7479359476153855E-03
   7.8421841698697540E-03   7.9375725051514662E-03   8.0341145896975948E-03
   8.1318242189902627E-03   8.2307153495179940E-03   8.3308021005538795E-03
   8.4320987559506604E-03   8.5346197659528829E-03   8.6383797490261621E-03
   8.7433934937035818E-03   8.8496759604494331E-03   8.9572422835403342E-03
   9.0661077729637246E-03   9.1762879163339497E-03   9.2877983808259418E-03
   9.4006550151265449E-03   9.5148738514036230E-03   9.6304711072929938E-03
   9.7474631879031909E-03   9.8658666878383011E-03   9.9856983932386789E-03
   1.0106975283839839E-02   1.0229714535049440E-02   1.0353933520042487E-02
   1.0479649811874709E-02   1.0606881185614273E-02   1.0735645620491858E-02
   1.0865961302068962E-02   1.0997846624424776E-02   1.1131320192361370E-02
   1.1266400823627403E-02   1.1403107551160254E-02   1.1541459625346751E-02
   1.1681476516302308E-02   1.1823177916168631E-02   1.1966583741429955E-02
   1.2111714135247793E-02   1.2258589469814170E-02   1.2407230348723415E-02
   1.2557657609362354E-02   1.2709892325318991E-02   1.2863955808809665E-02
   1.3019869613124442E-02   1.3177655535090997E-02   1.3337335617556643E-02
   1.3498932151888621E-02   1.3662467680492642E-02   1.3827964999349214E-02
   1.3995447160568317E-02   1.4164937474961658E-02   1.4336459514632850E-02
   1.4510037115585288E-02   1.4685694380347499E-02   1.4863455680615926E-02
   1.5043345659915020E-02   1.5225389236274433E-02   1.5409611604923202E-02
   1.5596038241000665E-02   1.5784694902284020E-02   1.5975607631932311E-02
   1.6168802761246579E-02   1.6364306912445972E-02   1.6562147001459655E-02
   1.6762350240734195E-02   1.6964944142056161E-02   1.7169956519389660E-02
   1.7377415491728689E-02   1.7587349485963657E-02   1.7799787239762086E-02
   1.8014757804463013E-02   1.8232290547984708E-02   1.8452415157745494E-02
   1.8675161643597001E-02   1.8900560340769829E-02   1.9128641912830854E-02
   1.9359437354652041E-02   1.9592977995389921E-02   1.9829295501475747E-02
   2.0068421879615425E-02   2.0310389479798817E-02   2.0555230998318023E-02
   2.0802979480793914E-02   2.1053668325210311E-02   2.1307331284955416E-02
   2.1564002471869615E-02   2.1823716359299163E-02   2.2086507785154978E-02
   2.2352411954975868E-02   2.2621464444995579E-02   2.2893701205212530E-02
   2.3169158562462100E-02   2.3447873223489856E-02   2.3729882278025499E-02
   2.4015223201856454E-02   2.4303933859900029E-02   2.4596052509273481E-02
   2.4891617802360804E-02   2.5190668789875310E-02   2.5493244923917149E-02
   2.5799386061024141E-02   2.6109132465215613E-02   2.6422524811027283E-02
   2.6739604186536651E-02   2.7060412096377287E-02   2.7384990464740810E-02
   2.7713381638365415E-02   2.8045628389509414E-02   2.8381773918908466E-02
   2.8721861858715225E-02   2.9065936275419400E-02   2.9414041672747457E-02
   2.9766222994539755E-02   3.0122525627603775E-02   3.0482995404541711E-02
   3.0847678606550685E-02   3.1216621966193875E-02   3.1589872670140531E-02
   3.1967478361873206E-02   3.2349487144360214E-02   3.2735947582691043E-02
   3.3126908706673154E-02   3.3522420013387601E-02   3.3922531469701249E-02
   3.4327293514734021E-02   3.4736757062277829E-02   3.5150973503165615E-02
   3.5569994707587801E-02   3.5993873027353240E-02   3.6422661298092962E-02
   3.6856412841402821E-02   3.7295181466923635E-02   3.7739021474354748E-02
   3.8187987655399033E-02   3.8642135295636051E-02   3.9101520176319779E-02
   3.9566198576098742E-02   4.0036227272654587E-02   4.0511663544255838E-02
   4.0992565171223856E-02   4.1478990437306719E-02   4.1970998130958385E-02
   4.2468647546518433E-02   4.2971998485289771E-02   4.3481111256508574E-02
   4.3996046678204802E-02   4.4516866077947005E-02   4.5043631293468715E-02
   4.5576404673171304E-02   4.6115249076498825E-02   4.6660227874181136E-02
   4.7211404948339190E-02   4.7768844692449110E-02   4.8332612011159605E-02
   4.8902772319956669E-02   4.9479391544672464E-02   5.0062536120831232E-02
   5.0652272992827284E-02   5.1248669612930613E-02   5.1851793940112099E-02
   5.2461714438684970E-02   5.3078500076754832E-02   5.3702220324472388E-02
   5.4332945152083603E-02   5.4970745027768705E-02   5.5615690915265956E-02
   5.6267854271271366E-02   5.6927307042608476E-02   5.7594121663161038E-02
   5.8268371050560319E-02   5.8950128602620944E-02   5.9639468193517085E-02
   6.0336464169690511E-02   6.1041191345483810E-02   6.1753724998489155E-02
   6.2474140864605350E-02   6.3202515132794443E-02   6.3938924439527894E-02
   6.4683445862915606E-02   6.5436156916506089E-02   6.6197135542750293E-02
   6.6966460106118661E-02   6.7744209385861426E-02   6.8530462568403186E-02
   6.9325299239359428E-02   7.0128799375166834E-02   7.0941043334315251E-02
   7.1762111848170426E-02   7.2592086011377233E-02   7.3431047271830002E-02
   7.4279077420201053E-02   7.5136258579012669E-02   7.6002673191242237E-02
   7.6878404008447324E-02   7.7763534078397811E-02   7.8658146732202325E-02
   7.9562325570916165E-02   8.0476154451615836E-02   8.1399717472928304E-02
   8.2333098959998560E-02   8.3276383448882954E-02   8.4229655670353204E-02
   8.5193000533095128E-02   8.6166503106287651E-02   8.7150248601546798E-02
   8.8144322354217652E-02   8.9148809803998988E-02   9.0163796474883595E-02
   9.1189367954397901E-02   9.2225609872123054E-02   9.3272607877479832E-02
   9.4330447616761140E-02   9.5399214709391944E-02   9.6478994723398492E-02
   9.7569873150070097E-02   9.8671935377790246E-02   9.9785266665021854E-02
   1.0090995211242365E-01   1.0204607663407869E-01   1.0319372492781483E-01
   1.0435298144459419E-01   1.0552393035695347E-01   1.0670665552646989E-01
   1.0790124047023353E-01   1.0910776832630227E-01   1.1032632181811612E-01
   1.1155698321784964E-01   1.1279983430867638E-01   1.1405495634592340E-01
   1.1532243001709140E-01   1.1660233540071349E-01   1.1789475192403163E-01
   1.1919975831946104E-01   1.2051743257981982E-01   1.2184785191229724E-01
   1.2319109269113068E-01   1.2454723040897039E-01   1.2591633962689938E-01
   1.2729849392308326E-01   1.2869376584002257E-01   1.3010222683037634E-01
   1.3152394720133204E-01   1.3295899605748887E-01   1.3440744124222873E-01
   1.3586934927754185E-01   1.3734478530227864E-01   1.3883381300879674E-01
   1.4033649457797348E-01   1.4185289061255008E-01   1.4338306006878010E-01
   1.4492706018634521E-01   1.4648494641651225E-01   1.4805677234849338E-01
   1.4964258963398142E-01   1.5124244790982516E-01   1.5285639471881041E-01
   1.5448447542851729E-01   1.5612673314821610E-01   1.5778320864377032E-01
   1.5945394025051329E-01   1.6113896378406084E-01   1.6283831244903058E-01
   1.6455201674562919E-01   1.6628010437407642E-01   1.6802260013682851E-01
   1.6977952583856767E-01   1.7155090018392308E-01   1.7333673867288826E-01
   1.7513705349389960E-01   1.7695185341454270E-01   1.7878114366984985E-01
   1.8062492584815604E-01   1.8248319777447886E-01   1.8435595339138588E-01
   1.8624318263731973E-01   1.8814487132234112E-01   1.9006100100126277E-01
   1.9199154884413727E-01   1.9393648750406503E-01   1.9589578498229526E-01
   1.9786940449058055E-01   1.9985730431076140E-01   2.0185943765154349E-01
   2.0387575250244203E-01   2.0590619148486100E-01   2.0795069170027947E-01
   2.1000918457551734E-01   2.1208159570505258E-01   2.1416784469036459E-01
   2.1626784497627874E-01   2.1838150368428652E-01   2.2050872144281974E-01
   2.2264939221445834E-01   2.2480340312004654E-01   2.2697063425970626E-01
   2.2915095853072159E-01   2.3134424144228519E-01   2.3355034092708982E-01
   2.3576910714975133E-01   2.3800038231205664E-01   2.4024400045502106E-01
   2.4249978725775773E-01   2.4476755983314649E-01   2.4704712652030539E-01
   2.4933828667386421E-01   2.5164083045003971E-01   2.5395453858952483E-01
   2.5627918219719492E-01   2.5861452251864303E-01   2.6096031071356324E-01
   2.6331628762599457E-01   2.6568218355144874E-01   2.6805771800094996E-01
   2.7044259946200744E-01   2.7283652515656309E-01   2.7523918079594006E-01
   2.7765024033284313E-01   2.8006936571044833E-01   2.8249620660863439E-01
   2.8493040018741195E-01   2.8737157082760673E-01   2.8981932986886183E-01
   2.9227327534503300E-01   2.9473299171704487E-01   2.9719804960329815E-01
   2.9966800550770689E-01   3.0214240154546457E-01   3.0462076516663678E-01
   3.0710260887768803E-01   3.0958742996105482E-01   3.1207471019288735E-01
   3.1456391555908614E-01   3.1705449596977264E-01   3.1954588497233072E-01
   3.2203749946318194E-01   3.2452873939844223E-01   3.2701898750363989E-01
   3.2950760898266757E-01   3.3199395122615571E-01   3.3447734351946767E-01
   3.3695709675052071E-01   3.3943250311765072E-01   3.4190283583775039E-01
   3.4436734885491588E-01   3.4682527654985551E-01   3.4927583345031904E-01
   3.5171821394282010E-01   3.5415159198593965E-01   3.5657512082550658E-01
   3.5898793271196200E-01   3.6138913862023797E-01   3.6377782797247865E-01
   3.6615306836396333E-01   3.6851390529258649E-01   3.7085936189228291E-01
   3.7318843867078277E-01   3.7550011325211352E-01   3.7779334012426602E-01
   3.8006705039246974E-01   3.8232015153853027E-01   3.8455152718670299E-01
   3.8676003687659016E-01   3.8894451584357154E-01   3.9110377480728853E-01
   3.9323659976872383E-01   3.9534175181643999E-01   3.9741796694254777E-01
   3.9946395586900785E-01   4.0147840388487682E-01   4.0345997069513356E-01
   4.0540729028173939E-01   4.0731897077760687E-01   4.0919359435417052E-01
   4.1102971712327191E-01   4.1282586905409707E-01   4.1458055390591642E-01
   4.1629224917740765E-01   4.1795940607335402E-01   4.1958044948954049E-01
   4.2115377801668019E-01   4.2267776396423912E-01   4.2415075340503405E-01
   4.2557106624151031E-01   4.2693699629462378E-01   4.2824681141626947E-01
   4.2949875362622753E-01   4.3069103927461333E-01   4.3182185923084110E-01
   4.3288937910012987E-01   4.3389173946860632E-01   4.3482705617806999E-01
   4.3569342063151995E-01   4.3648890013054670E-01   4.3721153824572384E-01
   4.3785935522114983E-01   4.3843034841430395E-01   4.3892249277240536E-01
   4.3933374134647685E-01   4.3966202584433167E-01   4.3990525722372131E-01
   4.4006132632688771E-01   4.4012810455779117E-01   4.4010344460328438E-01
   4.3998518119952335E-01   4.3977113194491235E-01   4.3945909816089368E-01
   4.3904686580189306E-01   4.3853220641574980E-01   4.3791287815595359E-01
   4.3718662684701942E-01   4.3635118710433779E-01   4.3540428350982446E-01
   4.3434363184470443E-01   4.3316694038075476E-01   4.3187191123132296E-01
   4.3045624176343161E-01   4.2891762607226686E-01   4.2725375651933672E-01
   4.2546232533556200E-01   4.2354102629055296E-01   4.2148755642929486E-01
   4.1929961787743930E-01   4.1697491971637618E-01   4.1451117992922071E-01
   4.1190612741882138E-01   4.0915750409884805E-01   4.0626306705898219E-01
   4.0322059080517925E-01   4.0002786957592407E-01   3.9668271973534308E-01
   3.9318298224398190E-01   3.8952652520797881E-01   3.8571124650731381E-01
   3.8173507650372290E-01   3.7759598082879242E-01   3.7329196325267389E-01
   3.6882106863374658E-01   3.6418138594949084E-01   3.5937105140870240E-01
   3.5438825164509485E-01   3.4923122699221776E-01   3.4389827483949043E-01
   3.3838775306904034E-01   3.3269808357289582E-01   3.2682775584994500E-01
   3.2077533068193737E-01   3.1453944388763289E-01   3.0811881015407566E-01
   3.0151222694377222E-01   2.9471857847640304E-01   2.8773683978351317E-01
   2.8056608083442280E-01   2.7320547073142959E-01   2.6565428197214669E-01
   2.5791189477661525E-01   2.4997780147662516E-01   2.4185161096441285E-01
   2.3353305319770692E-01   2.2502198375780980E-01   2.1631838845716736E-01
   2.0742238799261936E-01   1.9833424264020058E-01   1.8905435698716766E-01
   1.7958328469654417E-01   1.6992173329921503E-01   1.6007056900834424E-01
   1.5003082155046010E-01   1.3980368900737850E-01   1.2939054266271874E-01
   1.1879293184645735E-01   1.0801258877073772E-01   9.7051433349712571E-02
   8.5911577996023530E-02   7.4595332386176050E-02   6.3105208186766182E-02
   5.1443923733398053E-02   3.9614408653753916E-02   2.7619808426214944E-02
   1.5463488865234744E-02   3.1490405244874822E-03  -9.3197169911465837E-03
  -2.1938730813886500E-02  -3.4703710710727982E-02  -4.7610125099584587E-02
  -6.0653197193049936E-02  -7.3827901278858687E-02  -8.7128959146251378E-02
  -1.0055083666742849E-01  -1.1408774054349871E-01  -1.2773361522448651E-01
  -1.4148214001328699E-01  -1.5532672636389583E-01  -1.6926051538478334E-01
  -1.8327637555892076E-01  -1.9736690069281604E-01  -2.1152440810772694E-01
  -2.2574093708730078E-01  -2.4000824759680339E-01  -2.5431781929027775E-01
  -2.6866085082295449E-01  -2.8302825948722521E-01  -2.9741068119151753E-01
  -3.1179847080202144E-01  -3.2618170286805587E-01  -3.4055017275221566E-01
  -3.5489339818668636E-01  -3.6920062127727865E-01  -3.8346081097631912E-01
  -3.9766266604524481E-01  -4.1179461852693783E-01  -4.2584483774676940E-01
  -4.3980123486027856E-01  -4.5365146796374600E-01  -4.6738294778250022E-01
  -4.8098284395008956E-01  -4.9443809188964183E-01  -5.0773540030729269E-01
  -5.2086125930588645E-01  -5.3380194912591084E-01  -5.4654354951954631E-01
  -5.5907194976264063E-01  -5.7137285930888393E-01  -5.8343181908971287E-01
  -5.9523421346301053E-01  -6.0676528281323250E-01  -6.1801013680491867E-01
  -6.2895376829106586E-01  -6.3958106787698077E-01  -6.4987683913936334E-01
  -6.5982581449933642E-01  -6.6941267174688268E-01  -6.7862205121286912E-01
  -6.8743857358338678E-01  -6.9584685834958382E-01  -7.0383154288463379E-01
  -7.1137730213781925E-01  -7.1846886893405670E-01  -7.2509105486552561E-01
  -7.3122877176035417E-01  -7.3686705371162819E-01  -7.4199107964823596E-01
  -7.4658619642736812E-01  -7.5063794242666426E-01  -7.5413207161226936E-01
  -7.5705457805719645E-01  -7.5939172088253137E-01  -7.6113004959215858E-01
  -7.6225642976968455E-01  -7.6275806910432198E-01  -7.6262254371042904E-01
  -7.6183782470339145E-01  -7.6039230499241406E-01  -7.5827482624869924E-01
  -7.5547470600533861E-01  -7.5198176484308565E-01  -7.4778635361401891E-01
  -7.4287938065289949E-01  -7.3725233892387643E-01  -7.3089733304801119E-01
  -7.2380710615491706E-01  -7.1597506649974041E-01  -7.0739531378454823E-01
  -6.9806266512122150E-01  -6.8797268057094996E-01  -6.7712168819349094E-01
  -6.6550680853768107E-01  -6.5312597850284393E-01  -6.3997797449931648E-01
  -6.2606243483487978E-01  -6.1137988125257614E-01  -5.9593173954450263E-01
  -5.7972035916521225E-01  -5.6274903176781232E-01  -5.4502200858556316E-01
  -5.2654451658156654E-01  -5.0732277328947761E-01  -4.8736400026855026E-01
  -4.6667643509710877E-01  -4.4526934182964029E-01  -4.2315301984386922E-01
  -4.0033881100583957E-01  -3.7683910508267099E-01  -3.5266734333459931E-01
  -3.2783802021992386E-01  -3.0236668314852838E-01  -2.7626993022180196E-01
  -2.4956540589886053E-01  -2.2227179453112467E-01  -1.9440881170929883E-01
  -1.6599719336931409E-01  -1.3705868260604726E-01  -1.0761601414697165E-01
  -7.7692896441976508E-02  -4.7313991330975122E-02  -1.6504891259015556E-02
   1.4707905980993198E-02   4.6297024983201047E-02   7.8234242927308517E-02
   1.1049052220230197E-01   1.4303604538646628E-01   1.7584025247882443E-01
   2.0887188023667402E-01   2.4209900343009616E-01   2.7548907778183757E-01
   3.0900898432237939E-01   3.4262507486235111E-01   3.7630321827309482E-01
   4.1000884727713183E-01   4.4370700549027675E-01   4.7736239452870022E-01
   5.1093942109993951E-01   5.4440224413399918E-01   5.7771482217217762E-01
   6.1084096140483779E-01   6.4374436491506259E-01   6.7638868381665718E-01
   7.0873757104143809E-01   7.4075473850098317E-01   7.7240401820061555E-01
   8.0364942761579405E-01   8.3445523927839782E-01   8.6478605411594334E-01
   8.9460687771214842E-01   9.2388319838397204E-01   9.5258106584704250E-01
   9.8066716928139974E-01   1.0081089137861339E+00   1.0348744944725690E+00
   1.0609329677297403E+00   1.0862543194506966E+00   1.1108095302017207E+00
   1.1345706374366529E+00   1.1575107949110723E+00   1.1796043294507621E+00
   1.2008267951927498E+00   1.2211550253622818E+00   1.2405671815869632E+00
   1.2590428006890324E+00   1.2765628388439714E+00   1.2931097129504927E+00
   1.3086673390259882E+00   1.3232211674220444E+00   1.3367582146467070E+00
   1.3492670915830869E+00   1.3607380279054391E+00   1.3711628925134380E+00
   1.3805352098303549E+00   1.3888501718397543E+00   1.3961046457667454E+00
   1.4022971773416795E+00   1.4074279896158999E+00   1.4114989773294433E+00
   1.4145136968589491E+00   1.4164773518001865E+00   1.4173967742632048E+00
   1.4172804019793244E+00   1.4161382513379939E+00   1.4139818864880644E+00
   1.4108243846526054E+00   1.4066802978189761E+00   1.4015656109768668E+00
   1.3954976970863784E+00   1.3884952689662238E+00   1.3805783282988124E+00
   1.3717681119544243E+00   1.3620870358410222E+00   1.3515586364894610E+00
   1.3402075105860980E+00   1.3280592526659636E+00   1.3151403911800339E+00
   1.3014783231494542E+00   1.2871012476181678E+00   1.2720380981131925E+00
   1.2563184743187581E+00   1.2399725731669704E+00   1.2230311195433572E+00
   1.2055252968008698E+00   1.1874866772707238E+00   1.1689471529526343E+00
   1.1499388665612205E+00   1.1304941430988691E+00   1.1106454221190050E+00
   1.0904251908371787E+00   1.0698659182405219E+00   1.0489999903398151E+00
   1.0278596467026158E+00   1.0064769183960856E+00   9.8488356745793182E-01
   9.6311102803872461E-01   9.4119034929666423E-01   9.1915214016966629E-01
   8.9702651612156825E-01   8.7484304795868961E-01   8.5263071280727665E-01
   8.3041784733777479E-01   8.0823210331681994E-01   7.8610040556293581E-01
   7.6404891237739236E-01   7.4210297851638374E-01   7.2028712076579282E-01
   6.9862498617434210E-01   6.7713932299493684E-01   6.5585195437802402E-01
   6.3478375485358973E-01   6.1395462963110670E-01   5.9338349673845292E-01
   5.7308827201176149E-01   5.5308585693858858E-01   5.3339212934620239E-01
   5.1402193691576459E-01   4.9498909349152176E-01   4.7630637814205939E-01
   4.5798553691848387E-01   4.4003728724216401E-01   4.2247132484281469E-01
   4.0529633315651092E-01   3.8851999508291085E-01   3.7214900699215941E-01
   3.5618909486467903E-01   3.4064503244200511E-01   3.2552066126398166E-01
   3.1081891246745719E-01   2.9654183022410091E-01   2.8269059669994201E-01
   2.6926555842675892E-01   2.5626625398452751E-01   2.4369144290452169E-01
   2.3153913571304627E-01   2.1980662504495566E-01   2.0849051776323554E-01
   1.9758676802413172E-01   1.8709071122619997E-01   1.7699709877532985E-01
   1.6730013358608001E-01   1.5799350622353220E-01   1.4907043157007124E-01
   1.4052368588015043E-01   1.3234564406539673E-01   1.2452831703424742E-01
   1.1706338889733782E-01   1.0994225384313788E-01   1.0315605248898044E-01
   9.6695707520781479E-02   9.0551958449314629E-02   8.4715395330922358E-02
   7.9176491323912024E-02   7.3925633976759206E-02   6.8953155168950050E-02
   6.4249359648066232E-02   5.9804552126791220E-02   5.5609062920135253E-02
   5.1653272116230359E-02   4.7927632283850885E-02   4.4422689726670198E-02
   4.1129104298887435E-02   3.8037667799811006E-02   3.5139320966809391E-02
   3.2425169087323430E-02   2.9886496251641106E-02   2.7514778269226450E-02
   2.5301694272690071E-02   2.3239137035075012E-02   2.1319222028057687E-02
   1.9534295250855538E-02   1.7876939862081380E-02   1.6339981649377670E-02
   1.4916493374353522E-02   1.3599798033038747E-02   1.2383471074700465E-02
   1.1261341624372010E-02   1.0227492756765048E-02   9.2762608713377517E-03
   8.4022342201307641E-03   7.6002506415304098E-03   6.8653945543689547E-03
   6.1929932676888944E-03   5.5786126620989401E-03   5.0180522989179506E-03
   4.5073400132395235E-03   4.0427260466784840E-03   3.6206767748702823E-03
   3.2378680838117844E-03   2.8911784478785982E-03   2.5776817608250888E-03
   2.2946399693244378E-03   2.0394955566228968E-03   1.8098639217180299E-03
   1.6035256971343350E-03   1.4184190458872397E-03   1.2526319756312541E-03
   1.1043947052973224E-03   9.7207211676745371E-04   8.5415632133684592E-04
   7.4925936789595584E-04   6.5610611695315630E-04   5.7352730183298287E-04
   5.0045279564513254E-04   4.3590509994713715E-04   3.7899306843197997E-04
   3.2890587647977309E-04   2.8490724503168390E-04   2.4632992498614702E-04
   2.1257044619337801E-04   1.8308413313948498E-04   1.5738038757512555E-04
   1.3501823665752958E-04   1.1560214364185990E-04   9.8778076779786151E-05
   8.4229830858096024E-05   7.1675594736461760E-05   6.0864757317466400E-05
   5.1574943599002765E-05   4.3609271813451015E-05   3.6793822143208721E-05
   3.0975307110428641E-05   2.6018933462763159E-05   2.1806445208111308E-05
   1.8234337380421979E-05   1.5212230137460822E-05   1.2661392890578483E-05
   1.0513408336982170E-05   8.7089664980572393E-06   7.1967791541026331E-06
   5.9326053981211342E-06   4.8783794010429690E-06   4.0014318802581315E-06
   3.2737971854561659E-06   2.6715983542262371E-06   2.1745029378978757E-06
   1.7652428508547567E-06   1.4291919486554229E-06   1.1539954874995518E-06
   9.2924605602995429E-07   7.4620099687654555E-07   5.9753674699612270E-07
   4.7713592049085360E-07   3.7990333346303699E-07   3.0160752616306701E-07
   2.3874467254505049E-07   1.8842208047823778E-07   1.4825877735624781E-07
   1.1630094562346604E-07   9.0950221176429166E-08   7.0903095234128109E-08
   5.5099867827141607E-08   4.2681789392189258E-08   3.2955197047846872E-08
   2.5361605030654740E-08   1.9452845560069860E-08   1.4870478282382372E-08
   1.1328794471748267E-08   8.6008375502211971E-09   6.5069453028357595E-09
   4.9053924934460033E-09   3.6847764598317685E-09   2.7578436571324529E-09
   2.0565029422537379E-09   1.5278125007268090E-09   1.1307625001623227E-09
   8.3370552919626277E-10   6.1231231295072435E-10   4.4795167064758976E-10
   3.2641173921925122E-10   2.3689460242500814E-10   1.7122906131042037E-10
   1.2325673174934287E-10   8.8355284910625453E-11   6.3069741405654524E-11
   4.5269675966054430E-11  -2.2733769681985801E-12  -7.4284133543358790E-14
   0.0000000000000000E+00   0.0000000000000000E+00   0.0000000000000000E+00
   0.0000000000000000E+00   0.0000000000000000E+00   0.0000000000000000E+00
   0.0000000000000000E+00   0.0000000000000000E+00   0.0000000000000000E+00
   0.0000000000000000E+00   0.0000000000000000E+00   0.0000000000000000E+00
   0.0000000000000000E+00   0.0000000000000000E+00   0.0000000000000000E+00
   0.0000000000000000E+00   0.0000000000000000E+00   0.0000000000000000E+00
   0.0000000000000000E+00   0.0000000000000000E+00   0.0000000000000000E+00
   0.0000000000000000E+00   0.0000000000000000E+00   0.0000000000000000E+00
   0.0000000000000000E+00   0.0000000000000000E+00   0.0000000000000000E+00
   0.0000000000000000E+00   0.0000000000000000E+00   0.0000000000000000E+00
   0.0000000000000000E+00   0.0000000000000000E+00   0.0000000000000000E+00
   0.0000000000000000E+00   0.0000000000000000E+00   0.0000000000000000E+00
   0.0000000000000000E+00   0.0000000000000000E+00   0.0000000000000000E+00
   0.0000000000000000E+00   0.0000000000000000E+00   0.0000000000000000E+00
   0.0000000000000000E+00   0.0000000000000000E+00   0.0000000000000000E+00
   0.0000000000000000E+00   0.0000000000000000E+00   0.0000000000000000E+00
   0.0000000000000000E+00   0.0000000000000000E+00   0.0000000000000000E+00
   0.0000000000000000E+00   0.0000000000000000E+00
     </PP_GIPAW_CORE_ORBITAL.4>
     <PP_GIPAW_CORE_ORBITAL.5 size="1106" index="5" label="3P" n="3" l="1">
   0.0000000000000000E+00  -3.6404817836437218E-07  -3.7162866127543485E-07
  -3.7938009437392997E-07  -3.8730665177259216E-07  -3.9541215009856227E-07
  -4.0370034936563097E-07  -4.1217509128494793E-07  -4.2084030432460536E-07
  -4.2970000555661484E-07  -4.3875830253889737E-07  -4.4801939523943725E-07
  -4.5748757800410695E-07  -4.6716724156911516E-07  -4.7706287511905552E-07
  -4.8717906839154030E-07  -4.9752051382942819E-07  -5.0809200878169322E-07
  -5.1889845775397688E-07  -5.2994487470992599E-07  -5.4123638542441079E-07
  -5.5277822988976315E-07  -5.6457576477620461E-07  -5.7663446594762636E-07
  -5.8895993103397048E-07  -6.0155788206142449E-07  -6.1443416814171693E-07
  -6.2759476822181210E-07  -6.4104579389533031E-07  -6.5479349227705777E-07
  -6.6884424894193892E-07  -6.8320459092997103E-07  -6.9788118981846610E-07
  -7.1288086486316090E-07  -7.2821058620970655E-07  -7.4387747817709778E-07
  -7.5988882261462799E-07  -7.7625206233401913E-07  -7.9297480461837698E-07
  -8.1006482480969348E-07  -8.2753006997664057E-07  -8.4537866266443560E-07
  -8.6361890472861789E-07  -8.8225928125459682E-07  -9.0130846456489268E-07
  -9.2077531831602225E-07  -9.4066890168702874E-07  -9.6099847366171956E-07
  -9.8177349740668399E-07  -1.0030036447472523E-06  -1.0246988007435861E-06
  -1.0468690683691318E-06  -1.0695247732937443E-06  -1.0926764687738268E-06
  -1.1163349406518752E-06  -1.1405112124679060E-06  -1.1652165506852543E-06
  -1.1904624700333372E-06  -1.2162607389699927E-06  -1.2426233852661003E-06
  -1.2695627017152194E-06  -1.2970912519710849E-06  -1.3252218765158007E-06
  -1.3539676987617287E-06  -1.3833421312900404E-06  -1.4133588822290494E-06
  -1.4440319617754558E-06  -1.4753756888617448E-06  -1.5074046979730348E-06
  -1.5401339461167586E-06  -1.5735787199486185E-06  -1.6077546430583711E-06
  -1.6426776834190422E-06  -1.6783641610032869E-06  -1.7148307555706515E-06
  -1.7520945146296573E-06  -1.7901728615786181E-06  -1.8290836040292773E-06
  -1.8688449423174000E-06  -1.9094754782045664E-06  -1.9509942237755022E-06
  -1.9934206105353912E-06  -2.0367744987117069E-06  -2.0810761867652257E-06
  -2.1263464211149661E-06  -2.1726064060819097E-06  -2.2198778140565110E-06
  -2.2681827958950683E-06  -2.3175439915501545E-06  -2.3679845409404864E-06
  -2.4195280950656284E-06  -2.4721988273711621E-06  -2.5260214453700054E-06
  -2.5810212025257343E-06  -2.6372239104038704E-06  -2.6946559510972925E-06
  -2.7533442899319861E-06  -2.8133164884595509E-06  -2.8746007177430520E-06
  -2.9372257719428713E-06  -3.0012210822094482E-06  -3.0666167308899529E-06
  -3.1334434660560277E-06  -3.2017327163600071E-06  -3.2715166062270885E-06
  -3.3428279713912262E-06  -3.4157003747825255E-06  -3.4901681227743408E-06
  -3.5662662817982011E-06  -3.6440306953350899E-06  -3.7234980012917341E-06
  -3.8047056497706854E-06  -3.8876919212433338E-06  -3.9724959451350633E-06
  -4.0591577188320974E-06  -4.1477181271196759E-06  -4.2382189620616118E-06
  -4.3307029433313026E-06  -4.4252137390046845E-06  -4.5217959868257954E-06
  -4.6204953159558167E-06  -4.7213583692168890E-06  -4.8244328258419608E-06
  -4.9297674247426448E-06  -5.0374119883068209E-06  -5.1474174467384976E-06
  -5.2598358629523571E-06  -5.3747204580359666E-06  -5.4921256372927406E-06
  -5.6121070168793727E-06  -5.7347214510512441E-06  -5.8600270600303663E-06
  -5.9880832585099549E-06  -6.1189507848109294E-06  -6.2526917307051157E-06
  -6.3893695719211551E-06  -6.5290491993486912E-06  -6.6717969509575406E-06
  -6.8176806444482994E-06  -6.9667696106517991E-06  -7.1191347276946827E-06
  -7.2748484559494455E-06  -7.4339848737870401E-06  -7.5966197141511814E-06
  -7.7628304019735154E-06  -7.9326960924496569E-06  -8.1062977101960951E-06
  -8.2837179893090983E-06  -8.4650415143467099E-06  -8.6503547622556322E-06
  -8.8397461452655137E-06  -9.0333060547733128E-06  -9.2311269062414073E-06
  -9.4333031851332840E-06  -9.6399314939116205E-06  -9.8511106001236498E-06
  -1.0066941485600088E-05  -1.0287527396793539E-05  -1.0512973896283970E-05
  -1.0743388915478734E-05  -1.0978882808535562E-05  -1.1219568407537754E-05
  -1.1465561078951420E-05  -1.1716978781395090E-05  -1.1973942124753437E-05
  -1.2236574430666554E-05  -1.2505001794428262E-05  -1.2779353148326565E-05
  -1.3059760326461016E-05  -1.3346358131072033E-05  -1.3639284400418559E-05
  -1.3938680078240777E-05  -1.4244689284846070E-05  -1.4557459389856606E-05
  -1.4877141086659057E-05  -1.5203888468596018E-05  -1.5537859106942135E-05
  -1.5879214130706481E-05  -1.6228118308305529E-05  -1.6584740131151380E-05
  -1.6949251899201022E-05  -1.7321829808513545E-05  -1.7702654040863587E-05
  -1.8091908855459757E-05  -1.8489782682819267E-05  -1.8896468220849448E-05
  -1.9312162533189897E-05  -1.9737067149868681E-05  -2.0171388170328414E-05
  -2.0615336368879048E-05  -2.1069127302635113E-05  -2.1532981421997398E-05
  -2.2007124183739726E-05  -2.2491786166763219E-05  -2.2987203190582454E-05
  -2.3493616436608098E-05  -2.4011272572294059E-05  -2.4540423878217142E-05
  -2.5081328378159414E-05  -2.5634249972266179E-05  -2.6199458573352005E-05
  -2.6777230246431321E-05  -2.7367847351550746E-05  -2.7971598690001285E-05
  -2.8588779653993738E-05  -2.9219692379877582E-05  -2.9864645904990857E-05
  -3.0523956328226562E-05  -3.1197946974405317E-05  -3.1886948562546157E-05
  -3.2591299378128082E-05  -3.3311345449438816E-05  -3.4047440728109099E-05
  -3.4799947273932143E-05  -3.5569235444072643E-05  -3.6355684086769429E-05
  -3.7159680739640494E-05  -3.7981621832700777E-05  -3.8821912896206450E-05
  -3.9680968773440971E-05  -4.0559213838562318E-05  -4.1457082219633099E-05
  -4.2375018026958093E-05  -4.3313475586856291E-05  -4.4272919681000096E-05
  -4.5253825791453022E-05  -4.6256680351545086E-05  -4.7281981002725475E-05
  -4.8330236857536534E-05  -4.9401968768856751E-05  -5.0497709605562537E-05
  -5.1618004534765215E-05  -5.2763411310779580E-05  -5.3934500570987163E-05
  -5.5131856138760415E-05  -5.6356075333616902E-05  -5.7607769288777963E-05
  -5.8887563276310693E-05  -6.0196097040034975E-05  -6.1534025136382773E-05
  -6.2902017283401573E-05  -6.4300758718096831E-05  -6.5730950562315475E-05
  -6.7193310197375536E-05  -6.8688571647651514E-05  -7.0217485973332115E-05
  -7.1780821672570635E-05  -7.3379365093253078E-05  -7.5013920854616797E-05
  -7.6685312278955409E-05  -7.8394381833652026E-05  -8.0141991583790518E-05
  -8.1929023655597386E-05  -8.3756380710975687E-05  -8.5624986433395923E-05
  -8.7535786025418318E-05  -8.9489746718123597E-05  -9.1487858292739805E-05
  -9.3531133614756896E-05  -9.5620609180827862E-05  -9.7757345678763831E-05
  -9.9942428560937375E-05  -1.0217696863141219E-04  -1.0446210264713240E-04
  -1.0679899393350388E-04  -1.0918883301471310E-04  -1.1163283825913853E-04
  -1.1413225654020946E-04  -1.1668836391308817E-04  -1.1930246630754841E-04
  -1.2197590023743738E-04  -1.2471003352712077E-04  -1.2750626605530883E-04
  -1.3036603051668508E-04  -1.3329079320175652E-04  -1.3628205479536090E-04
  -1.3934135119427588E-04  -1.4247025434438210E-04  -1.4567037309784782E-04
  -1.4894335409080733E-04  -1.5229088264202191E-04  -1.5571468367302219E-04
  -1.5921652265023567E-04  -1.6279820654962844E-04  -1.6646158484438710E-04
  -1.7020855051618936E-04  -1.7404104109062238E-04  -1.7796103969731360E-04
  -1.8197057615536652E-04  -1.8607172808469001E-04  -1.9026662204383568E-04
  -1.9455743469497103E-04  -1.9894639399661707E-04  -2.0343578042481615E-04
  -2.0802792822338946E-04  -2.1272522668396989E-04  -2.1753012145651085E-04
  -2.2244511589098170E-04  -2.2747277241098583E-04  -2.3261571392004334E-04
  -2.3787662524130338E-04  -2.4325825459147355E-04  -2.4876341508975271E-04
  -2.5439498630259707E-04  -2.6015591582514508E-04  -2.6604922090015708E-04
  -2.7207799007534627E-04  -2.7824538489998584E-04  -2.8455464166170767E-04
  -2.9100907316442889E-04  -2.9761207054834532E-04  -3.0436710515298538E-04
  -3.1127773042429651E-04  -3.1834758386680237E-04  -3.2558038904185370E-04
  -3.3297995761304329E-04  -3.4055019143987140E-04  -3.4829508472075931E-04
  -3.5621872618655923E-04  -3.6432530134570851E-04  -3.7261909478220816E-04
  -3.8110449250764741E-04  -3.8978598436848795E-04  -3.9866816650989292E-04
  -4.0775574389736248E-04  -4.1705353289752089E-04  -4.2656646391936188E-04
  -4.3629958411736290E-04  -4.4625806015784284E-04  -4.5644718105000129E-04
  -4.6687236104311165E-04  -4.7753914259133514E-04  -4.8845319938771003E-04
  -4.9962033946884365E-04  -5.1104650839191312E-04  -5.2273779248559365E-04
  -5.3470042217655027E-04  -5.4694077539321122E-04  -5.5946538104852692E-04
  -5.7228092260347158E-04  -5.8539424171310422E-04  -5.9881234195698757E-04
  -6.1254239265586810E-04  -6.2659173277650334E-04  -6.4096787492658039E-04
  -6.5567850944173818E-04  -6.7073150856666777E-04  -6.8613493073241077E-04
  -7.0189702493192885E-04  -7.1802623519609228E-04  -7.3453120517230879E-04
  -7.5142078280797386E-04  -7.6870402514107275E-04  -7.8639020320022551E-04
  -8.0448880701654779E-04  -8.2300955074975015E-04  -8.4196237793090817E-04
  -8.6135746682444476E-04  -8.8120523591186104E-04  -9.0151634949979737E-04
  -9.2230172345512756E-04  -9.4357253106972232E-04  -9.6534020905768899E-04
  -9.8761646368786325E-04  -1.0104132770543959E-03  -1.0337429134883787E-03
  -1.0576179261134197E-03  -1.0820511635482148E-03  -1.1070557767591820E-03
  -1.1326452260662445E-03  -1.1588332883050046E-03  -1.1856340641484421E-03
  -1.2130619855915377E-03  -1.2411318236020884E-03  -1.2698586959411389E-03
  -1.2992580751565127E-03  -1.3293457967529280E-03  -1.3601380675422972E-03
  -1.3916514741778593E-03  -1.4239029918758079E-03  -1.4569099933282187E-03
  -1.4906902578110477E-03  -1.5252619804911251E-03  -1.5606437819360658E-03
  -1.5968547178310910E-03  -1.6339142889068468E-03  -1.6718424510823401E-03
  -1.7106596258271653E-03  -1.7503867107473159E-03  -1.7910450903988418E-03
  -1.8326566473337868E-03  -1.8752437733828039E-03  -1.9188293811789527E-03
  -1.9634369159272965E-03  -2.0090903674248681E-03  -2.0558142823357013E-03
  -2.1036337767257572E-03  -2.1525745488624034E-03  -2.2026628922835138E-03
  -2.2539257091409577E-03  -2.3063905238235776E-03  -2.3600854968646870E-03
  -2.4150394391391290E-03  -2.4712818263552265E-03  -2.5288428138466575E-03
  -2.5877532516697045E-03  -2.6480447000111419E-03  -2.7097494449121059E-03
  -2.7729005143135393E-03  -2.8375316944285237E-03  -2.9036775464471925E-03
  -2.9713734235797548E-03  -3.0406554884432118E-03  -3.1115607307975754E-03
  -3.1841269856372066E-03  -3.2583929516430362E-03  -3.3343982100015814E-03
  -3.4121832435963792E-03  -3.4917894565779234E-03  -3.5732591943178418E-03
  -3.6566357637532721E-03  -3.7419634541274458E-03  -3.8292875581322412E-03
  -3.9186543934589240E-03  -4.0101113247628366E-03  -4.1037067860481497E-03
  -4.1994903034786321E-03  -4.2975125186203410E-03  -4.3978252121223312E-03
  -4.5004813278412626E-03  -4.6055349974158293E-03  -4.7130415652970126E-03
  -4.8230576142398946E-03  -4.9356409912630394E-03  -5.0508508340811184E-03
  -5.1687475980165447E-03  -5.2893930833959497E-03  -5.4128504634367537E-03
  -5.5391843126298785E-03  -5.6684606356236095E-03  -5.8007468966142298E-03
  -5.9361120492486749E-03  -6.0746265670441196E-03  -6.2163624743299091E-03
  -6.3613933777163633E-03  -6.5097944980954123E-03  -6.6616427031776530E-03
  -6.8170165405700483E-03  -6.9759962713987576E-03  -7.1386639044810152E-03
  -7.3051032310498263E-03  -7.4753998600352901E-03  -7.6496412539056313E-03
  -7.8279167650713716E-03  -8.0103176728552258E-03  -8.1969372210304002E-03
  -8.3878706559296027E-03  -8.5832152651264381E-03  -8.7830704166910502E-03
  -8.9875375990211628E-03  -9.1967204612491225E-03  -9.4107248542258399E-03
  -9.6296588720809588E-03  -9.8536328943595371E-03  -1.0082759628733754E-02
  -1.0317154154288527E-02  -1.0556933965378941E-02  -1.0802219016057083E-02
  -1.1053131765065040E-02  -1.1309797221390692E-02  -1.1572342990381547E-02
  -1.1840899320412112E-02  -1.2115599150098549E-02  -1.2396578156054688E-02
  -1.2683974801182088E-02  -1.2977930383485808E-02  -1.3278589085407674E-02
  -1.3586098023666691E-02  -1.3900607299596569E-02  -1.4222270049968381E-02
  -1.4551242498286035E-02  -1.4887684006541002E-02  -1.5231757127411217E-02
  -1.5583627656888980E-02  -1.5943464687320566E-02  -1.6311440660839227E-02
  -1.6687731423172602E-02  -1.7072516277803228E-02  -1.7465978040460461E-02
  -1.7868303093920224E-02  -1.8279681443087201E-02  -1.8700306770333439E-02
  -1.9130376491064853E-02  -1.9570091809485893E-02  -2.0019657774531290E-02
  -2.0479283335930739E-02  -2.0949181400372701E-02  -2.1429568887728657E-02
  -2.1920666787300584E-02  -2.2422700214049431E-02  -2.2935898464761805E-02
  -2.3460495074109876E-02  -2.3996727870556473E-02  -2.4544839032055538E-02
  -2.5105075141496260E-02  -2.5677687241835046E-02  -2.6262930890859015E-02
  -2.6861066215520233E-02  -2.7472357965778172E-02  -2.8097075567885110E-02
  -2.8735493177045424E-02  -2.9387889729378034E-02  -3.0054548993106424E-02
  -3.0735759618899468E-02  -3.1431815189281488E-02  -3.2143014267026926E-02
  -3.2869660442452570E-02  -3.3612062379514904E-02  -3.4370533860617891E-02
  -3.5145393830032783E-02  -3.5936966435826029E-02  -3.6745581070189791E-02
  -3.7571572408063192E-02  -3.8415280443929826E-02  -3.9277050526672325E-02
  -4.0157233392359791E-02  -4.1056185194840264E-02  -4.1974267534005065E-02
  -4.2911847481587530E-02  -4.3869297604353936E-02  -4.4846995984538708E-02
  -4.5845326237372301E-02  -4.6864677525542846E-02  -4.7905444570429771E-02
  -4.8968027659941099E-02  -5.0052832652779232E-02  -5.1160270978957860E-02
  -5.2290759636382668E-02  -5.3444721183306926E-02  -5.4622583726463073E-02
  -5.5824780904669254E-02  -5.7051751867700173E-02  -5.8303941250207401E-02
  -5.9581799140468024E-02  -6.0885781043732837E-02  -6.2216347839939984E-02
  -6.3573965735552310E-02  -6.4959106209270881E-02  -6.6372245951369688E-02
  -6.7813866796390981E-02  -6.9284455648931251E-02  -7.0784504402244000E-02
  -7.2314509849375930E-02  -7.3874973586547321E-02  -7.5466401908480668E-02
  -7.7089305695372409E-02  -7.8744200291198996E-02  -8.0431605373036827E-02
  -8.2152044811072800E-02  -8.3906046518971600E-02  -8.5694142294261519E-02
  -8.7516867648390492E-02  -8.9374761626099253E-02  -9.1268366613751511E-02
  -9.3198228136251574E-02  -9.5164894642175743E-02  -9.7168917276735878E-02
  -9.9210849642186377E-02  -1.0129124754527931E-01  -1.0341066873136809E-01
  -1.0556967260475010E-01  -1.0776881993483721E-01  -1.1000867254773113E-01
  -1.1228979300278230E-01  -1.1461274425370038E-01  -1.1697808929378053E-01
  -1.1938639078480594E-01  -1.2183821066918138E-01  -1.2433410976485064E-01
  -1.2687464734254275E-01  -1.2946038068489471E-01  -1.3209186462698996E-01
  -1.3476965107785163E-01  -1.3749428852243079E-01  -1.4026632150362237E-01
  -1.4308629008384827E-01  -1.4595472928573860E-01  -1.4887216851145207E-01
  -1.5183913094016888E-01  -1.5485613290329903E-01  -1.5792368323694755E-01
  -1.6104228261118231E-01  -1.6421242283565424E-01  -1.6743458614113177E-01
  -1.7070924443650465E-01  -1.7403685854083512E-01  -1.7741787739003004E-01
  -1.8085273721772568E-01  -1.8434186070998618E-01  -1.8788565613342209E-01
  -1.9148451643636327E-01  -1.9513881832271751E-01  -1.9884892129817663E-01
  -2.0261516668844279E-01  -2.0643787662916838E-01  -2.1031735302732293E-01
  -2.1425387649372385E-01  -2.1824770524649148E-01  -2.2229907398521381E-01
  -2.2640819273563784E-01  -2.3057524566472629E-01  -2.3480038986596077E-01
  -2.3908375411479302E-01  -2.4342543759419560E-01  -2.4782550859028946E-01
  -2.5228400315807264E-01  -2.5680092375731678E-01  -2.6137623785873459E-01
  -2.6600987652058494E-01  -2.7070173293591193E-01  -2.7545166095068824E-01
  -2.8025947355316866E-01  -2.8512494133483007E-01  -2.9004779092333521E-01
  -2.9502770338801160E-01  -3.0006431261841954E-01  -3.0515720367663640E-01
  -3.1030591112397171E-01  -3.1550991732290323E-01  -3.2076865071509209E-01
  -3.2608148407643733E-01  -3.3144773275020972E-01  -3.3686665285938444E-01
  -3.4233743949941770E-01  -3.4785922491277632E-01  -3.5343107664665846E-01
  -3.5905199569543783E-01  -3.6472091462947198E-01  -3.7043669571204013E-01
  -3.7619812900627403E-01  -3.8200393047408437E-01  -3.8785274006918791E-01
  -3.9374311982646787E-01  -3.9967355195004228E-01  -4.0564243690248886E-01
  -4.1164809149785253E-01  -4.1768874700114855E-01  -4.2376254723716766E-01
  -4.2986754671156108E-01  -4.3600170874719862E-01  -4.4216290363894001E-01
  -4.4834890683003314E-01  -4.5455739711335641E-01  -4.6078595486085011E-01
  -4.6703206028443123E-01  -4.7329309173172579E-01  -4.7956632401995886E-01
  -4.8584892681123432E-01  -4.9213796303246643E-01  -4.9843038734309258E-01
  -5.0472304465362094E-01  -5.1101266869802964E-01  -5.1729588066285903E-01
  -5.2356918787586115E-01  -5.2982898255697330E-01  -5.3607154063438922E-01
  -5.4229302062859119E-01  -5.4848946260730647E-01  -5.5465678721458955E-01
  -5.6079079477755067E-01  -5.6688716449469523E-01  -5.7294145371038108E-01
  -5.7894909728056876E-01  -5.8490540703580418E-01  -5.9080557134825507E-01
  -5.9664465481050877E-01  -6.0241759803484762E-01  -6.0811921758264109E-01
  -6.1374420603445934E-01  -6.1928713221233678E-01  -6.2474244156639669E-01
  -6.3010445673864302E-01  -6.3536737831716183E-01  -6.4052528579429124E-01
  -6.4557213874230623E-01  -6.5050177822011657E-01  -6.5530792842408803E-01
  -6.5998419859555457E-01  -6.6452408519688810E-01  -6.6892097436699571E-01
  -6.7316814466605568E-01  -6.7725877011800906E-01  -6.8118592355790597E-01
  -6.8494258028977506E-01  -6.8852162205912615E-01  -6.9191584134277029E-01
  -6.9511794595729948E-01  -6.9812056398635869E-01  -7.0091624902598748E-01
  -7.0349748574660387E-01  -7.0585669576987986E-01  -7.0798624385867215E-01
  -7.0987844441829384E-01  -7.1152556830773528E-01  -7.1291984995982716E-01
  -7.1405349480973346E-01  -7.1491868703150685E-01  -7.1550759758264326E-01
  -7.1581239255664764E-01  -7.1582524184349883E-01  -7.1553832809761342E-01
  -7.1494385601247290E-01  -7.1403406190047913E-01  -7.1280122357593634E-01
  -7.1123767053828002E-01  -7.0933579445187978E-01  -7.0708805991790236E-01
  -7.0448701553288318E-01  -7.0152530522782408E-01  -6.9819567988079467E-01
  -6.9449100919519879E-01  -6.9040429383504520E-01  -6.8592867780774291E-01
  -6.8105746108409815E-01  -6.7578411244437520E-01  -6.7010228253836490E-01
  -6.6400581714656837E-01  -6.5748877062863542E-01  -6.5054541954424228E-01
  -6.4317027643063440E-01  -6.3535810371998458E-01  -6.2710392777866963E-01
  -6.1840305304949783E-01  -6.0925107627672581E-01  -5.9964390079262364E-01
  -5.8957775084310204E-01  -5.7904918592870869E-01  -5.6805511513615226E-01
  -5.5659281143413930E-01  -5.4465992590620094E-01  -5.3225450189184387E-01
  -5.1937498900609513E-01  -5.0602025700638653E-01  -4.9218960947431739E-01
  -4.7788279727879723E-01  -4.6310003178582060E-01  -4.4784199777893058E-01
  -4.3210986605354990E-01  -4.1590530564709466E-01  -3.9923049566604102E-01
  -3.8208813667019303E-01  -3.6448146157357980E-01  -3.4641424602091320E-01
  -3.2789081819786703E-01  -3.0891606803309962E-01  -2.8949545574974633E-01
  -2.6963501972382120E-01  -2.4934138360718086E-01  -2.2862176267271617E-01
  -2.0748396933976451E-01  -1.8593641783820777E-01  -1.6398812797007248E-01
  -1.4164872792816346E-01  -1.1892845613177440E-01  -9.5838162040194672E-02
  -7.2389305905331491E-02  -4.8593957425306318E-02  -2.4464793261438862E-02
  -1.5093381487985393E-05   2.4741263807456886E-02   4.9789807572591320E-02
   7.5115482250620660E-02   1.0070265595867899E-01   1.2653513065274583E-01
   1.5259615356208037E-01   1.7886843002332314E-01   2.0533413773022044E-01
   2.3197494240472749E-01   2.5877201488095247E-01   2.8570604957476303E-01
   3.1275728428892086E-01   3.3990552127548473E-01   3.6713014944539446E-01
   3.9441016758079805E-01   4.2172420837063451E-01   4.4905056305884777E-01
   4.7636720647036523E-01   5.0365182216890336E-01   5.3088182750763568E-01
   5.5803439836356050E-01   5.8508649340402363E-01   6.1201487782024289E-01
   6.3879614657828665E-01   6.6540674737836270E-01   6.9182300366985083E-01
   7.1802113822894487E-01   7.4397729794777789E-01   7.6966758058312801E-01
   7.9506806424052590E-01   8.2015484029897390E-01   8.4490405029701476E-01
   8.6929192700699454E-01   8.9329483955275923E-01   9.1688934203386907E-01
   9.4005222477805206E-01   9.6276056711916280E-01   9.8499179053019748E-01
   1.0067237110327176E+00   1.0279345900203425E+00   1.0486031829178277E+00
   1.0687087853868722E+00   1.0882312770363096E+00   1.1071511627705035E+00
   1.1254496120087867E+00   1.1431084960404030E+00   1.1601104237609203E+00
   1.1764387759857247E+00   1.1920777384709333E+00   1.2070123337030250E+00
   1.2212284514539162E+00   1.2347128780427119E+00   1.2474533242004922E+00
   1.2594384514019197E+00   1.2706578965062054E+00   1.2811022945395916E+00
   1.2907632994510985E+00   1.2996336026807016E+00   1.3077069493934339E+00
   1.3149781522519799E+00   1.3214431026224915E+00   1.3270987791324880E+00
   1.3319432535239297E+00   1.3359756937683920E+00   1.3391963644336622E+00
   1.3416066243116065E+00   1.3432089213356553E+00   1.3440067848325510E+00
   1.3440048151671284E+00   1.3432086708511444E+00   1.3416250531974634E+00
   1.3392616886097133E+00   1.3361273086048062E+00   1.3322316276718222E+00
   1.3275853190757330E+00   1.3221999887184486E+00   1.3160881471728372E+00
   1.3092631800077479E+00   1.3017393165237208E+00   1.2935315970200851E+00
   1.2846558387145359E+00   1.2751286004360587E+00   1.2649671462113772E+00
   1.2541894078638034E+00   1.2428139467416481E+00   1.2308599146911852E+00
   1.2183470143865454E+00   1.2052954591260079E+00   1.1917259322008631E+00
   1.1776595459394774E+00   1.1631178005254925E+00   1.1481225426850603E+00
   1.1326959243341317E+00   1.1168603612725896E+00   1.1006384920079850E+00
   1.0840531367876780E+00   1.0671272569140602E+00   1.0498839144140268E+00
   1.0323462321301071E+00   1.0145373542974090E+00   9.9648040766756008E-01
   9.7819846324238546E-01   9.5971449865328362E-01   9.4105136127924172E-01
   9.2223173211884613E-01   9.0327809048517904E-01   8.8421267957093597E-01
   8.6505747293364832E-01   8.4583414195058038E-01   8.2656402429276521E-01
   8.0726809346793449E-01   7.8796692948196867E-01   7.6868069066876732E-01
   7.4942908673832953E-01   7.3023135309233822E-01   7.1110622645603261E-01
   6.9207192187358946E-01   6.7314611111244382E-01   6.5434590251922764E-01
   6.3568782236631638E-01   6.1718779772362042E-01   5.9886114088464959E-01
   5.8072253536949647E-01   5.6278602352003915E-01   5.4506499569445488E-01
   5.2757218105937065E-01   5.1031963996863383E-01   4.9331875790826335E-01
   4.7658024097783747E-01   4.6011411286975756E-01   4.4392971330008124E-01
   4.2803569783818046E-01   4.1244003907810389E-01   3.9715002909237401E-01
   3.8217228310968554E-01   3.6751274436175407E-01   3.5317669005143149E-01
   3.3916873840431938E-01   3.2549285677859430E-01   3.1215237082228819E-01
   2.9914997468245658E-01   2.8648774228494528E-01   2.7416713971563272E-01
   2.6218903874159016E-01   2.5055373151257143E-01   2.3926094647804347E-01
   2.2830986554182803E-01   2.1769914245594710E-01   2.0742692242798655E-01
   1.9749086288453790E-01   1.8788815529972241E-01   1.7861554796508178E-01
   1.6966936954894546E-01   1.6104555327181580E-01   1.5273966151149843E-01
   1.4474691064863482E-01   1.3706219596929453E-01   1.2968011645568467E-01
   1.2259499931649212E-01   1.1580092413263764E-01   1.0929174652005445E-01
   1.0306112123595255E-01   9.7102524677560059E-02   9.1409276741165224E-02
   8.5974562023883011E-02   8.0791450361046749E-02   7.5852916698605805E-02
   7.1151860303199144E-02   6.6681123313324125E-02   6.2433508633937762E-02
   5.8401797174749394E-02   5.4578764429798837E-02   5.0957196393256625E-02
   4.7529904803983940E-02   4.4289741709467000E-02   4.1229613338451557E-02
   3.8342493270919965E-02   3.5621434894035284E-02   3.3059583133215588E-02
   3.0650185448579524E-02   2.8386602088513454E-02   2.6262315593991677E-02
   2.4270939549449838E-02   2.2406226578397918E-02   2.0662075584508791E-02
   1.9032538241568635E-02   1.7511824738368237E-02   1.6094308787334526E-02
   1.4774531908370074E-02   1.3547207001992851E-02   1.2407221228399028E-02
   1.1349638211473601E-02   1.0369699589061344E-02   9.4628259329221521E-03
   8.6246170637426772E-03   7.8508517883517769E-03   7.1374870878388192E-03
   6.4806567866618351E-03   5.8766697339722972E-03   5.3220075293382392E-03
   4.8133218257797568E-03   4.3474312435431437E-03   3.9213179283530148E-03
   3.5321237879799724E-03   3.1771464408599358E-03   2.8538349102122319E-03
   2.5597850966227092E-03   2.2927350614099567E-03   2.0505601522807382E-03
   1.8312680018163505E-03   1.6329934282369462E-03   1.4539932666679317E-03
   1.2926411578059172E-03   1.1474223194610611E-03   1.0169283249524914E-03
   8.9985191077304749E-04   7.9498183432754330E-04   7.0119780090506360E-04
   6.1746547738095376E-04   5.4283160847204653E-04   4.7641924970351346E-04
   4.1742312959746058E-04   3.6510515197426819E-04   3.1879004767749829E-04
   2.7786118350121614E-04   2.4175653462297402E-04   2.0996482543412037E-04
   1.8202184231725128E-04   1.5750692065430607E-04   1.3603960716275566E-04
   1.1727649755387762E-04   1.0090824848990581E-04   8.6656761887268666E-05
   7.4272538771566054E-05   6.3532199137209436E-05   5.4236163599351684E-05
   4.6206492046812675E-05   3.9284874010123598E-05   3.3330765045526924E-05
   2.8219663100763133E-05   2.3841518568474685E-05   2.0099271542744384E-05
   1.6907509670481003E-05   1.4191239926398895E-05   1.1884767633616614E-05
   9.9306760961913305E-06   8.2789002999523471E-06   6.8858882686841365E-06
   5.7138438287723166E-06   4.7300447319039444E-06   3.9062303071389480E-06
   3.2180530565411326E-06   2.6445888672921243E-06   2.1679007843333277E-06
   1.7726515668467651E-06   1.4457605358440716E-06   1.1761005055296106E-06
   9.5423087507108977E-07   7.7216323738402848E-07   6.2315613530654444E-07
   5.0153586126381725E-07   4.0254045248242656E-07   3.2218427903665879E-07
   2.5714085513584054E-07   2.0464172465941731E-07   1.6238947938143768E-07
   1.2848316236205286E-07   1.0135448953568074E-07   7.9713489679330199E-08
   6.2502316932257426E-08   4.8856131213594693E-08   3.8070070711844026E-08
   2.9571457610485743E-08   2.2896484020841710E-08   1.7670720299900929E-08
   1.3592873259056089E-08   1.0421297894407245E-08   7.9628338891619801E-09
   6.0635979452876031E-09   4.6014156704390559E-09   3.4796229306822545E-09
   2.6220069052296567E-09   1.9686921413307187E-09   1.4600975927270074E-09
   7.8819072483292386E-10   2.5488508572979398E-11  -0.0000000000000000E+00
  -0.0000000000000000E+00  -0.0000000000000000E+00  -0.0000000000000000E+00
  -0.0000000000000000E+00  -0.0000000000000000E+00  -0.0000000000000000E+00
  -0.0000000000000000E+00  -0.0000000000000000E+00  -0.0000000000000000E+00
  -0.0000000000000000E+00  -0.0000000000000000E+00  -0.0000000000000000E+00
  -0.0000000000000000E+00  -0.0000000000000000E+00  -0.0000000000000000E+00
  -0.0000000000000000E+00  -0.0000000000000000E+00  -0.0000000000000000E+00
  -0.0000000000000000E+00  -0.0000000000000000E+00  -0.0000000000000000E+00
  -0.0000000000000000E+00  -0.0000000000000000E+00  -0.0000000000000000E+00
  -0.0000000000000000E+00  -0.0000000000000000E+00  -0.0000000000000000E+00
  -0.0000000000000000E+00  -0.0000000000000000E+00  -0.0000000000000000E+00
  -0.0000000000000000E+00  -0.0000000000000000E+00  -0.0000000000000000E+00
  -0.0000000000000000E+00  -0.0000000000000000E+00  -0.0000000000000000E+00
  -0.0000000000000000E+00  -0.0000000000000000E+00  -0.0000000000000000E+00
  -0.0000000000000000E+00  -0.0000000000000000E+00  -0.0000000000000000E+00
  -0.0000000000000000E+00  -0.0000000000000000E+00  -0.0000000000000000E+00
  -0.0000000000000000E+00  -0.0000000000000000E+00  -0.0000000000000000E+00
  -0.0000000000000000E+00  -0.0000000000000000E+00
     </PP_GIPAW_CORE_ORBITAL.5>
   </PP_GIPAW_CORE_ORBITALS>
   <PP_GIPAW_ORBITALS number_of_valence_orbitals="3">
     <PP_GIPAW_ORBITAL.1 index="1" label="3D" l="2" cutoff_radius="  2.32487517088308" ultrasoft_cutoff_radius="  2.32487517088308">
       <PP_GIPAW_WFS_AE size="1106">
   0.0000000000000000E+00   8.8411440635241929E-12   9.1320024274772735E-12
   9.4327924013798790E-12   9.7438584230869949E-12   1.0065544057747217E-11
   1.0398200648910278E-11   1.0742191454997536E-11   1.1097892136952309E-11
   1.1465691171145130E-11   1.1845990275992705E-11   1.2239204853141851E-11
   1.2645764443743310E-11   1.3066113200322452E-11   1.3500710374770868E-11
   1.3950030823000703E-11   1.4414565526821778E-11   1.4894822133621911E-11
   1.5391325514449327E-11   1.5904618341118090E-11   1.6435261682977746E-11
   1.6983835624010862E-11   1.7550939900945406E-11   1.8137194563091005E-11
   1.8743240654634531E-11   1.9369740920153903E-11   2.0017380534136208E-11
   2.0686867855312553E-11   2.1378935206650397E-11   2.2094339681872772E-11
   2.2833863979403488E-11   2.3598317264668611E-11   2.4388536061716405E-11
   2.5205385175150316E-11   2.6049758643404909E-11   2.6922580724428843E-11
   2.7824806914876003E-11   2.8757425003944281E-11   2.9721456163039149E-11
   3.0717956072481250E-11   3.1748016086518095E-11   3.2812764437943318E-11
   3.3913367483672047E-11   3.5051030992667204E-11   3.6227001477659336E-11
   3.7442567572151896E-11   3.8699061454255998E-11   3.9997860318950953E-11
   4.1340387900422170E-11   4.2728116046184352E-11   4.4162566344757771E-11
   4.5645311808724604E-11   4.7177978615056576E-11   4.8762247904669593E-11
   5.0399857643228281E-11   5.2092604545293605E-11   5.3842346063977815E-11
   5.5651002448346645E-11   5.7520558870885170E-11   5.9453067627423337E-11
   6.1450650412000923E-11   6.3515500669235506E-11   6.5649886026846482E-11
   6.7856150811080420E-11   7.0136718647874980E-11   7.2494095152700583E-11
   7.4930870712116033E-11   7.7449723360182799E-11   8.0053421752989673E-11
   8.2744828244650736E-11   8.5526902068258268E-11   8.8402702625390557E-11
   9.1375392887899768E-11   9.4448242915833902E-11   9.7624633495479106E-11
   1.0090805990164879E-10   1.0430213578848584E-10   1.0781059721319421E-10
   1.1143730679726816E-10   1.1518625802994512E-10   1.1906157971877253E-10
   1.2306754059234889E-10   1.2720855406047233E-10   1.3148918313711525E-10
   1.3591414553182733E-10   1.4048831891536569E-10   1.4521674636555351E-10
   1.5010464199957342E-10   1.5515739679911735E-10   1.6038058463504428E-10
   1.6577996849841820E-10   1.7136150694504340E-10   1.7713136076086350E-10
   1.8309589985583861E-10   1.8926171039418937E-10   1.9563560216916352E-10
   2.0222461623076900E-10   2.0903603277520758E-10   2.1607737930505274E-10
   2.2335643906952330E-10   2.3088125979453564E-10   2.3866016271255402E-10
   2.4670175190260260E-10   2.5501492395117433E-10   2.6360887794513339E-10
   2.7249312580810931E-10   2.8167750299226619E-10   2.9117217953776422E-10
   3.0098767151264246E-10   3.1113485284630965E-10   3.2162496757028592E-10
   3.3246964248031414E-10   3.4368090023445837E-10   3.5527117290231320E-10
   3.6725331598098102E-10   3.7964062289401919E-10   3.9244683999013604E-10
   4.0568618205898703E-10   4.1937334838204770E-10   4.3352353933716065E-10
   4.4815247357600605E-10   4.6327640579444012E-10   4.7891214511630293E-10
   4.9507707411208697E-10   5.1178916847453737E-10   5.2906701737410189E-10
   5.4692984451788701E-10   5.6539752993668211E-10   5.8449063252539826E-10
   6.0423041336326049E-10   6.2463885984089679E-10   6.4573871062258186E-10
   6.6755348147270733E-10   6.9010749197677720E-10   7.1342589318809861E-10
   7.3753469623263246E-10   7.6246080190543620E-10   7.8823203129347920E-10
   8.1487715746070787E-10   8.4242593823261898E-10   8.7090915011881662E-10
   9.0035862341351510E-10   9.3080727851522538E-10   9.6228916350847827E-10
   9.9483949305182564E-10   1.0284946886180540E-09   1.0632924201340477E-09
   1.0992716490695754E-09   1.1364726730259187E-09   1.1749371718770772E-09
   1.2147082555182874E-09   1.2558305132783465E-09   1.2983500650544516E-09
   1.3423146142302059E-09   1.3877735024397086E-09   1.4347777662428107E-09
   1.4833801957790518E-09   1.5336353954700695E-09   1.5855998468429274E-09
   1.6393319735492766E-09   1.6948922086579618E-09   1.7523430643015577E-09
   1.8117492037601230E-09   1.8731775160683912E-09   1.9366971932359457E-09
   2.0023798101727559E-09   2.0702994074162234E-09   2.1405325767588894E-09
   2.2131585498799064E-09   2.2882592900867721E-09   2.3659195872778723E-09
   2.4462271562402349E-09   2.5292727384010637E-09   2.6151502071557737E-09
   2.7039566769000124E-09   2.7957926158970886E-09   2.8907619631178548E-09
   2.9889722491940868E-09   3.0905347216322155E-09   3.1955644744392231E-09
   3.3041805823180266E-09   3.4165062395953582E-09   3.5326689040511634E-09
   3.6528004458242853E-09   3.7770373015761380E-09   3.9055206340997951E-09
   4.0383964975696228E-09   4.1758160086327552E-09   4.3179355235516596E-09
   4.4649168216143358E-09   4.6169272950363638E-09   4.7741401455875914E-09
   4.9367345881841125E-09   5.1048960616954165E-09   5.2788164472253871E-09
   5.4586942941350252E-09   5.6447350540850664E-09   5.8371513233861080E-09
   6.0361630939545432E-09   6.2419980131838229E-09   6.4548916530509464E-09
   6.6750877887905191E-09   6.9028386874805301E-09   7.1384054068959361E-09
   7.3820581050005292E-09   7.6340763604589373E-09   7.8947495045668213E-09
   8.1643769650098223E-09   8.4432686218779821E-09   8.7317451763777085E-09
   9.0301385326989095E-09   9.3387921935120784E-09   9.6580616695877380E-09
   9.9883149040474784E-09   1.0329932711775952E-08   1.0683309234541045E-08
   1.1048852412390305E-08   1.1426984471912373E-08   1.1818142431973256E-08
   1.2222778627560090E-08   1.2641361252387641E-08   1.3074374920947261E-08
   1.3522321250702759E-08   1.3985719465162586E-08   1.4465107018586543E-08
   1.4961040243110023E-08   1.5474095019100190E-08   1.6004867469586788E-08
   1.6553974679641508E-08   1.7122055441612327E-08   1.7709771027151218E-08
   1.8317805987010207E-08   1.8946868979613927E-08   1.9597693629455848E-08
   2.0271039416403133E-08   2.0967692597034168E-08   2.1688467159175472E-08
   2.2434205810846274E-08   2.3205781004864427E-08   2.4004096000412550E-08
   2.4830085962911963E-08   2.5684719103599995E-08   2.6568997860259857E-08
   2.7483960120603506E-08   2.8430680489863554E-08   2.9410271604208758E-08
   3.0423885491655544E-08   3.1472714982210090E-08   3.2557995169039938E-08
   3.3681004922539188E-08   3.4843068459221141E-08   3.6045556967442580E-08
   3.7289890292038064E-08   3.8577538680019955E-08   3.9910024589576858E-08
   4.1288924564689479E-08   4.2715871177763753E-08   4.4192555042773097E-08
   4.5720726901492959E-08   4.7302199785503008E-08   4.8938851256735826E-08
   5.0632625729450028E-08   5.2385536876611742E-08   5.4199670123782049E-08
   5.6077185233717310E-08   5.8020318985011009E-08   6.0031387948228838E-08
   6.2112791363112282E-08   6.4267014120563666E-08   6.6496629853257045E-08
   6.8804304138864755E-08   7.1192797820037120E-08   7.3664970445420456E-08
   7.6223783836165291E-08   7.8872305782532250E-08   8.1613713875378610E-08
   8.4451299477485144E-08   8.7388471839861426E-08   9.0428762368364046E-08
   9.3575829046153798E-08   9.6833461017723075E-08   1.0020558334044251E-07
   1.0369626190978100E-07   1.0730970856460152E-07   1.1105028637915002E-07
   1.1492251514861502E-07   1.1893107707538228E-07   1.2308082266337112E-07
   1.2737677682811873E-07   1.3182414523055271E-07   1.3642832084269209E-07
   1.4119489075382140E-07   1.4612964322598945E-07   1.5123857500802526E-07
   1.5652789891759094E-07   1.6200405170114783E-07   1.6767370218207873E-07
   1.7354375970758097E-07   1.7962138290534738E-07   1.8591398876144550E-07
   1.9242926203123718E-07   1.9917516499561885E-07   2.0615994757529970E-07
   2.1339215781632985E-07   2.2088065276055698E-07   2.2863460971519959E-07
   2.3666353793626310E-07   2.4497729074104237E-07   2.5358607806553806E-07
   2.6250047948319679E-07   2.7173145770196442E-07   2.8129037255731774E-07
   2.9118899551952772E-07   3.0143952473414601E-07   3.1205460061535271E-07
   3.2304732201255784E-07   3.3443126297139754E-07   3.4622049011102354E-07
   3.5842958064042448E-07   3.7107364103733194E-07   3.8416832641412653E-07
   3.9772986059609406E-07   4.1177505693825560E-07   4.2632133990803971E-07
   4.4138676746197509E-07   4.5699005424571897E-07   4.7315059564771012E-07
   4.8988849273795335E-07   5.0722457812452273E-07   5.2518044276159608E-07
   5.4377846374410129E-07   5.6304183312527900E-07   5.8299458779489121E-07
   6.0366164045709446E-07   6.2506881174850512E-07   6.4724286353844664E-07
   6.7021153345485857E-07   6.9400357068105840E-07   7.1864877307009472E-07
   7.4417802562516772E-07   7.7062334039646112E-07   7.9801789784640714E-07
   8.2639608973748749E-07   8.5579356359853569E-07   8.8624726882758923E-07
   9.1779550449151556E-07   9.5047796888471825E-07   9.8433581091166170E-07
   1.0194116833602171E-06   1.0557497981352675E-06   1.0933959835246909E-06
   1.1323977435722240E-06   1.1728043196347391E-06   1.2146667542040181E-06
   1.2580379570762050E-06   1.3029727739551045E-06   1.3495280575785502E-06
   1.3977627414605151E-06   1.4477379163448174E-06   1.4995169094698143E-06
   1.5531653667472495E-06   1.6087513379618745E-06   1.6663453651026728E-06
   1.7260205739403036E-06   1.7878527689696184E-06   1.8519205318405293E-06
   1.9183053234047401E-06   1.9870915895107565E-06   2.0583668706842298E-06
   2.1322219158356146E-06   2.2087508001425003E-06   2.2880510472589267E-06
   2.3702237560100022E-06   2.4553737317353770E-06   2.5436096224513945E-06
   2.6350440600077185E-06   2.7297938064205826E-06   2.8279799055714513E-06
   2.9297278404666934E-06   3.0351676962607581E-06   3.1444343292529692E-06
   3.2576675420751648E-06   3.3750122652957413E-06   3.4966187456733410E-06
   3.6226427413020098E-06   3.7532457238983740E-06   3.8885950884902443E-06
   4.0288643707754246E-06   4.1742334724292272E-06   4.3248888946489708E-06
   4.4810239802343055E-06   4.6428391645126515E-06   4.8105422354302198E-06
   4.9843486031406990E-06   5.1644815794351238E-06   5.3511726673690503E-06
   5.5446618614559283E-06   5.7451979588079984E-06   5.9530388816208018E-06
   6.1684520114102367E-06   6.3917145354264913E-06   6.6231138056838861E-06
   6.8629477110610346E-06   7.1115250629426139E-06   7.3691659948894682E-06
   7.6362023768423802E-06   7.9129782443816381E-06   8.1998502435832322E-06
   8.4971880920322687E-06   8.8053750565726313E-06   9.1248084483936615E-06
   9.4559001360749387E-06   9.7990770772319097E-06   1.0154781869428806E-05
   1.0523473321047243E-05   1.0905627042823717E-05   1.1301736060794745E-05
   1.1712311451412348E-05   1.2137882999621782E-05   1.2578999880718787E-05
   1.3036231366833131E-05   1.3510167558915171E-05   1.4001420145130718E-05
   1.4510623186603729E-05   1.5038433931476015E-05   1.5585533658289099E-05
   1.6152628549726600E-05   1.6740450597791639E-05   1.7349758541531785E-05
   1.7981338838461144E-05   1.8636006670869246E-05   1.9314606988247688E-05
   2.0018015587106533E-05   2.0747140229497861E-05   2.1502921801606948E-05
   2.2286335513819303E-05   2.3098392143720184E-05   2.3940139323530012E-05
   2.4812662873535439E-05   2.5717088183122732E-05   2.6654581641079426E-05
   2.7626352116884349E-05   2.8633652494763314E-05   2.9677781262351224E-05
   3.0760084155859104E-05   3.1881955863711569E-05   3.3044841790685061E-05
   3.4250239884643588E-05   3.5499702528043003E-05   3.6794838496442683E-05
   3.8137314986340217E-05   3.9528859714723475E-05   4.0971263092808787E-05
   4.2466380476522192E-05   4.4016134496359918E-05   4.5622517469353755E-05
   4.7287593895956918E-05   4.9013503044756153E-05   5.0802461628014534E-05
   5.2656766571145034E-05   5.4578797879316068E-05   5.6571021604498021E-05
   5.8635992916359440E-05   6.0776359280543327E-05   6.2994863747956839E-05
   6.5294348358832532E-05   6.7677757665436883E-05   7.0148142377426153E-05
   7.2708663133978728E-05   7.5362594406966032E-05   7.8113328539554491E-05
   8.0964379924778872E-05   8.3919389328761579E-05   8.6982128363408107E-05
   9.0156504113557358E-05   9.3446563923719000E-05   9.6856500349698111E-05
   1.0039065628056237E-04   1.0405353023658866E-04   1.0784978184898905E-04
   1.1178423752740301E-04   1.1586189632132636E-04   1.2008793598182703E-04
   1.2446771923011133E-04   1.2900680023968339E-04   1.3371093133905762E-04
   1.3858606994219372E-04   1.4363838571403064E-04   1.4887426797873107E-04
   1.5430033337846615E-04   1.5992343379079912E-04   1.6575066451298375E-04
   1.7178937272171354E-04   1.7804716621713066E-04   1.8453192246015138E-04
   1.9125179791242125E-04   1.9821523768850718E-04   2.0543098553017414E-04
   2.1290809411291848E-04   2.2065593569518528E-04   2.2868421312101378E-04
   2.3700297118715199E-04   2.4562260838599227E-04   2.5455388903599345E-04
   2.6380795581159607E-04   2.7339634268493725E-04   2.8333098829204937E-04
   2.9362424973653628E-04   3.0428891684409679E-04   3.1533822688162370E-04
   3.2678587975495672E-04   3.3864605369976963E-04   3.5093342148042239E-04
   3.6366316711203002E-04   3.7685100312137592E-04   3.9051318836269810E-04
   4.0466654640481368E-04   4.1932848450642950E-04   4.3451701319694011E-04
   4.5025076648043378E-04   4.6654902268106424E-04   4.8343172594839746E-04
   5.0091950844179253E-04   5.1903371321332468E-04   5.3779641780924879E-04
   5.5723045861043948E-04   5.7735945593274094E-04   5.9820783990863929E-04
   6.1980087717214351E-04   6.4216469836928555E-04   6.6532632651709639E-04
   6.8931370623447844E-04   7.1415573386882601E-04   7.3988228854282654E-04
   7.6652426414634649E-04   7.9411360229880679E-04   8.2268332630801885E-04
   8.5226757615190708E-04   8.8290164451012404E-04   9.1462201387302417E-04
   9.4746639475602962E-04   9.8147376504790270E-04   1.0166844105219555E-03
   1.0531399665397794E-03   1.0908834609775233E-03   1.1299593584053053E-03
   1.1704136055507932E-03   1.2122936780785197E-03   1.2556486287169475E-03
   1.3005291367657983E-03   1.3469875590166054E-03   1.3950779821198943E-03
   1.4448562764328399E-03   1.4963801513816785E-03   1.5497092123735595E-03
   1.6049050192928598E-03   1.6620311466174623E-03   1.7211532451906744E-03
   1.7823391056849889E-03   1.8456587237940067E-03   1.9111843671892257E-03
   1.9789906442785840E-03   2.0491545748038444E-03   2.1217556623141717E-03
   2.1968759685532450E-03   2.2746001897974550E-03   2.3550157351827708E-03
   2.4382128070577990E-03   2.5242844834006207E-03   2.6133268023368372E-03
   2.7054388487960921E-03   2.8007228433442476E-03   2.8992842332279025E-03
   3.0012317856678863E-03   3.1066776834377699E-03   3.2157376227630332E-03
   3.3285309135759494E-03   3.4451805821606347E-03   3.5658134762220797E-03
   3.6905603724119566E-03   3.8195560863433921E-03   3.9529395851256319E-03
   4.0908541024485623E-03   4.2334472562458965E-03   4.3808711689643093E-03
   4.5332825904646507E-03   4.6908430235794475E-03   4.8537188523495754E-03
   5.0220814729608600E-03   5.1961074273995959E-03   5.3759785398436967E-03
   5.5618820558040460E-03   5.7540107840279306E-03   5.9525632411744174E-03
   6.1577437992678232E-03   6.3697628359335075E-03   6.5888368874162792E-03
   6.8151888043786538E-03   7.0490479104729420E-03   7.2906501636767077E-03
   7.5402383203780473E-03   7.7980621021921086E-03   8.0643783654864177E-03
   8.3394512735877665E-03   8.6235524716384224E-03   8.9169612640643790E-03
   9.2199647946128449E-03   9.5328582289105710E-03   9.8559449394886606E-03
   1.0189536693213213E-02   1.0533953841054594E-02   1.0889525510121446E-02
   1.1256589797877914E-02   1.1635493968456196E-02   1.2026594650967240E-02
   1.2430258039705674E-02   1.2846860096136095E-02   1.3276786752538391E-02
   1.3720434117182342E-02   1.4178208680890243E-02   1.4650527524838525E-02
   1.5137818529437427E-02   1.5640520584118217E-02   1.6159083797846967E-02
   1.6693969710171279E-02   1.7245651502596417E-02   1.7814614210074117E-02
   1.8401354932375692E-02   1.9006383045108863E-02   1.9630220410123352E-02
   2.0273401585039048E-02   2.0936474031615530E-02   2.1619998322667693E-02
   2.2324548347220276E-02   2.3050711513576537E-02   2.3799088949964225E-02
   2.4570295702406361E-02   2.5364960929447754E-02   2.6183728093356121E-02
   2.7027255147396942E-02   2.7896214718769515E-02   2.8791294286772691E-02
   2.9713196355752824E-02   3.0662638622373929E-02   3.1640354136724759E-02
   3.2647091456769022E-02   3.3683614795623852E-02   3.4750704161126821E-02
   3.5849155487146393E-02   3.6979780756053612E-02   3.8143408111762346E-02
   3.9340881962721043E-02   4.0573063074202845E-02   4.1840828649229285E-02
   4.3145072397415753E-02   4.4486704591001715E-02   4.5866652107292953E-02
   4.7285858456687917E-02   4.8745283795431367E-02   5.0245904922172631E-02
   5.1788715257355816E-02   5.3374724804414776E-02   5.5004960091667464E-02
   5.6680464093752263E-02   5.8402296131371899E-02   6.0171531748040900E-02
   6.1989262562474112E-02   6.3856596095181545E-02   6.5774655567790219E-02
   6.7744579673561678E-02   6.9767522317551706E-02   7.1844652324841385E-02
   7.3977153115274627E-02   7.6166222343167694E-02   7.8413071500506193E-02
   8.0718925482211490E-02   8.3085022112164689E-02   8.5512611628773549E-02
   8.8002956129016915E-02   9.0557328970020695E-02   9.3177014127390531E-02
   9.5863305509665445E-02   9.8617506228405385E-02   1.0144092782358932E-01
   1.0433488944409773E-01   1.0730071698320615E-01   1.1033974216909131E-01
   1.1345330161042304E-01   1.1664273579718538E-01   1.1990938805684588E-01
   1.2325460346600625E-01   1.2667972771759814E-01   1.3018610594357216E-01
   1.3377508149294370E-01   1.3744799466484595E-01   1.4120618139609592E-01
   1.4505097190259256E-01   1.4898368927364833E-01   1.5300564801825378E-01
   1.5711815256211062E-01   1.6132249569422136E-01   1.6561995696183582E-01
   1.7001180101255364E-01   1.7449927588255443E-01   1.7908361123003583E-01
   1.8376601651314634E-01   1.8854767911193449E-01   1.9342976239400986E-01
   1.9841340372388222E-01   2.0349971241610745E-01   2.0868976763257366E-01
   2.1398461622443424E-01   2.1938527051931292E-01   2.2489270605456618E-01
   2.3050785925749726E-01   2.3623162507351603E-01   2.4206485454338891E-01
   2.4800835233081248E-01   2.5406287420169943E-01   2.6022912445670127E-01
   2.6650775331865878E-01   2.7289935427685635E-01   2.7940446139013642E-01
   2.8602354655117240E-01   2.9275701671438592E-01   2.9960521109028149E-01
   3.0656839830919408E-01   3.1364677355771853E-01   3.2084045569139785E-01
   3.2814948432746782E-01   3.3557381692182003E-01   3.4311332583459847E-01
   3.5076779538915659E-01   3.5853691892943806E-01   3.6642029588110120E-01
   3.7441742882207618E-01   3.8252772056853551E-01   3.9075047128253149E-01
   3.9908487560794692E-01   4.0753001984160969E-01   4.1608487914677927E-01
   4.2474831481650632E-01   4.3351907159455283E-01   4.4239577506194261E-01
   4.5137692909733446E-01   4.6046091341968209E-01   4.6964598122187962E-01
   4.7893025690413837E-01   4.8831173391613730E-01   4.9778827271698761E-01
   5.0735759886218434E-01   5.1701730122682377E-01   5.2676483037430821E-01
   5.3659749707989268E-01   5.4651247101837819E-01   5.5650677962525730E-01
   5.6657730714071286E-01   5.7672079384582597E-01   5.8693383550048817E-01
   5.9721288299265285E-01   6.0755424220872312E-01   6.1795407413524495E-01
   6.2840839520242742E-01   6.3891307788055396E-01   6.4946385154096797E-01
   6.6005630359403100E-01   6.7068588091724002E-01   6.8134789158742814E-01
   6.9203750693162702E-01   7.0274976391153376E-01   7.1347956785647693E-01
   7.2422169555886251E-01   7.3497079874429094E-01   7.4572140792510844E-01
   7.5646793664087641E-01   7.6720468608161319E-01   7.7792585007901416E-01
   7.8862552043705703E-01   7.9929769255596284E-01   8.0993627128254897E-01
   8.2053507689613492E-01   8.3108785111308947E-01   8.4158826296677969E-01
   8.5202991439557307E-01   8.6240634535270255E-01   8.7271103824236784E-01
   8.8293742149069754E-01   8.9307887208207448E-01   9.0312871693483021E-01
   9.1308023305732933E-01   9.2292664651697143E-01   9.3266113036834986E-01
   9.4227680181839835E-01   9.5176671904782884E-01   9.6112387824783330E-01
   9.7034121155317554E-01   9.7941158663711436E-01   9.8832780875649007E-01
   9.9708262597350406E-01   1.0056687381167784E+00   1.0140788097759905E+00
   1.0223054872717596E+00   1.0303414191516214E+00   1.0381792793995535E+00
   1.0458117922808265E+00   1.0532317576298016E+00   1.0604320754452909E+00
   1.0674057688656247E+00   1.0741460049001583E+00   1.0806461126278999E+00
   1.0868995988754595E+00   1.0929001616142007E+00   1.0986417014542509E+00
   1.1041183316661090E+00   1.1093243871474037E+00   1.1142544326960133E+00
   1.1189032708721351E+00   1.1232659496476098E+00   1.1273377699610707E+00
   1.1311142932285339E+00   1.1345913488031849E+00   1.1377650413357256E+00
   1.1406317579571574E+00   1.1431881751877635E+00   1.1454312654678325E+00
   1.1473583032056780E+00   1.1489668702448392E+00   1.1502548606635170E+00
   1.1512204848335308E+00   1.1518622726820011E+00   1.1521790761153909E+00
   1.1521700705814519E+00   1.1518347557593733E+00   1.1511729553815404E+00
   1.1501848162016091E+00   1.1488708061329382E+00   1.1472317115889850E+00
   1.1452686340631169E+00   1.1429829859897120E+00   1.1403764859315311E+00
   1.1374511531405147E+00   1.1342093015403687E+00   1.1306535331799725E+00
   1.1267867312066524E+00   1.1226120524080694E+00   1.1181329193707359E+00
   1.1133530123022419E+00   1.1082762605630621E+00   1.1029068339524071E+00
   1.0972491337910295E+00   1.0913077838421095E+00   1.0850876211094891E+00
   1.0785936865504206E+00   1.0718312157378356E+00   1.0648056295048030E+00
   1.0575225246013753E+00   1.0499876643915045E+00   1.0422069696150018E+00
   1.0341865092368072E+00   1.0259324914030572E+00   1.0174512545205583E+00
   1.0087492584735116E+00   9.9983307598843651E-01   9.9070938415552534E-01
   9.8138495611197440E-01   9.7186665289018459E-01   9.6216141543142342E-01
   9.5227625676319161E-01   9.4221825433655182E-01   9.3199454251796632E-01
   9.2161230522866333E-01   9.1107876872338556E-01   9.0040119449980083E-01
   8.8958687232888911E-01   8.7864311339810008E-01   8.6757724355703580E-01
   8.5639659665834100E-01   8.4510850798743109E-01   8.3372030777548600E-01
   8.2223931479286660E-01   8.1067283002211221E-01   7.9902813041236820E-01
   7.8731246271973310E-01   7.7553303744065127E-01   7.6369702284827634E-01
   7.5181153914395282E-01   7.3988365273809198E-01   7.2792037067616244E-01
   7.1592863522623840E-01   7.0391531864454315E-01   6.9188721813424581E-01
   6.7985105101059951E-01   6.6781345008208326E-01   6.5578095925249869E-01
   6.4376002934313903E-01   6.3175701412703933E-01   6.1977816655936768E-01
   6.0782963517933075E-01   5.9591746064996276E-01   5.8404757239345861E-01
   5.7222578527177315E-01   5.6045779625595993E-01   5.4874918102387082E-01
   5.3710539042537997E-01   5.2553174675812142E-01   5.1403343980548732E-01
   5.0261552260316678E-01   4.9128290692059201E-01   4.8004035846939797E-01
   4.6889249188120136E-01   4.5784376552994166E-01   4.4689847630773405E-01
   4.3606075449414877E-01   4.2533455888424299E-01   4.1472367235702357E-01
   4.0423169807029596E-01   3.9386205645850958E-01   3.8361798318610829E-01
   3.7350252817131363E-01   3.6351855574678810E-01   3.5366874596784703E-01
   3.4395559702139900E-01   3.3438142863431430E-01   3.2494838633366541E-01
   3.1565844637726759E-01   3.0651342115309893E-01   2.9751496484174195E-01
   2.8866457914550814E-01   2.7996361890916366E-01   2.7141329748707976E-01
   2.6301469174615238E-01   2.5476874662990573E-01   2.4667627924355742E-01
   2.3873798245025829E-01   2.3095442799404065E-01   2.2332606918427811E-01
   2.1585324319000046E-01   2.0853617300060165E-01   2.0137496911308966E-01
   1.9436963100617180E-01   1.8752004845888554E-01   1.8082600276717359E-01
   1.7428716790644144E-01   1.6790311168225266E-01   1.6167329690544030E-01
   1.5559708262218769E-01   1.4967372542438331E-01   1.4390238086073207E-01
   1.3828210496485815E-01   1.3281185591287134E-01   1.2749049581959399E-01
   1.2231679267980078E-01   1.1728942245833543E-01   1.1240697133082871E-01
   1.0766793807486966E-01   1.0307073660982580E-01   9.8613698682102388E-02
   9.4295076691337840E-02   9.0113046651941808E-02   8.6065711283422081E-02
   8.2151103222064772E-02   7.8367188345838307E-02   7.4711869203736611E-02
   7.1182988540238523E-02   6.7778332905174446E-02   6.4495636338858034E-02
   6.1332584122194646E-02   5.8286816581188526E-02   5.5355932935231868E-02
   5.2537495178526392E-02   4.9829031983998316E-02   4.7228042619198739E-02
   4.4732000863829904E-02   4.2338358918737343E-02   4.0044551296491281E-02
   3.7847998683946740E-02   3.5746111767512849E-02   3.3736295012216477E-02
   3.1815950385992664E-02   2.9982481021037965E-02   2.8233294804424783E-02
   2.6565807890563665E-02   2.4977448128478762E-02   2.3465658397212989E-02
   2.2027899843044853E-02   2.0661655012524816E-02   1.9364430875668054E-02
   1.8133761733951665E-02   1.6967212008061613E-02   1.5862378900637266E-02
   1.4816894929555123E-02   1.3828430327595825E-02   1.2894695304652964E-02
   1.2013442168973036E-02   1.1182467304268333E-02   1.0399612999925843E-02
   9.6627691319459488E-03   8.9698746926847889E-03   8.3189191679517421E-03
   7.7079437605203100E-03   7.1350424596429343E-03   6.5983629567268340E-03
   6.0961074079011685E-03   5.6265330448056223E-03   5.1879526355274094E-03
   4.7787347982120336E-03   4.3973041704667461E-03   4.0421414382451944E-03
   3.7117832284543312E-03   3.4048218700455223E-03   3.1199050288316810E-03
   2.8557352217193949E-03   2.6110692164384936E-03   2.3847173232003482E-03
   2.1755425850149613E-03   1.9824598736387414E-03   1.8044348983187913E-03
   1.6404831346375167E-03   1.4896686808476775E-03   1.3511030491264750E-03
   1.2239438991633446E-03   1.1073937214404553E-03   1.0006984774625618E-03
   9.0314620405153355E-04   8.1406558864298418E-04   7.3282452230829522E-04
   6.5882863698254568E-04   5.9151983310729776E-04   5.3037480360166027E-04
   4.7490355975967502E-04   4.2464796433814542E-04   3.7918027675252000E-04
   3.3810171494069556E-04   3.0104103809001378E-04   2.6765315405464433E-04
   2.3761775492167931E-04   2.1063798381818031E-04   1.8643913569079345E-04
   1.6476739443718004E-04   1.4538860842687538E-04   1.2808710612030496E-04
   1.1266455318034717E-04   9.8938852172740380E-05   8.6743085670521424E-05
   7.5924503314443075E-05   6.6343553136370432E-05   5.7872957226117148E-05
   5.0396831613688397E-05   4.3809850048415792E-05   3.8016451183172620E-05
   3.2930088515244869E-05   2.8472522294922058E-05   2.4573152487361107E-05
   2.1168391762585532E-05   1.8201077391558610E-05   1.5647267253040256E-05
   1.4579905019600410E-05  -9.6595070222767869E-07  -2.1230625261930923E-08
   0.0000000000000000E+00   0.0000000000000000E+00   0.0000000000000000E+00
   0.0000000000000000E+00   0.0000000000000000E+00   0.0000000000000000E+00
   0.0000000000000000E+00   0.0000000000000000E+00   0.0000000000000000E+00
   0.0000000000000000E+00   0.0000000000000000E+00   0.0000000000000000E+00
   0.0000000000000000E+00   0.0000000000000000E+00   0.0000000000000000E+00
   0.0000000000000000E+00   0.0000000000000000E+00   0.0000000000000000E+00
   0.0000000000000000E+00   0.0000000000000000E+00   0.0000000000000000E+00
   0.0000000000000000E+00   0.0000000000000000E+00   0.0000000000000000E+00
   0.0000000000000000E+00   0.0000000000000000E+00   0.0000000000000000E+00
   0.0000000000000000E+00   0.0000000000000000E+00   0.0000000000000000E+00
   0.0000000000000000E+00   0.0000000000000000E+00   0.0000000000000000E+00
   0.0000000000000000E+00   0.0000000000000000E+00   0.0000000000000000E+00
   0.0000000000000000E+00   0.0000000000000000E+00   0.0000000000000000E+00
   0.0000000000000000E+00   0.0000000000000000E+00   0.0000000000000000E+00
   0.0000000000000000E+00   0.0000000000000000E+00   0.0000000000000000E+00
   0.0000000000000000E+00   0.0000000000000000E+00
       </PP_GIPAW_WFS_AE>
       <PP_GIPAW_WFS_PS size="1106">
   0.0000000000000000E+00   1.8269278550993062E-14   1.8967384170772597E-14
   1.9692165801304464E-14   2.0444642785460015E-14   2.1225873418002273E-14
   2.2036956433261915E-14   2.2879032550402605E-14   2.3753286077745427E-14
   2.4660946578397709E-14   2.5603290599528719E-14   2.6581643467724361E-14
   2.7597381152946434E-14   2.8651932203716831E-14   2.9746779756249533E-14
   3.0883463620355323E-14   3.2063582445052910E-14   3.3288795966932830E-14
   3.4560827344435417E-14   3.5881465581326409E-14   3.7252568042778302E-14
   3.8676063067596028E-14   4.0153952680261725E-14   4.1688315406610980E-14
   4.3281309197102802E-14   4.4935174461792768E-14   4.6652237221279210E-14
   4.8434912378052653E-14   5.0285707112850809E-14   5.2207224410794356E-14
   5.4202166722263930E-14   5.6273339763666248E-14   5.8423656463435325E-14
   6.0656141058817972E-14   6.2973933349205878E-14   6.5380293111996172E-14
   6.7878604687190034E-14   7.0472381737179341E-14   7.3165272188412862E-14
   7.5961063361894121E-14   7.8863687299726000E-14   8.1877226295192667E-14
   8.5005918634157190E-14   8.8254164555849870E-14   9.1626532441429539E-14
   9.5127765239022519E-14   9.8762787134274877E-14   1.0253671047580028E-13
   1.0645484296526266E-13   1.1052269512220629E-13   1.1474598803413173E-13
   1.1913066140271894E-13   1.2368288189751024E-13   1.2840905182880681E-13
   1.3331581815197166E-13   1.3841008181580695E-13   1.4369900746814984E-13
   1.4919003353233927E-13   1.5489088266872467E-13   1.6080957263592983E-13
   1.6695442756714709E-13   1.7333408967732203E-13   1.7995753141769119E-13
   1.8683406809477130E-13   1.9397337097154351E-13   2.0138548086926133E-13
   2.0908082228900980E-13   2.1707021807287750E-13   2.2536490462536262E-13
   2.3397654771641843E-13   2.4291725888836402E-13   2.5219961248973643E-13
   2.6183666336004132E-13   2.7184196519027181E-13   2.8222958958501957E-13
   2.9301414585298852E-13   3.0421080155374168E-13   3.1583530382958088E-13
   3.2790400155256241E-13   3.4043386831779041E-13   3.5344252631533304E-13
   3.6694827111433117E-13   3.8097009739415605E-13   3.9552772565880784E-13
   4.1064162997212610E-13   4.2633306675281120E-13   4.4262410466976972E-13
   4.5953765567981582E-13   4.7709750725138446E-13   4.9532835581957803E-13
   5.1425584151960209E-13   5.3390658424742470E-13   5.5430822109839390E-13
   5.7548944523645879E-13   5.9748004624865587E-13   6.2031095204162499E-13
   6.4401427233907866E-13   6.6862334384138280E-13   6.9417277711079311E-13
   7.2069850524825762E-13   7.4823783443025754E-13   7.7682949637677135E-13
   8.0651370282413030E-13   8.3733220207940583E-13   8.6932833773583477E-13
   9.0254710963190165E-13   9.3703523713976314E-13   9.7284122487207117E-13
   1.0100154308995726E-12   1.0486101375754425E-12   1.0886796250659595E-12
   1.1302802476909292E-12   1.1734705131812327E-12   1.2183111649649649E-12
   1.2648652675978834E-12   1.3131982954583302E-12   1.3633782248313672E-12
   1.4154756295116182E-12   1.4695637800593036E-12   1.5257187468490291E-12
   1.5840195070562812E-12   1.6445480557321003E-12   1.7073895211221157E-12
   1.7726322843921756E-12   1.8403681039289079E-12   1.9106922443900868E-12
   1.9837036106862298E-12   2.0595048870819336E-12   2.1382026816125221E-12
   2.2199076760191809E-12   2.3047347814133558E-12   2.3928032998894655E-12
   2.4842370923130787E-12   2.5791647525207150E-12   2.6777197881760476E-12
   2.7800408085370944E-12   2.8862717193982838E-12   2.9965619254817033E-12
   3.1110665405620663E-12   3.2299466056210433E-12   3.3533693153376337E-12
   3.4815082532332394E-12   3.6145436358020532E-12   3.7526625659702151E-12
   3.8960592962400803E-12   4.0449355018898304E-12   4.1995005646124993E-12
   4.3599718669934829E-12   4.5265750982406021E-12   4.6995445715966997E-12
   4.8791235538812194E-12   5.0655646076242428E-12   5.2591299462741023E-12
   5.4600918029782422E-12   5.6687328134559072E-12   5.8853464135011278E-12
   6.1102372516751571E-12   6.3437216177686010E-12   6.5861278876360570E-12
   6.8377969850287390E-12   7.0990828610745474E-12   7.3703529920801799E-12
   7.6519888963551209E-12   7.9443866707846201E-12   8.2479575479060740E-12
   8.5631284742725266E-12   8.8903427109164578E-12   9.2300604567586418E-12
   9.5827594958385714E-12   9.9489358692768592E-12   1.0329104572914782E-11
   1.0723800281611845E-11   1.1133578101220358E-11   1.1559014349294274E-11
   1.2000707365630701E-11   1.2459278353783584E-11   1.2935372254733449E-11
   1.3429658653941765E-11   1.3942832723065656E-11   1.4475616197657338E-11
   1.5028758392223519E-11   1.5603037254072181E-11   1.6199260457428916E-11
   1.6818266539361626E-11   1.7460926079111158E-11   1.8128142922486624E-11
   1.8820855453047066E-11   1.9540037911857796E-11   2.0286701767676969E-11
   2.1061897139499738E-11   2.1866714273460916E-11   2.2702285076172827E-11
   2.3569784706654827E-11   2.4470433229094022E-11   2.5405497328761061E-11
   2.6376292093494404E-11   2.7384182863258648E-11   2.8430587150378423E-11
   2.9516976633147762E-11   3.0644879225619693E-11   3.1815881226486272E-11
   3.3031629550071732E-11   3.4293834042576423E-11   3.5604269886828459E-11
   3.6964780098926614E-11   3.8377278120283926E-11   3.9843750508719238E-11
   4.1366259732380093E-11   4.2946947070427003E-11   4.4588035624559162E-11
   4.6291833445615871E-11   4.8060736779651731E-11   4.9897233438051151E-11
   5.1803906296420991E-11   5.3783436927183369E-11   5.5838609370976878E-11
   5.7972314052170209E-11   6.0187551843995245E-11   6.2487438289017749E-11
   6.4875207980879409E-11   6.7354219113475717E-11   6.9927958203966488E-11
   7.2600044996262313E-11   7.5374237551881906E-11   7.8254437535342940E-11
   8.1244695701516263E-11   8.4349217592663695E-11   8.7572369453170296E-11
   9.0918684370291031E-11   9.4392868649546921E-11   9.7999808433736668E-11
   1.0174457657487620E-10   1.0563243976872547E-10   1.0966886596194181E-10
   1.1385953204227455E-10   1.1821033182261637E-10   1.2272738433014194E-10
   1.2741704241218963E-10   1.3228590167099203E-10   1.3734080973981892E-10
   1.4258887591358159E-10   1.4803748114743815E-10   1.5369428843746805E-10
   1.5956725359801258E-10   1.6566463645083570E-10   1.7199501244184686E-10
   1.7856728470172176E-10   1.8539069656738038E-10   1.9247484458193879E-10
   1.9982969199141107E-10   2.0746558275714835E-10   2.1539325610371915E-10
   2.2362386162269371E-10   2.3216897495357335E-10   2.4104061406391566E-10
   2.5025125615156052E-10   2.5981385519271609E-10   2.6974186016059531E-10
   2.8004923394022347E-10   2.9075047296601116E-10   3.0186062760972058E-10
   3.1339532334749883E-10   3.2537078273573407E-10   3.3780384822666394E-10
   3.5071200585580226E-10   3.6411340983451227E-10   3.7802690808231133E-10
   3.9247206873480705E-10   4.0746920766456032E-10   4.2303941705356826E-10
   4.3920459505755651E-10   4.5598747660380479E-10   4.7341166536580935E-10
   4.9150166695976539E-10   5.1028292340954605E-10   5.2978184892865229E-10
   5.5002586706946475E-10   5.7104344929203161E-10   5.9286415500664977E-10
   6.1551867314654555E-10   6.3903886532911915E-10   6.6345781066648275E-10
   6.8880985228826072E-10   7.1513064564214803E-10   7.4245720864009576E-10
   7.7082797372069559E-10   8.0028284190095595E-10   8.3086323889349293E-10
   8.6261217336807879E-10   8.9557429743945679E-10   9.2979596946651325E-10
   9.6532531925113483E-10   1.0022123157284073E-09   1.0405088372434055E-09
   1.0802687445133828E-09   1.1215479563779704E-09   1.1644045284439469E-09
   1.2088987347351478E-09   1.2550931524623937E-09   1.3030527500326029E-09
   1.3528449784209045E-09   1.4045398660342673E-09   1.4582101171999872E-09
   1.5139312144176534E-09   1.5717815245183125E-09   1.6318424088801573E-09
   1.6941983378558031E-09   1.7589370095719661E-09   1.8261494732687383E-09
   1.8959302573518615E-09   1.9683775023380833E-09   2.0435930988806374E-09
   2.1216828310688485E-09   2.2027565252035465E-09   2.2869282042573716E-09
   2.3743162482373234E-09   2.4650435606750527E-09   2.5592377414789574E-09
   2.6570312663913381E-09   2.7585616733028704E-09   2.8639717556864810E-09
   2.9734097634226853E-09   3.0870296112987045E-09   3.2049910954748386E-09
   3.3274601182222008E-09   3.4546089212482636E-09   3.5866163279379125E-09
   3.7236679948511237E-09   3.8659566728307068E-09   4.0136824780873727E-09
   4.1670531736434844E-09   4.3262844615310796E-09   4.4916002861554166E-09
   4.6632331492503758E-09   4.8414244368688649E-09   5.0264247588681086E-09
   5.2184943013670305E-09   5.4179031926716925E-09   5.6249318831833550E-09
   5.8398715398231615E-09   6.0630244555287551E-09   6.2947044743979597E-09
   6.5352374330781295E-09   6.7849616190215494E-09   7.0442282462513077E-09
   7.3134019493072104E-09   7.5928612960655412E-09   7.8829993201548875E-09
   8.1842240737160492E-09   8.4969592012836918E-09   8.8216445355970314E-09
   9.1587367161767427E-09   9.5087098315390793E-09   9.8720560859494228E-09
   1.0249286491653585E-08   1.0640931587560167E-08   1.1047542185384333E-08
   1.1469690144303090E-08   1.1907969175210987E-08   1.2362995675707052E-08
   1.2835409596988181E-08   1.3325875343866843E-08   1.3835082709180020E-08
   1.4363747843902759E-08   1.4912614264330679E-08   1.5482453897748471E-08
   1.6074068168053773E-08   1.6688289122864438E-08   1.7325980603693569E-08
   1.7988039460837769E-08   1.8675396814688174E-08   1.9389019365236132E-08
   2.0129910751617538E-08   2.0899112963605774E-08   2.1697707807039095E-08
   2.2526818425243490E-08   2.3387610878589916E-08   2.4281295784407664E-08
   2.5209130019560435E-08   2.6172418488078104E-08   2.7172515956332158E-08
   2.8210828958332761E-08   2.9288817773829600E-08   3.0407998481996677E-08
   3.1569945093588892E-08   3.2776291764570232E-08   3.4028735094325051E-08
   3.5329036511684970E-08   3.6679024752126983E-08   3.8080598429625665E-08
   3.9535728706777166E-08   4.1046462066948727E-08   4.2614923192352123E-08
   4.4243317952090165E-08   4.5933936504375019E-08   4.7689156517283293E-08
   4.9511446512577021E-08   5.1403369337289031E-08   5.3367585767960571E-08
   5.5406858252593803E-08   5.7524054795584725E-08   5.9722152991098289E-08
   6.2004244210555929E-08   6.4373537950128112E-08   6.6833366344339412E-08
   6.9387188852138615E-08   7.2038597122020027E-08   7.4791320043036692E-08
   7.7649228988811932E-08   8.0616343261917396E-08   8.3696835746278082E-08
   8.6895038775551602E-08   9.0215450225728029E-08   9.3662739840526374E-08
   9.7241755798474589E-08   1.0095753153090928E-07   1.0481529280048530E-07
   1.0882046505014022E-07   1.1297868103285638E-07   1.1729578873294237E-07
   1.2177785958997233E-07   1.2643119703695195E-07   1.3126234536470503E-07
   1.3627809892495813E-07   1.4148551168505036E-07   1.4689190714771243E-07
   1.5250488864985751E-07   1.5833235005486044E-07   1.6438248685336771E-07
   1.7066380768823858E-07   1.7718514631982231E-07   1.8395567404839736E-07
   1.9098491261123103E-07   1.9828274757240129E-07   2.0585944222419824E-07
   2.1372565201965010E-07   2.2189243955647454E-07   2.3037129013349791E-07
   2.3917412790144251E-07   2.4831333263076293E-07   2.5780175712011686E-07
   2.6765274526994431E-07   2.7788015084655047E-07   2.8849835696308968E-07
   2.9952229630482020E-07   3.1096747212707064E-07   3.2284998005543713E-07
   3.3518653071884281E-07   3.4799447324729498E-07   3.6129181966735959E-07
   3.7509727022963747E-07   3.8943023970386954E-07   4.0431088467859613E-07
   4.1976013190378113E-07   4.3579970771621101E-07   4.5245216858904167E-07
   4.6974093284843586E-07   4.8769031360184869E-07   5.0632555292427205E-07
   5.2567285735046889E-07   5.4575943472307258E-07   5.6661353244837770E-07
   5.8826447721351937E-07   6.1074271622093974E-07   6.3407985999802619E-07
   6.5830872684212387E-07   6.8346338896336081E-07   7.0957922039013528E-07
   7.3669294670458552E-07   7.6484269667794066E-07   7.9406805587828539E-07
   8.2441012232610311E-07   8.5591156427576052E-07   8.8861668020415379E-07
   9.2257146109080383E-07   9.5782365507686814E-07   9.9442283459398544E-07
   1.0324204660571762E-06   1.0718699822198061E-06   1.1128268572921930E-06
   1.1553486849294200E-06   1.1994952591979308E-06   1.2453286586345682E-06
   1.2929133335162527E-06   1.3423161964627942E-06   1.3936067165001347E-06
   1.4468570167161693E-06   1.5021419756462426E-06   1.5595393325307852E-06
   1.6191297965929021E-06   1.6809971604893288E-06   1.7452284180941928E-06
   1.8119138867808538E-06   1.8811473343736339E-06   1.9530261109477022E-06
   2.0276512856620650E-06   2.1051277888179920E-06   2.1855645593420740E-06
   2.2690746979012333E-06   2.3557756258644614E-06   2.4457892503345011E-06
   2.5392421354811954E-06   2.6362656804168902E-06   2.7369963038636450E-06
   2.8415756358714748E-06   2.9501507168565795E-06   3.0628742042390356E-06
   3.1799045869698228E-06   3.3014064082482779E-06   3.4275504967425129E-06
   3.5585142066371403E-06   3.6944816668452539E-06   3.8356440397340620E-06
   3.9821997897273698E-06   4.1343549621615619E-06   4.2923234727861897E-06
   4.4563274083153973E-06   4.6265973384514450E-06   4.8033726398181271E-06
   4.9869018322582158E-06   5.1774429279665181E-06   5.3752637939479860E-06
   5.5806425283091802E-06   5.7938678509103162E-06   6.0152395089258563E-06
   6.2450686978817418E-06   6.4836784987595209E-06   6.7314043317798897E-06
   6.9885944275013881E-06   7.2556103158945471E-06   7.5328273340763621E-06
   7.8206351534166844E-06   8.1194383267544260E-06   8.4296568564902984E-06
   8.7517267843516815E-06   9.0861008036549900E-06   9.4332488949233848E-06
   9.7936589857489928E-06   1.0167837635823887E-05   1.0556310748098059E-05
   1.0959624307060085E-05   1.1378345145173062E-05   1.1813061738538310E-05
   1.2264385032899967E-05   1.2732949301145585E-05   1.3219413033502167E-05
   1.3724459861672023E-05   1.4248799518200887E-05   1.4793168832418905E-05
   1.5358332764346979E-05   1.5945085478012798E-05   1.6554251455676574E-05
   1.7186686654522556E-05   1.7843279707432348E-05   1.8524953169516769E-05
   1.9232664812146304E-05   1.9967408966287427E-05   2.0730217917018458E-05
   2.1522163351172149E-05   2.2344357860123782E-05   2.3197956499821508E-05
   2.4084158410234174E-05   2.5004208496474476E-05   2.5959399173941453E-05
   2.6951072179913847E-05   2.7980620454118614E-05   2.9049490090894323E-05
   3.0159182365668082E-05   3.1311255838566992E-05   3.2507328538093302E-05
   3.3749080227900534E-05   3.5038254759826047E-05   3.6376662516450126E-05
   3.7766182946579886E-05   3.9208767197181741E-05   4.0706440845419312E-05
   4.2261306734592262E-05   4.3875547917914134E-05   4.5551430714217132E-05
   4.7291307879822404E-05   4.9097621900978863E-05   5.0972908411434514E-05
   5.2919799739879171E-05   5.4941028592175192E-05   5.7039431873476272E-05
   5.9217954655528598E-05   6.1479654294644003E-05   6.3827704706045062E-05
   6.6265400800492435E-05   6.8796163089329269E-05   7.1423542464305718E-05
   7.4151225158786583E-05   7.6983037897188281E-05   7.9922953239758502E-05
   8.2975095130061229E-05   8.6143744652823431E-05   8.9433346010071949E-05
   9.2848512723791649E-05   9.6394034073645393E-05   1.0007488177860627E-04
   1.0389621693169592E-04   1.0786339719735063E-04   1.1198198428130331E-04
   1.1625775168323289E-04   1.2069669274281199E-04   1.2530502899018461E-04
   1.3008921881230766E-04   1.3505596644702259E-04   1.4021223131715723E-04
   1.4556523771741859E-04   1.5112248486730446E-04   1.5689175734375901E-04
   1.6288113590779113E-04   1.6909900873982148E-04   1.7555408309904308E-04
   1.8225539742266410E-04   1.8921233388148121E-04   1.9643463140882006E-04
   2.0393239922054194E-04   2.1171613084441967E-04   2.1979671867790367E-04
   2.2818546909395666E-04   2.3689411811537758E-04   2.4593484767878329E-04
   2.5532030251017019E-04   2.6506360763480305E-04   2.7517838654498390E-04
   2.8567878005012062E-04   2.9657946583441411E-04   3.0789567874836576E-04
   3.1964323186130385E-04   3.3183853830307089E-04   3.4449863392403815E-04
   3.5764120080370240E-04   3.7128459163914327E-04   3.8544785504580117E-04
   4.0015076180418071E-04   4.1541383208726416E-04   4.3125836370471420E-04
   4.4770646140117505E-04   4.6478106724736137E-04   4.8250599216396534E-04
   5.0090594861982132E-04   5.2000658454732704E-04   5.3983451851946076E-04
   5.6041737623448520E-04   5.8178382835597246E-04   6.0396362975734556E-04
   6.2698766022212281E-04   6.5088796665251298E-04   6.7569780684107296E-04
   7.0145169486202324E-04   7.2818544814056655E-04   7.5593623626089715E-04
   7.8474263157536802E-04   8.1464466167957973E-04   8.4568386382046369E-04
   8.7790334130639436E-04   9.1134782199112096E-04   9.4606371890541569E-04
   9.8209919311292729E-04   1.0195042188694693E-03   1.0583306511672541E-03
   1.0986322957486812E-03   1.1404649816768807E-03   1.1838866365530653E-03
   1.2289573644739358E-03   1.2757395268251023E-03   1.3242978260099532E-03
   1.3746993922162942E-03   1.4270138733266809E-03   1.4813135280815565E-03
   1.5376733226078166E-03   1.5961710304290809E-03   1.6568873360775348E-03
   1.7199059424308949E-03   1.7853136819020905E-03   1.8532006316128770E-03
   1.9236602326870350E-03   1.9967894138023866E-03   2.0726887191456003E-03
   2.1514624409177240E-03   2.2332187565426730E-03   2.3180698707359910E-03
   2.4061321625947103E-03   2.4975263378748743E-03   2.5923775866273382E-03
   2.6908157463672046E-03   2.7929754709579472E-03   2.8989964053949282E-03
   3.0090233666792208E-03   3.1232065309773388E-03   3.2417016272668934E-03
   3.3646701376750078E-03   3.4922795047196962E-03   3.6247033456709410E-03
   3.7621216742535950E-03   3.9047211299181070E-03   4.0526952149125793E-03
   4.2062445393930342E-03   4.3655770748150429E-03   4.5309084158557736E-03
   4.7024620511187821E-03   4.8804696428815719E-03   5.0651713161491713E-03
   5.2568159572825906E-03   5.4556615224768618E-03   5.6619753563662079E-03
   5.8760345210405983E-03   6.0981261357609647E-03   6.3285477276649712E-03
   6.5676075937598135E-03   6.8156251745010409E-03   7.0729314392607929E-03
   7.3398692839917734E-03   7.6167939413948563E-03   7.9040734039022668E-03
   8.2020888597881883E-03   8.5112351427210197E-03   8.8319211950716216E-03
   9.1645705452916507E-03   9.5096217996761285E-03   9.8675291488214863E-03
   1.0238762889089866E-02   1.0623809959384570E-02   1.1023174493539973E-02
   1.1437378388621836E-02   1.1866961889427477E-02   1.2312484189469794E-02
   1.2774524048715125E-02   1.3253680428339415E-02   1.3750573142751261E-02
   1.4265843529116862E-02   1.4800155134607943E-02   1.5354194421572027E-02
   1.5928671490807508E-02   1.6524320823103015E-02   1.7141902039172027E-02
   1.7782200678092362E-02   1.8446028994322922E-02   1.9134226773340361E-02
   1.9847662165902974E-02   2.0587232540901751E-02   2.1353865356724355E-02
   2.2148519051000900E-02   2.2972183948551932E-02   2.3825883187306288E-02
   2.4710673661883995E-02   2.5627646984486285E-02   2.6577930462652482E-02
   2.7562688093369276E-02   2.8583121572938245E-02   2.9640471321908640E-02
   3.0736017524293870E-02   3.1871081180182781E-02   3.3047025170741408E-02
   3.4265255334490305E-02   3.5527221553604375E-02   3.6834418848851594E-02
   3.8188388481640675E-02   3.9590719061484633E-02   4.1043047657031768E-02
   4.2547060908627102E-02   4.4104496140186328E-02   4.5717142467959319E-02
   4.7386841903546993E-02   4.9115490448312475E-02   5.0905039176082287E-02
   5.2757495300783233E-02   5.4674923225385426E-02   5.6659445568248520E-02
   5.8713244162648823E-02   6.0838561024967507E-02   6.3037699286671189E-02
   6.5313024084863294E-02   6.7666963405827493E-02   7.0102008875570013E-02
   7.2620716490978163E-02   7.5225707284774526E-02   7.7919667916982807E-02
   8.0705351185172594E-02   8.3585576445233414E-02   8.6563229933917046E-02
   8.9641264983866376E-02   9.2822702121248934E-02   9.6110629035576003E-02
   9.9508200410637890E-02   1.0301863760487859E-01   1.0664522816888708E-01
   1.1039132518697500E-01   1.1426034642915434E-01   1.1825577329907647E-01
   1.2238114956276915E-01   1.2664007984225872E-01   1.3103622785736696E-01
   1.3557331439819614E-01   1.4025511501000432E-01   1.4508545737134476E-01
   1.5006821834552581E-01   1.5520732068460161E-01   1.6050672936426447E-01
   1.6597044752716919E-01   1.7160251201138177E-01   1.7740698843982361E-01
   1.8338796584575162E-01   1.8954955080854818E-01   1.9589586107329002E-01
   2.0243101862688276E-01   2.0915914220281120E-01   2.1608433918594142E-01
   2.2321069688824366E-01   2.3054227316575801E-01   2.3808308634676162E-01
   2.4583710444072612E-01   2.5380823359744309E-01   2.6200030578565137E-01
   2.7041706566047197E-01   2.7906215658924843E-01   2.8793910580573245E-01
   2.9705130866311846E-01   3.0640201195733230E-01   3.1599429629287928E-01
   3.2583105746499619E-01   3.3591498683341137E-01   3.4624855066486965E-01
   3.5683396842400145E-01   3.6767318999457999E-01   3.7876787181639354E-01
   3.9011935192643676E-01   4.0172862389699043E-01   4.1359630966780497E-01
   4.2572263127447268E-01   4.3810738148074874E-01   4.5074989332884674E-01
   4.6364900862849268E-01   4.7680304541322910E-01   4.9020976440068575E-01
   5.0386633450259621E-01   5.1776929744032729E-01   5.3191453153222468E-01
   5.4629721473082682E-01   5.6091178700038036E-01   5.7575191213847965E-01
   5.9081043916007980E-01   6.0607936337729351E-01   6.2154978732475019E-01
   6.3721188169743725E-01   6.5305484648613099E-01   6.6906687251465169E-01
   6.8523510360312545E-01   7.0154559960236917E-01   7.1798330056610082E-01
   7.3453199235015754E-01   7.5117427395084868E-01   7.6789152691815121E-01
   7.8466388720338720E-01   8.0147021982512778E-01   8.1828809676128966E-01
   8.3509377849938327E-01   8.5186219970039323E-01   8.6856695945476470E-01
   8.8518031663064212E-01   9.0167319083517350E-01   9.1801516952832529E-01
   9.3417452184518590E-01   9.5011821969679100E-01   9.6581196673005576E-01
   9.8122023573464512E-01   9.9630631508732770E-01   1.0110323648221426E+00
   1.0253594829071975E+00   1.0392477822947273E+00   1.0526564792902044E+00
   1.0655439937576037E+00   1.0778680616405345E+00   1.0895858602326716E+00
   1.1006541465741311E+00   1.1110294092831661E+00   1.1206680340536184E+00
   1.1295264829572234E+00   1.1375614875859676E+00   1.1447302559520365E+00
   1.1509906929315645E+00   1.1563016338928453E+00   1.1606230909896442E+00
   1.1639165114260719E+00   1.1661450468110743E+00   1.1672738325186776E+00
   1.1672702757553683E+00   1.1661043508095039E+00   1.1637488997209515E+00
   1.1601799363639664E+00   1.1553769516850991E+00   1.1493232175831822E+00
   1.1420060866635884E+00   1.1334172848475925E+00   1.1235531935740362E+00
   1.1124151180994664E+00   1.1000095381896091E+00   1.0863483373054545E+00
   1.0714490062274251E+00   1.0553348169379830E+00   1.0380349625034846E+00
   1.0195846586675223E+00   1.0000252028979271E+00   9.7940398672532325E-01
   9.5777445738034450E-01   9.3519602498582255E-01   9.1173391189602271E-01
   8.8745894120205637E-01   8.6244726194675903E-01   8.3678000921812079E-01
   8.1054289801621537E-01   7.8382575061554904E-01   7.5672195806949594E-01
   7.2932787752022021E-01   7.0174216807861145E-01   6.7406506921149256E-01
   6.4639762680335677E-01   6.1884087332882520E-01   5.9149496985646954E-01
   5.6445831888098852E-01   5.3782665821838083E-01   5.1169214736692492E-01
   4.8614245880182289E-01   4.6125988759629372E-01   4.3712049351218857E-01
   4.1379329024169303E-01   3.9133949677473190E-01   3.6981186588396636E-01
   3.4925410443360350E-01   3.2970039961118253E-01   3.1117506424100189E-01
   2.9369231306203297E-01   2.7725618025201049E-01   2.6186058657338446E-01
   2.4748956234063355E-01   2.3411763000804053E-01   2.2171034761029407E-01
   2.1022501162298088E-01   1.9961151511954614E-01   1.8981335446235573E-01
   1.8076877525068930E-01   1.7241204592093934E-01   1.6467484529911072E-01
   1.5748774856196554E-01   1.5078179445436324E-01   1.4449011517672206E-01
   1.3854960898673216E-01   1.3290263408510589E-01   1.2749870047658596E-01
   1.2229613405719961E-01   1.1726368467748631E-01   1.1238203910528170E-01
   1.0764401878502533E-01   1.0304783462079817E-01   9.8591779793753054E-02
   9.4274109251337168E-02   9.0092999731301041E-02   8.6046554510004813E-02
   8.2132806785224818E-02   7.8349723001949950E-02   7.4695206281149118E-02
   7.1167099943696424E-02   6.7763191119668081E-02   6.4481214432911493E-02
   6.1318855750596916E-02   5.8273755987191499E-02   5.5343514952162241E-02
   5.2525695230872416E-02   4.9817826087918446E-02   4.7217407382503331E-02
   4.4721913489442419E-02   4.2328797195678156E-02   4.0035493602174579E-02
   3.7839423982078263E-02   3.5737999605448038E-02   3.3728625517818259E-02
   3.1808704263996908E-02   2.9975639548936815E-02   2.8226839827878183E-02
   2.6559721818350365E-02   2.4971713926998488E-02   2.3460259584552379E-02
   2.2022820482619963E-02   2.0656879706313892E-02   1.9359944757048945E-02
   1.8129550460158628E-02   1.6963261752277053E-02   1.5858676343734671E-02
   1.4813427251509845E-02   1.3825185198581252E-02   1.2891660875839985E-02
   1.2010607063051531E-02   1.1179820605709817E-02   1.0397144245006911E-02
   9.6604682985528528E-03   8.9677321899196364E-03   8.3169258255614675E-03
   7.7060908181695691E-03   7.1333215560526247E-03   6.5967661186999002E-03
   6.0946270392575087E-03   5.6251619152478654E-03   5.1866838694593674E-03
   4.7775618635312895E-03   4.3962208673527037E-03   4.0411418879635350E-03
   3.7108618621983828E-03   3.4039734178345198E-03   3.1191245084853671E-03
   2.8550179279277130E-03   2.6104107099443777E-03   2.3841134201128926E-03
   2.1749893462693457E-03   1.9819535946184299E-03   1.8039720986545735E-03
   1.6400605481969885E-03   1.4892832459277498E-03   1.3507518988604738E-03
   1.2236243521532128E-03   1.1071032726235096E-03   1.0004347892211846E-03
   9.0290709757311776E-04   8.1384903553638802E-04   7.3262863648200179E-04
   6.5865166678869805E-04   5.9136015375476085E-04   5.3023090984026099E-04
   4.7477405883682036E-04   4.2453156922807751E-04   3.7907579965758146E-04
   3.3800806106310346E-04   3.0095719967183069E-04   2.6757820468284812E-04
   2.3755084409448870E-04   2.1057833176808639E-04   1.8638602845908115E-04
   1.6472017919408032E-04   1.4534668903088302E-04   1.2804993890960881E-04
   1.1263164298874639E-04   9.8909748561854292E-05   8.6717379369527170E-05
   7.5901822857983930E-05   6.6323561690645908E-05   5.7855349592479254E-05
   5.0381331398296830E-05   4.3796206985615705E-05   3.8004438599217618E-05
   3.2919500917740448E-05   2.8463173071855853E-05   2.4564871697735984E-05
   2.1161023998388427E-05   1.8194479687916994E-05   1.5613960609494267E-05
   1.3373546741597014E-05   1.1432197272343668E-05   9.7533052807219439E-06
   8.3042847342990053E-06   7.0561881794027344E-06   5.9833537700465266E-06
   5.0630801015448222E-06   4.2753273732975225E-06   3.6024434037914075E-06
   3.0289130365332049E-06   2.5411294981334083E-06   2.1271862987433093E-06
   1.7766882998373006E-06   1.4805806143049609E-06   1.2309940483089948E-06
   1.0211058427308904E-06   8.4501452360466306E-07   6.9762772509217062E-07
   5.7456190465288130E-07   4.7205292749319608E-07   3.8687655562618698E-07
   3.1627793531157958E-07   2.5790923486700454E-07   2.0977464235041222E-07
   1.7018198901975873E-07   1.3770031942574178E-07   1.1112278217884751E-07
   8.9434266596922611E-08   7.1783259373583631E-08   5.7457441948477902E-08
   4.5862593274172023E-08   3.6504404109996668E-08   2.8972847743648746E-08
   2.2928788173260945E-08   1.8092540275383346E-08   1.4234127389314178E-08
   1.1165010132469317E-08   8.7310862119705111E-09   6.8067846163285711E-09
   5.2900989721339352E-09   4.0984241585195261E-09   3.1650776113876384E-09
   2.4364022626874103E-09   1.8693618690610405E-09   1.4295517327546216E-09
   1.0895586318348485E-09   8.2761328529510015E-10   6.2648700390811360E-10
   4.7259143627077834E-10   3.5524662147254690E-10
       </PP_GIPAW_WFS_PS>
     </PP_GIPAW_ORBITAL.1>
     <PP_GIPAW_ORBITAL.2 index="2" label="4S" l="0" cutoff_radius="  2.32487517088308" ultrasoft_cutoff_radius="  2.32487517088308">
       <PP_GIPAW_WFS_AE size="1106">
   0.0000000000000000E+00  -2.4430951563659457E-04  -2.4729706636702364E-04
  -2.5032109458645642E-04  -2.5338204304930947E-04  -2.5648036182307173E-04
  -2.5961650704767826E-04  -2.6279094042544726E-04  -2.6600412927507119E-04
  -2.6925654659943357E-04  -2.7254867115443282E-04  -2.7588098751864574E-04
  -2.7925398616382685E-04  -2.8266816352624839E-04  -2.8612402207889493E-04
  -2.8962207040452071E-04  -2.9316282326957835E-04  -2.9674680169903303E-04
  -3.0037453305206853E-04  -3.0404655109869699E-04  -3.0776339609728411E-04
  -3.1152561487299740E-04  -3.1533376089719285E-04  -3.1918839436774444E-04
  -3.2309008229033459E-04  -3.2703939856071129E-04  -3.3103692404792487E-04
  -3.3508324667855678E-04  -3.3917896152195086E-04  -3.4332467087645779E-04
  -3.4752098435670604E-04  -3.5176851898191048E-04  -3.5606789926523092E-04
  -3.6041975730419110E-04  -3.6482473287217319E-04  -3.6928347351099716E-04
  -3.7379663462459948E-04  -3.7836487957382351E-04  -3.8298887977233323E-04
  -3.8766931478366392E-04  -3.9240687241942287E-04  -3.9720224883865458E-04
  -4.0205614864837933E-04  -4.0696928500532400E-04  -4.1194237971885580E-04
  -4.1697616335513259E-04  -4.2207137534248289E-04  -4.2722876407803433E-04
  -4.3244908703559711E-04  -4.3773311087482380E-04  -4.4308161155165487E-04
  -4.4849537443006809E-04  -4.5397519439514323E-04  -4.5952187596746090E-04
  -4.6513623341884724E-04  -4.7081909088948011E-04  -4.7657128250637437E-04
  -4.8239365250325912E-04  -4.8828705534186348E-04  -4.9425235583462927E-04
  -5.0029042926886071E-04  -5.0640216153233393E-04  -5.1258844924037669E-04
  -5.1885019986444114E-04  -5.2518833186217934E-04  -5.3160377480904349E-04
  -5.3809746953142727E-04  -5.4467036824135974E-04  -5.5132343467278100E-04
  -5.5805764421940367E-04  -5.6487398407418577E-04  -5.7177345337043281E-04
  -5.7875706332454369E-04  -5.8582583738042129E-04  -5.9298081135556509E-04
  -6.0022303358886421E-04  -6.0755356509011092E-04  -6.1497347969125123E-04
  -6.2248386419939527E-04  -6.3008581855160243E-04  -6.3778045597146524E-04
  -6.4556890312750747E-04  -6.5345230029342013E-04  -6.6143180151015293E-04
  -6.6950857474988188E-04  -6.7768380208187498E-04  -6.8595867984027486E-04
  -6.9433441879382168E-04  -7.0281224431753260E-04  -7.1139339656636584E-04
  -7.2007913065088550E-04  -7.2887071681495110E-04  -7.3776944061545264E-04
  -7.4677660310411493E-04  -7.5589352101139234E-04  -7.6512152693247629E-04
  -7.7446196951544020E-04  -7.8391621365153977E-04  -7.9348564066770012E-04
  -8.0317164852120450E-04  -8.1297565199661378E-04  -8.2289908290493908E-04
  -8.3294339028509032E-04  -8.4311004060762501E-04  -8.5340051798082483E-04
  -8.6381632435912268E-04  -8.7435897975390062E-04  -8.8503002244669216E-04
  -8.9583100920480753E-04  -9.0676351549941246E-04  -9.1782913572608141E-04
  -9.2902948342785065E-04  -9.4036619152080821E-04  -9.5184091252223022E-04
  -9.6345531878130192E-04  -9.7521110271245142E-04  -9.8710997703130906E-04
  -9.9915367499333859E-04  -1.0113439506351501E-03  -1.0236825790185386E-03
  -1.0361713564772574E-03  -1.0488121008665769E-03  -1.0616066518156278E-03
  -1.0745568709825905E-03  -1.0876646423127303E-03  -1.1009318722993240E-03
  -1.1143604902474995E-03  -1.1279524485410209E-03  -1.1417097229120467E-03
  -1.1556343127138865E-03  -1.1697282411967946E-03  -1.1839935557868243E-03
  -1.1984323283677674E-03  -1.2130466555662224E-03  -1.2278386590398088E-03
  -1.2428104857685636E-03  -1.2579643083495485E-03  -1.2733023252946994E-03
  -1.2888267613319466E-03  -1.3045398677096378E-03  -1.3204439225042966E-03
  -1.3365412309317406E-03  -1.3528341256615968E-03  -1.3693249671352392E-03
  -1.3860161438871922E-03  -1.4029100728700063E-03  -1.4200091997826625E-03
  -1.4373159994025264E-03  -1.4548329759208794E-03  -1.4725626632820601E-03
  -1.4905076255262524E-03  -1.5086704571359484E-03  -1.5270537833861088E-03
  -1.5456602606980733E-03  -1.5644925769972252E-03  -1.5835534520744607E-03
  -1.6028456379514945E-03  -1.6223719192500099E-03  -1.6421351135647217E-03
  -1.6621380718403497E-03  -1.6823836787525470E-03  -1.7028748530928204E-03
  -1.7236145481574596E-03  -1.7446057521405237E-03  -1.7658514885308925E-03
  -1.7873548165134390E-03  -1.8091188313743346E-03  -1.8311466649105269E-03
  -1.8534414858434177E-03  -1.8760065002367638E-03  -1.8988449519188608E-03
  -1.9219601229089878E-03  -1.9453553338481997E-03  -1.9690339444344506E-03
  -1.9929993538621120E-03  -2.0172550012658910E-03  -2.0418043661691908E-03
  -2.0666509689369478E-03  -2.0917983712329447E-03  -2.1172501764816711E-03
  -2.1430100303347277E-03  -2.1690816211418153E-03  -2.1954686804263319E-03
  -2.2221749833656120E-03  -2.2492043492758265E-03  -2.2765606421015793E-03
  -2.3042477709102186E-03  -2.3322696903909051E-03  -2.3606304013584337E-03
  -2.3893339512618683E-03  -2.4183844346979929E-03  -2.4477859939296210E-03
  -2.4775428194087471E-03  -2.5076591503046387E-03  -2.5381392750368124E-03
  -2.5689875318129704E-03  -2.6002083091718870E-03  -2.6318060465313126E-03
  -2.6637852347408402E-03  -2.6961504166398498E-03  -2.7289061876204623E-03
  -2.7620571961955785E-03  -2.7956081445720139E-03  -2.8295637892287082E-03
  -2.8639289415000901E-03  -2.8987084681645547E-03  -2.9339072920381024E-03
  -2.9695303925731439E-03  -3.0055828064624768E-03  -3.0420696282484699E-03
  -3.0789960109374333E-03  -3.1163671666192090E-03  -3.1541883670919832E-03
  -3.1924649444923171E-03  -3.2312022919304393E-03  -3.2704058641307419E-03
  -3.3100811780775521E-03  -3.3502338136661225E-03  -3.3908694143588935E-03
  -3.4319936878469881E-03  -3.4736124067169475E-03  -3.5157314091227069E-03
  -3.5583565994628205E-03  -3.6014939490628746E-03  -3.6451494968631694E-03
  -3.6893293501115642E-03  -3.7340396850615155E-03  -3.7792867476753172E-03
  -3.8250768543324812E-03  -3.8714163925432600E-03  -3.9183118216672723E-03
  -3.9657696736372580E-03  -4.0137965536878465E-03  -4.0623991410894001E-03
  -4.1115841898868586E-03  -4.1613585296435222E-03  -4.2117290661898149E-03
  -4.2627027823768787E-03  -4.3142867388350778E-03  -4.3664880747372667E-03
  -4.4193140085668292E-03  -4.4727718388903950E-03  -4.5268689451352278E-03
  -4.5816127883711935E-03  -4.6370109120972350E-03  -4.6930709430323117E-03
  -4.7498005919107576E-03  -4.8072076542818648E-03  -4.8653000113138157E-03
  -4.9240856306016715E-03  -4.9835725669794915E-03  -5.0437689633363808E-03
  -5.1046830514364467E-03  -5.1663231527425421E-03  -5.2286976792436379E-03
  -5.2918151342858464E-03  -5.3556841134068103E-03  -5.4203133051734746E-03
  -5.4857114920230775E-03  -5.5518875511071774E-03  -5.6188504551386714E-03
  -5.6866092732415904E-03  -5.7551731718035442E-03  -5.8245514153307011E-03
  -5.8947533673050908E-03  -5.9657884910440653E-03  -6.0376663505618301E-03
  -6.1103966114327080E-03  -6.1839890416561516E-03  -6.2584535125231123E-03
  -6.3337999994836991E-03  -6.4100385830158898E-03  -6.4871794494950280E-03
  -6.5652328920639417E-03  -6.6442093115034601E-03  -6.7241192171029873E-03
  -6.8049732275310181E-03  -6.8867820717052669E-03  -6.9695565896621134E-03
  -7.0533077334252051E-03  -7.1380465678727344E-03  -7.2237842716033835E-03
  -7.3105321378002762E-03  -7.3983015750929762E-03  -7.4871041084169157E-03
  -7.5769513798701260E-03  -7.6678551495667855E-03  -7.7598272964872900E-03
  -7.8528798193244764E-03  -7.9470248373255878E-03  -8.0422745911295883E-03
  -8.1386414435994786E-03  -8.2361378806490651E-03  -8.3347765120638951E-03
  -8.4345700723158137E-03  -8.5355314213707012E-03  -8.6376735454889355E-03
  -8.7410095580180702E-03  -8.8455527001772370E-03  -8.9513163418327209E-03
  -9.0583139822642163E-03  -9.1665592509211895E-03  -9.2760659081687260E-03
  -9.3868478460224329E-03  -9.4989190888715384E-03  -9.6122937941898641E-03
  -9.7269862532337898E-03  -9.8430108917266536E-03  -9.9603822705289381E-03
  -1.0079115086293474E-02  -1.0199224172104964E-02  -1.0320724498103184E-02
  -1.0443631172088909E-02  -1.0567959440111959E-02  -1.0693724687040534E-02
  -1.0820942437110881E-02  -1.0949628354456694E-02  -1.1079798243617017E-02
  -1.1211468050022187E-02  -1.1344653860456518E-02  -1.1479371903497036E-02
  -1.1615638549927122E-02  -1.1753470313124166E-02  -1.1892883849420229E-02
  -1.2033895958434515E-02  -1.2176523583376833E-02  -1.2320783811320575E-02
  -1.2466693873444429E-02  -1.2614271145241458E-02  -1.2763533146694383E-02
  -1.2914497542415922E-02  -1.3067182141752703E-02  -1.3221604898851783E-02
  -1.3377783912688115E-02  -1.3535737427051829E-02  -1.3695483830493890E-02
  -1.3857041656228522E-02  -1.4020429581991158E-02  -1.4185666429850379E-02
  -1.4352771165971997E-02  -1.4521762900334297E-02  -1.4692660886391993E-02
  -1.4865484520688088E-02  -1.5040253342411341E-02  -1.5216987032897721E-02
  -1.5395705415074382E-02  -1.5576428452843662E-02  -1.5759176250405970E-02
  -1.5943969051519118E-02  -1.6130827238692275E-02  -1.6319771332312723E-02
  -1.6510821989702874E-02  -1.6704000004105917E-02  -1.6899326303597709E-02
  -1.7096821949922653E-02  -1.7296508137251400E-02  -1.7498406190857869E-02
  -1.7702537565713473E-02  -1.7908923844996025E-02  -1.8117586738510383E-02
  -1.8328548081019302E-02  -1.8541829830480663E-02  -1.8757454066189363E-02
  -1.8975442986820711E-02  -1.9195818908372499E-02  -1.9418604262003231E-02
  -1.9643821591763127E-02  -1.9871493552215260E-02  -2.0101642905943795E-02
  -2.0334292520945863E-02  -2.0569465367904462E-02  -2.0807184517338342E-02
  -2.1047473136626419E-02  -2.1290354486902731E-02  -2.1535851919818556E-02
  -2.1783988874168443E-02  -2.2034788872376147E-02  -2.2288275516837017E-02
  -2.2544472486113101E-02  -2.2803403530976828E-02  -2.3065092470299774E-02
  -2.3329563186781942E-02  -2.3596839622518156E-02  -2.3866945774396690E-02
  -2.4139905689326332E-02  -2.4415743459287449E-02  -2.4694483216202483E-02
  -2.4976149126621418E-02  -2.5260765386217701E-02  -2.5548356214089830E-02
  -2.5838945846863873E-02  -2.6132558532591884E-02  -2.6429218524441356E-02
  -2.6728950074170785E-02  -2.7031777425385917E-02  -2.7337724806571352E-02
  -2.7646816423892866E-02  -2.7959076453763585E-02  -2.8274529035170116E-02
  -2.8593198261751669E-02  -2.8915108173627128E-02  -2.9240282748963960E-02
  -2.9568745895282900E-02  -2.9900521440492694E-02  -3.0235633123648284E-02
  -3.0574104585426524E-02  -3.0915959358312945E-02  -3.1261220856492820E-02
  -3.1609912365440522E-02  -3.1962057031199698E-02  -3.2317677849348282E-02
  -3.2676797653640788E-02  -3.3039439104321049E-02  -3.3405624676098575E-02
  -3.3775376645780827E-02  -3.4148717079554351E-02  -3.4525667819907561E-02
  -3.4906250472186547E-02  -3.5290486390777948E-02  -3.5678396664909559E-02
  -3.6070002104061534E-02  -3.6465323222980545E-02  -3.6864380226287609E-02
  -3.7267192992672844E-02  -3.7673781058667699E-02  -3.8084163601987110E-02
  -3.8498359424432659E-02  -3.8916386934347930E-02  -3.9338264128618065E-02
  -3.9764008574204167E-02  -4.0193637389203944E-02  -4.0627167223429531E-02
  -4.1064614238493363E-02  -4.1505994087393437E-02  -4.1951321893587884E-02
  -4.2400612229550556E-02  -4.2853879094797723E-02  -4.3311135893375922E-02
  -4.3772395410802904E-02  -4.4237669790450511E-02  -4.4706970509360969E-02
  -4.5180308353486569E-02  -4.5657693392342477E-02  -4.6139134953063890E-02
  -4.6624641593856847E-02  -4.7114221076833378E-02  -4.7607880340220933E-02
  -4.8105625469935853E-02  -4.8607461670511741E-02  -4.9113393235372026E-02
  -4.9623423516437205E-02  -5.0137554893057060E-02  -5.0655788740256960E-02
  -5.1178125396290040E-02  -5.1704564129483647E-02  -5.2235103104371676E-02
  -5.2769739347102308E-02  -5.3308468710111453E-02  -5.3851285836052906E-02
  -5.4398184120975190E-02  -5.4949155676735854E-02  -5.5504191292644410E-02
  -5.6063280396323384E-02  -5.6626411013780652E-02  -5.7193569728682031E-02
  -5.7764741640817158E-02  -5.8339910323749286E-02  -5.8919057781640763E-02
  -5.9502164405246583E-02  -6.0089208927068122E-02  -6.0680168375659066E-02
  -6.1275018029077213E-02  -6.1873731367473983E-02  -6.2476280024816207E-02
  -6.3082633739733510E-02  -6.3692760305484791E-02  -6.4306625519039692E-02
  -6.4924193129268282E-02  -6.5545424784235792E-02  -6.6170279977597682E-02
  -6.6798715994090999E-02  -6.7430687854120069E-02  -6.8066148257432110E-02
  -6.8705047525882884E-02  -6.9347333545289824E-02  -6.9992951706371848E-02
  -7.0641844844776952E-02  -7.1293953180196795E-02  -7.1949214254571139E-02
  -7.2607562869384107E-02  -7.3268931022054243E-02  -7.3933247841424646E-02
  -7.4600439522355733E-02  -7.5270429259428187E-02  -7.5943137179762726E-02
  -7.6618480274963430E-02  -7.7296372332195953E-02  -7.7976723864408501E-02
  -7.8659442039708635E-02  -7.9344430609907840E-02  -8.0031589838247971E-02
  -8.0720816426325032E-02  -8.1412003440226824E-02  -8.2105040235902413E-02
  -8.2799812383784449E-02  -8.3496201592683464E-02  -8.4194085632979462E-02
  -8.4893338259133574E-02  -8.5593829131547311E-02  -8.6295423737797333E-02
  -8.6997983313275948E-02  -8.7701364761269787E-02  -8.8405420572510093E-02
  -8.9109998744231977E-02  -8.9814942698780376E-02  -9.0520091201803668E-02
  -9.1225278280078828E-02  -9.1930333139011833E-02  -9.2635080079864027E-02
  -9.3339338416752182E-02  -9.4042922393478140E-02  -9.4745641100241834E-02
  -9.5447298390298876E-02  -9.6147692796621664E-02  -9.6846617448631933E-02
  -9.7543859989070211E-02  -9.8239202491074290E-02  -9.8932421375541091E-02
  -9.9623287328849161E-02  -1.0031156522102376E-01  -1.0099701402442834E-01
  -1.0167938673307175E-01  -1.0235843028262231E-01  -1.0303388547122595E-01
  -1.0370548688122712E-01  -1.0437296280189723E-01  -1.0503603515327879E-01
  -1.0569441941125680E-01  -1.0634782453397508E-01  -1.0699595288971793E-01
  -1.0763850018638318E-01  -1.0827515540267699E-01  -1.0890560072116437E-01
  -1.0952951146331713E-01  -1.1014655602670273E-01  -1.1075639582446341E-01
  -1.1135868522724231E-01  -1.1195307150771422E-01  -1.1253919478788887E-01
  -1.1311668798935556E-01  -1.1368517678664630E-01  -1.1424427956389910E-01
  -1.1479360737500892E-01  -1.1533276390745889E-01  -1.1586134545003128E-01
  -1.1637894086460303E-01  -1.1688513156223580E-01  -1.1737949148377788E-01
  -1.1786158708520034E-01  -1.1833097732789621E-01  -1.1878721367417799E-01
  -1.1922984008821357E-01  -1.1965839304264886E-01  -1.2007240153117010E-01
  -1.2047138708726622E-01  -1.2085486380945532E-01  -1.2122233839325072E-01
  -1.2157331017014195E-01  -1.2190727115387691E-01  -1.2222370609433633E-01
  -1.2252209253929651E-01  -1.2280190090438430E-01  -1.2306259455153341E-01
  -1.2330362987625641E-01  -1.2352445640405460E-01  -1.2372451689629120E-01
  -1.2390324746586172E-01  -1.2406007770299722E-01  -1.2419443081154585E-01
  -1.2430572375607957E-01  -1.2439336742017972E-01  -1.2445676677625926E-01
  -1.2449532106728520E-01  -1.2450842400076570E-01  -1.2449546395537571E-01
  -1.2445582420059244E-01  -1.2438888312972131E-01  -1.2429401450669049E-01
  -1.2417058772699957E-01  -1.2401796809320639E-01  -1.2383551710534085E-01
  -1.2362259276663244E-01  -1.2337854990494367E-01  -1.2310274051029593E-01
  -1.2279451408888072E-01  -1.2245321803394220E-01  -1.2207819801391967E-01
  -1.2166879837823494E-01  -1.2122436258110654E-01  -1.2074423362376953E-01
  -1.2022775451547545E-01  -1.1967426875364122E-01  -1.1908312082351084E-01
  -1.1845365671768600E-01  -1.1778522447587352E-01  -1.1707717474519011E-01
  -1.1632886136135490E-01  -1.1553964195108733E-01  -1.1470887855601913E-01
  -1.1383593827841373E-01  -1.1292019394897314E-01  -1.1196102481699652E-01
  -1.1095781726313926E-01  -1.0990996553499945E-01  -1.0881687250574520E-01
  -1.0767795045596949E-01  -1.0649262187894058E-01  -1.0526032030939160E-01
  -1.0398049117596612E-01  -1.0265259267741228E-01  -1.0127609668258596E-01
  -9.9850489654296673E-02  -9.8375273596997256E-02  -9.6849967028281386E-02
  -9.5274105974123252E-02  -9.3647244987750830E-02  -9.1968958192008274E-02
  -9.0238840345022567E-02  -8.8456507928939512E-02  -8.6621600261460902E-02
  -8.4733780629853983E-02  -8.2792737447063988E-02  -8.0798185429507674E-02
  -7.8749866796063744E-02  -7.6647552487732196E-02  -7.4491043407364635E-02
  -7.2280171678810956E-02  -7.0014801924766237E-02  -6.7694832562527896E-02
  -6.5320197116812598E-02  -6.2890865548702088E-02  -6.0406845599719136E-02
  -5.7868184149956405E-02  -5.5274968589090957E-02  -5.2627328199056363E-02
  -4.9925435547035379E-02  -4.7169507887358741E-02  -4.4359808570819427E-02
  -4.1496648459787289E-02  -3.8580387347456536E-02  -3.5611435379436805E-02
  -3.2590254475806740E-02  -2.9517359751682556E-02  -2.6393320934222066E-02
  -2.3218763773934056E-02  -1.9994371448058743E-02  -1.6720885953694954E-02
  -1.3399109488311772E-02  -1.0029905815169875E-02  -6.6142016111540832E-03
  -3.1529877944574784E-03   3.5267917050000008E-04   3.9016759935306148E-03
   7.4928113071887608E-03   1.1124824445999139E-02   1.4796384259081629E-02
   1.8506087958878439E-02   2.2252460008675978E-02   2.6033951051659739E-02
   2.9848936884245891E-02   3.3695717476506813E-02   3.7572516042565479E-02
   4.1477478163938618E-02   4.5408670968946324E-02   4.9364082371474396E-02
   5.3341620372571778E-02   5.7339112428621428E-02   6.1354304890069579E-02
   6.5384862515020126E-02   6.9428368062276841E-02   7.3482321968766459E-02
   7.7544142116569667E-02   8.1611163695083436E-02   8.5680639164146435E-02
   8.9749738324145192E-02   9.3815548499375068E-02   9.7875074841040674E-02
   1.0192524075636752E-01   1.0596288847035608E-01   1.0998477972660410E-01
   1.1398759663355620E-01   1.1796794266232266E-01   1.2192234380191726E-01
   1.2584724987748469E-01   1.2973903603662781E-01   1.3359400440855404E-01
   1.3740838594029459E-01   1.4117834241374932E-01   1.4489996864691795E-01
   1.4856929488222126E-01   1.5218228936447759E-01   1.5573486111081414E-01
   1.5922286287450538E-01   1.6264209430459545E-01   1.6598830530296871E-01
   1.6925719958041366E-01   1.7244443841312029E-01   1.7554564460087044E-01
   1.7855640662805555E-01   1.8147228302842397E-01   1.8428880695422170E-01
   1.8700149095010207E-01   1.8960583193183042E-01   1.9209731636944882E-01
   1.9447142567415449E-01   1.9672364178770671E-01   1.9884945297273890E-01
   2.0084435980187271E-01   2.0270388134305897E-01   2.0442356153808930E-01
   2.0599897577071646E-01   2.0742573762034006E-01   2.0869950579668886E-01
   2.0981599125042955E-01   2.1077096445409413E-01   2.1156026284718979E-01
   2.1217979843879645E-01   2.1262556556039475E-01   2.1289364876108866E-01
   2.1298023083678419E-01   2.1288160098428002E-01   2.1259416307059356E-01
   2.1211444400720375E-01   2.1143910221823339E-01   2.1056493619092387E-01
   2.0948889309606739E-01   2.0820807746536885E-01   2.0671975991200747E-01
   2.0502138587994509E-01   2.0311058440682458E-01   2.0098517688457049E-01
   1.9864318580107673E-01   1.9608284344566759E-01   1.9330260056027193E-01
   1.9030113491757397E-01   1.8707735980669818E-01   1.8363043240629656E-01
   1.7995976202429456E-01   1.7606501818287143E-01   1.7194613852670509E-01
   1.6760333653193601E-01   1.6303710899278429E-01   1.5824824326232897E-01
   1.5323782422352275E-01   1.4800724096618759E-01   1.4255819314548598E-01
   1.3689269699711587E-01   1.3101309098440581E-01   1.2492204105240184E-01
   1.1862254546407763E-01   1.1211793919392474E-01   1.0541189785431633E-01
   9.8508441130319341E-02   9.1411935698897648E-02   8.4127097608806004E-02
   7.6658994097846114E-02   6.9013044824544553E-02   6.1195022491732545E-02
   5.3211052839919920E-02   4.5067613988800652E-02   3.6771535105649004E-02
   2.8329994379973706E-02   1.9750516284365579E-02   1.1040968102415080E-02
   2.2095557057949483E-03  -6.7351814357278798E-03  -1.5784376025045520E-02
  -2.4928839499629808E-02  -3.4159069390420613E-02  -4.3465257477451884E-02
  -5.2837298734495011E-02  -6.2264801045673078E-02  -7.1737095666236830E-02
  -8.1243248387770736E-02  -9.0772071355484679E-02  -1.0031213547339378E-01
  -1.0985178332294117E-01  -1.1937914251407454E-01  -1.2888213938653617E-01
  -1.3834851298485584E-01  -1.4776582924507348E-01  -1.5712149535508149E-01
  -1.6640277428410777E-01  -1.7559679951909876E-01  -1.8469059009409691E-01
  -1.9367106604913017E-01  -2.0252506450137600E-01  -2.1123935654547785E-01
  -2.1980066521280908E-01  -2.2819568470245216E-01  -2.3641110104427812E-01
  -2.4443361426733518E-01  -2.5224996203370603E-01  -2.5984694457607882E-01
  -2.6721145066826874E-01  -2.7433048428260903E-01  -2.8119119155966227E-01
  -2.8778088773617605E-01  -2.9408708373696341E-01  -3.0009751221868430E-01
  -3.0580015293965629E-01  -3.1118325740456959E-01  -3.1623537278754549E-01
  -3.2094536516864686E-01  -3.2530244213028980E-01  -3.2929617475589923E-01
  -3.3291651905909336E-01  -3.3615383685278216E-01  -3.3899891604731247E-01
  -3.4144299034783682E-01  -3.4347775830487731E-01  -3.4509540165927977E-01
  -3.4628860291385205E-01  -3.4705056205880236E-01  -3.4737501237646184E-01
  -3.4725623525233573E-01  -3.4668907392371634E-01  -3.4566894610344179E-01
  -3.4419185542425529E-01  -3.4225440165810300E-01  -3.3985378967406049E-01
  -3.3698783710802765E-01  -3.3365498072647476E-01  -3.2985428147517504E-01
  -3.2558542821184516E-01  -3.2084874012882453E-01  -3.1564516787837588E-01
  -3.0997629341887195E-01  -3.0384432860504190E-01  -2.9725211254977768E-01
  -2.9020310778860137E-01  -2.8270139528101484E-01  -2.7475166828556274E-01
  -2.6635922514751675E-01  -2.5752996103987297E-01  -2.4827035869962413E-01
  -2.3858747820227647E-01  -2.2848894581820792E-01  -2.1798294199478691E-01
  -2.0707818850823803E-01  -1.9578393482897649E-01  -1.8410994374371717E-01
  -1.7206647627690913E-01  -1.5966427595321767E-01  -1.4691455244169344E-01
  -1.3382896462107571E-01  -1.2041960310440369E-01  -1.0669897225972287E-01
  -9.2679971762258756E-02  -7.8375877712079475E-02  -6.3800323349784221E-02
  -4.8967279401606584E-02  -3.3891034083959652E-02  -1.8586172796470953E-02
  -3.0675575316720565E-03   1.2649693971356853E-02   2.8550229302401892E-02
   4.4618482658078079E-02   6.0838696295843778E-02   7.7194942137329414E-02
   9.3671143494096401E-02   1.1025109688812024E-01   1.2691849393877319E-01
   1.4365694328719586E-01   1.6044999252788636E-01   1.7728115011664766E-01
   1.9413390722290694E-01   2.1099175949380888E-01   2.2783822869698644E-01
   2.4465688420845114E-01   2.6143136431242470E-01   2.7814539728029725E-01
   2.9478282219697599E-01   3.1132760950459704E-01   3.2776388123542849E-01
   3.4407593090866179E-01   3.6024824306866615E-01   3.7626551244570633E-01
   3.9211266272370504E-01   4.0777486490298720E-01   4.2323755524917028E-01
   4.3848645282175847E-01   4.5350757657745022E-01   4.6828726204316728E-01
   4.8281217755194744E-01   4.9706934003082159E-01   5.1104613032314816E-01
   5.2473030801846832E-01   5.3811002575070643E-01   5.5117384291045690E-01
   5.6391073869982078E-01   5.7631012443930019E-01   5.8836185501700189E-01
   6.0005623935231933E-01   6.1138404973142646E-01   6.2233652986280585E-01
   6.3290540150007735E-01   6.4308286948951099E-01   6.5286162512276413E-01
   6.6223484771331320E-01   6.7119620436822414E-01   6.7973984799377274E-01
   6.8786041365146899E-01   6.9555301346479914E-01   7.0281323035992593E-01
   7.0963711099783955E-01   7.1602115831235313E-01   7.2196232410069161E-01
   7.2745800211524259E-01   7.3250602207352755E-01   7.3710464493969929E-01
   7.4125255973897430E-01   7.4494888205466370E-01   7.4819315423582178E-01
   7.5098534722306598E-01   7.5332586379168420E-01   7.5521554292297322E-01
   7.5665566495293757E-01   7.5764795711420774E-01   7.5819459908151809E-01
   7.5829822814991454E-01   7.5796194371257408E-01   7.5718931075570184E-01
   7.5598436214517328E-01   7.5435159953809972E-01   7.5229599280793058E-01
   7.4982297792116404E-01   7.4693845324554209E-01   7.4364877430306808E-01
   7.3996074700669412E-01   7.3588161943775421E-01   7.3141907223340419E-01
   7.2658120766063727E-01   7.2137653745710817E-01   7.1581396952008358E-01
   7.0990279352419294E-01   7.0365266554704986E-01   6.9707359177964767E-01
   6.9017591139614853E-01   6.8297027865543836E-01   6.7546764430473338E-01
   6.6767923635365745E-01   6.5961654028551020E-01   6.5129127877093318E-01
   6.4271539094776931E-01   6.3390101132951904E-01   6.2486044840348520E-01
   6.1560616297824489E-01   6.0615074633864285E-01   5.9650689826497472E-01
   5.8668740497129035E-01   5.7670511701608407E-01   5.6657292723675423E-01
   5.5630374875736788E-01   5.4591049311830142E-01   5.3540604856666452E-01
   5.2480325856549992E-01   5.1411490054845865E-01   5.0335366496770195E-01
   4.9253213467164858E-01   4.8166276464934987E-01   4.7075786217704535E-01
   4.5982956740138653E-01   4.4888983439296526E-01   4.3795041270338420E-01
   4.2702282945874620E-01   4.1611837202252216E-01   4.0524807126104778E-01
   3.9442268544527709E-01   3.8365268482318332E-01   3.7294823689782658E-01
   3.6231919244690075E-01   3.5177507232029120E-01   3.4132505505261745E-01
   3.3097796532809270E-01   3.2074226333487793E-01   3.1062603504559289E-01
   3.0063698345957318E-01   2.9078242084074640E-01   2.8106926198269183E-01
   2.7150401852939759E-01   2.6209279437650007E-01   2.5284128217339508E-01
   2.4375476094158080E-01   2.3483809481898693E-01   2.2609573293399507E-01
   2.1753171040643951E-01   2.0914965046617406E-01   2.0095276767304543E-01
   1.9294387221534309E-01   1.8512537525713871E-01   1.7749929529864197E-01
   1.7006726550762777E-01   1.6283054197454844E-01   1.5579001283893396E-01
   1.4894620823029586E-01   1.4229931096307827E-01   1.3584916792206789E-01
   1.2959530207231915E-01   1.2353692502593944E-01   1.1767295009692379E-01
   1.1200200577484214E-01   1.0652244954822529E-01   1.0123238200914408E-01
   9.6129661171652003E-02   9.1211916938282317E-02   8.6476565650835890E-02
   8.1920824664040409E-02   7.7541726883333315E-02   7.3336135211072837E-02
   6.9300756848672235E-02   6.5432157405721503E-02   6.1726774770833874E-02
   5.8180932702848506E-02   5.4790854105096966E-02   5.1552673949554942E-02
   4.8462451821966047E-02   4.5516184063274290E-02   4.2709815486931244E-02
   4.0039250655827217E-02   3.7500364706604485E-02   3.5089013712943658E-02
   3.2801044582980575E-02   3.0632304489246719E-02   2.8578649832407547E-02
   2.6635954742519966E-02   2.4800119123542672E-02   2.3067076248375670E-02
   2.1432799912789000E-02   1.9893311157245949E-02   1.8444684565852010E-02
   1.7083054151544524E-02   1.5804618836210257E-02   1.4605647533785425E-02
   1.3482483843603265E-02   1.2431550360403229E-02   1.1449352606583849E-02
   1.0532482591511769E-02   9.6776220020905433E-03   8.8815450283575223E-03
   8.1411208276653581E-03   7.4533156310449987E-03   6.8151944956187545E-03
   6.2239227074608865E-03   5.6767668400649965E-03   5.1710954746099214E-03
   4.7043795878141791E-03   4.2741926234289044E-03   3.8782102322904356E-03
   3.5142097412090485E-03   3.1800693032096642E-03   2.8737667869874312E-03
   2.5933784023267296E-03   2.3370770809741262E-03   2.1031306300239739E-03
   1.8898996757893663E-03   1.6958354168186134E-03   1.5194772052262108E-03
   1.3594499758379480E-03   1.2144615428006265E-03   1.0832997832774961E-03
   9.6482972765215202E-04   8.5799057530320611E-04   7.6179265450083272E-04
   6.7531434433163091E-04   5.9769897578910839E-04   5.2815172829577691E-04
   4.6593653696047979E-04   4.1037302484004914E-04   3.6083347338395434E-04
   3.1673984310832281E-04   2.7756085538858770E-04   2.4280914509065352E-04
   2.1203849259299266E-04   1.8484114259810538E-04   1.6084521600243925E-04
   1.3971221999832824E-04   1.2113466052933126E-04   1.0483376021728755E-04
   9.0557283932549165E-05   7.8077473292471910E-05   6.7189090551297793E-05
   5.7707571589265700E-05   4.9467287022223723E-05   4.2319909835447582E-05
   3.6132887396771976E-05   3.0788015223832880E-05   2.6180109465694793E-05
   2.2215774709753017E-05   1.8812263436036110E-05   1.5896423211058874E-05
   1.3403727538199221E-05   1.1277386157400790E-05   9.4675305100693385E-06
   7.9304700511532473E-06   6.6280150954320623E-06
       </PP_GIPAW_WFS_AE>
       <PP_GIPAW_WFS_PS size="1106">
   0.0000000000000000E+00   5.0033506533917196E-06   5.0662850572511415E-06
   5.1300110784619868E-06   5.1945386743437618E-06   5.2598779274646148E-06
   5.3260390472158420E-06   5.3930323714070812E-06   5.4608683678815968E-06
   5.5295576361519234E-06   5.5991109090560532E-06   5.6695390544344526E-06
   5.7408530768282076E-06   5.8130641191984897E-06   5.8861834646676625E-06
   5.9602225382823122E-06   6.0351929087984068E-06   6.1111062904889612E-06
   6.1879745449744172E-06   6.2658096830760245E-06   6.3446238666925809E-06
   6.4244294107007195E-06   6.5052387848791864E-06   6.5870646158572084E-06
   6.6699196890874833E-06   6.7538169508439009E-06   6.8387695102444260E-06
   6.9247906412994410E-06   7.0118937849858295E-06   7.1000925513471494E-06
   7.1894007216202379E-06   7.2798322503885612E-06   7.3714012677626379E-06
   7.4641220815878970E-06   7.5580091796803257E-06   7.6530772320901989E-06
   7.7493410933943010E-06   7.8468158050170250E-06   7.9455165975805813E-06
   8.0454588932848201E-06   8.1466583083170074E-06   8.2491306552918700E-06
   8.3528919457223311E-06   8.4579583925213793E-06   8.5643464125353415E-06
   8.6720726291090623E-06   8.7811538746833346E-06   8.8916071934249902E-06
   9.0034498438900992E-06   9.1166993017206550E-06   9.2313732623751729E-06
   9.3474896438936482E-06   9.4650665896972776E-06   9.5841224714234243E-06
   9.7046758917961961E-06   9.8267456875331857E-06   9.9503509322887298E-06
   1.0075510939634227E-05   1.0202245266075892E-05   1.0330573714110525E-05
   1.0460516335319691E-05   1.0592093433502813E-05   1.0725325567849674E-05
   1.0860233556152861E-05   1.0996838478060567E-05   1.1135161678370317E-05
   1.1275224770364188E-05   1.1417049639185843E-05   1.1560658445260242E-05
   1.1706073627756155E-05   1.1853317908092380E-05   1.2002414293487989E-05
   1.2153386080557285E-05   1.2306256858949914E-05   1.2461050515036801E-05
   1.2617791235642474E-05   1.2776503511824267E-05   1.2937212142699124E-05
   1.3099942239318495E-05   1.3264719228592013E-05   1.3431568857260487E-05
   1.3600517195918901E-05   1.3771590643089939E-05   1.3944815929348895E-05
   1.4120220121500334E-05   1.4297830626807325E-05   1.4477675197273923E-05
   1.4659781933981450E-05   1.4844179291479358E-05   1.5030896082231289E-05
   1.5219961481117130E-05   1.5411405029991614E-05   1.5605256642300301E-05
   1.5801546607753614E-05   1.6000305597059684E-05   1.6201564666716718E-05
   1.6405355263865621E-05   1.6611709231203674E-05   1.6820658811960059E-05
   1.7032236654933899E-05   1.7246475819595717E-05   1.7463409781253054E-05
   1.7683072436281020E-05   1.7905498107418717E-05   1.8130721549132229E-05
   1.8358777953045079E-05   1.8589702953436984E-05   1.8823532632811807E-05
   1.9060303527535517E-05   1.9300052633545046E-05   1.9542817412129063E-05
   1.9788635795781272E-05   2.0037546194127539E-05   2.0289587499927439E-05
   2.0544799095151332E-05   2.0803220857133862E-05   2.1064893164804951E-05
   2.1329856904998993E-05   2.1598153478843603E-05   2.1869824808228570E-05
   2.2144913342356258E-05   2.2423462064374422E-05   2.2705514498092357E-05
   2.2991114714781647E-05   2.3280307340062360E-05   2.3573137560875928E-05
   2.3869651132545673E-05   2.4169894385926206E-05   2.4473914234642693E-05
   2.4781758182421260E-05   2.5093474330511519E-05   2.5409111385202524E-05
   2.5728718665433162E-05   2.6052346110498474E-05   2.6380044287852646E-05
   2.6711864401010435E-05   2.7047858297547656E-05   2.7388078477202651E-05
   2.7732578100079385E-05   2.8081410994953854E-05   2.8434631667685012E-05
   2.8792295309731345E-05   2.9154457806774727E-05   2.9521175747452657E-05
   2.9892506432200352E-05   3.0268507882204153E-05   3.0649238848467349E-05
   3.1034758820990230E-05   3.1425128038065581E-05   3.1820407495690874E-05
   3.2220658957099247E-05   3.2625944962410147E-05   3.3036328838401076E-05
   3.3451874708402947E-05   3.3872647502319235E-05   3.4298712966771561E-05
   3.4730137675372731E-05   3.5166989039128959E-05   3.5609335316972990E-05
   3.6057245626429925E-05   3.6510789954416816E-05   3.6970039168178229E-05
   3.7435065026359612E-05   3.7905940190219688E-05   3.8382738234983912E-05
   3.8865533661340834E-05   3.9354401907082921E-05   3.9849419358894084E-05
   4.0350663364285145E-05   4.0858212243679548E-05   4.1372145302651289E-05
   4.1892542844316452E-05   4.2419486181880916E-05   4.2953057651345564E-05
   4.3493340624371752E-05   4.4040419521308052E-05   4.4594379824381406E-05
   4.5155308091053839E-05   4.5723291967547323E-05   4.6298420202538620E-05
   4.6880782661026651E-05   4.7470470338374108E-05   4.8067575374525699E-05
   4.8672191068405242E-05   4.9284411892493906E-05   4.9904333507591771E-05
   5.0532052777765160E-05   5.1167667785481941E-05   5.1811277846937050E-05
   5.2462983527570937E-05   5.3122886657783399E-05   5.3791090348844753E-05
   5.4467699009007109E-05   5.5152818359818804E-05   5.5846555452643455E-05
   5.6549018685387063E-05   5.7260317819435663E-05   5.7980563996805703E-05
   5.8709869757510449E-05   5.9448349057144548E-05   6.0196117284690231E-05
   6.0953291280546833E-05   6.1719989354787816E-05   6.2496331305646863E-05
   6.3282438438236720E-05   6.4078433583503714E-05   6.4884441117420407E-05
   6.5700586980419699E-05   6.6526998697073329E-05   6.7363805396018309E-05
   6.8211137830133470E-05   6.9069128396970220E-05   6.9937911159439922E-05
   7.0817621866761925E-05   7.1708397975674576E-05   7.2610378671913607E-05
   7.3523704891960361E-05   7.4448519345063349E-05   7.5384966535537473E-05
   7.6333192785343193E-05   7.7293346256949823E-05   7.8265576976486645E-05
   7.9250036857184963E-05   8.0246879723115010E-05   8.1256261333221958E-05
   8.2278339405663514E-05   8.3313273642454243E-05   8.4361225754419364E-05
   8.5422359486463122E-05   8.6496840643154540E-05   8.7584837114634657E-05
   8.8686518902850861E-05   8.9802058148119761E-05   9.0931629156025022E-05
   9.2075408424653773E-05   9.3233574672174749E-05   9.4406308864764253E-05
   9.5593794244882717E-05   9.6796216359907122E-05   9.8013763091123939E-05
   9.9246624683086527E-05   1.0049499377334144E-04   1.0175906542252918E-04
   1.0303903714486386E-04   1.0433510893899504E-04   1.0564748331925913E-04
   1.0697636534732326E-04   1.0832196266422715E-04   1.0968448552282822E-04
   1.1106414682065495E-04   1.1246116213317312E-04   1.1387574974747074E-04
   1.1530813069636682E-04   1.1675852879294926E-04   1.1822717066554628E-04
   1.1971428579313963E-04   1.2122010654122099E-04   1.2274486819810137E-04
   1.2428880901167621E-04   1.2585217022665311E-04   1.2743519612224785E-04
   1.2903813405035525E-04   1.3066123447419886E-04   1.3230475100746829E-04
   1.3396894045394791E-04   1.3565406284764411E-04   1.3736038149341824E-04
   1.3908816300812934E-04   1.4083767736229553E-04   1.4260919792227878E-04
   1.4440300149300077E-04   1.4621936836119623E-04   1.4805858233920944E-04
   1.4992093080934291E-04   1.5180670476876333E-04   1.5371619887497213E-04
   1.5564971149184870E-04   1.5760754473627259E-04   1.5959000452533186E-04
   1.6159740062412573E-04   1.6363004669416839E-04   1.6568826034240200E-04
   1.6777236317082559E-04   1.6988268082674901E-04   1.7201954305367896E-04
   1.7418328374284452E-04   1.7637424098537215E-04   1.7859275712511525E-04
   1.8083917881215017E-04   1.8311385705694426E-04   1.8541714728520465E-04
   1.8774940939341982E-04   1.9011100780509560E-04   1.9250231152770272E-04
   1.9492369421033855E-04   1.9737553420211452E-04   1.9985821461127859E-04
   2.0237212336508172E-04   2.0491765327039605E-04   2.0749520207509801E-04
   2.1010517253022067E-04   2.1274797245289195E-04   2.1542401479005994E-04
   2.1813371768302449E-04   2.2087750453277761E-04   2.2365580406616688E-04
   2.2646905040289180E-04   2.2931768312334225E-04   2.3220214733729060E-04
   2.3512289375344890E-04   2.3808037874989931E-04   2.4107506444541324E-04
   2.4410741877166518E-04   2.4717791554635732E-04   2.5028703454726259E-04
   2.5343526158719926E-04   2.5662308858995209E-04   2.5985101366714323E-04
   2.6311954119607409E-04   2.6642918189854716E-04   2.6978045292067596E-04
   2.7317387791370455E-04   2.7660998711583675E-04   2.8008931743510242E-04
   2.8361241253326117E-04   2.8717982291076615E-04   2.9079210599279056E-04
   2.9444982621634432E-04   2.9815355511848097E-04   3.0190387142561717E-04
   3.0570136114397732E-04   3.0954661765117121E-04   3.1344024178893171E-04
   3.1738284195701122E-04   3.2137503420826593E-04   3.2541744234493541E-04
   3.2951069801612963E-04   3.3365544081654866E-04   3.3785231838644137E-04
   3.4210198651282101E-04   3.4640510923195957E-04   3.5076235893316548E-04
   3.5517441646387178E-04   3.5964197123604673E-04   3.6416572133393980E-04
   3.6874637362319107E-04   3.7338464386130427E-04   3.7808125680951777E-04
   3.8283694634608109E-04   3.8765245558095571E-04   3.9252853697196435E-04
   3.9746595244239433E-04   4.0246547350008822E-04   4.0752788135803091E-04
   4.1265396705645333E-04   4.1784453158647748E-04   4.2310038601531052E-04
   4.2842235161302193E-04   4.3381125998091438E-04   4.3926795318150711E-04
   4.4479328387016270E-04   4.5038811542836269E-04   4.5605332209866701E-04
   4.6178978912137181E-04   4.6759841287288389E-04   4.7348010100584342E-04
   4.7943577259100463E-04   4.8546635826090623E-04   4.9157280035535243E-04
   4.9775605306872034E-04   5.0401708259913093E-04   5.1035686729948571E-04
   5.1677639783041915E-04   5.2327667731516753E-04   5.2985872149639162E-04
   5.3652355889497480E-04   5.4327223097081954E-04   5.5010579228567040E-04
   5.5702531066798705E-04   5.6403186737989143E-04   5.7112655728622631E-04
   5.7831048902572948E-04   5.8558478518437747E-04   5.9295058247090589E-04
   6.0040903189454071E-04   6.0796129894497128E-04   6.1560856377459181E-04
   6.2335202138303161E-04   6.3119288180401927E-04   6.3913237029459560E-04
   6.4717172752671442E-04   6.5531220978125445E-04   6.6355508914447579E-04
   6.7190165370695654E-04   6.8035320776503345E-04   6.8891107202477813E-04
   6.9757658380855715E-04   7.0635109726417385E-04   7.1523598357666851E-04
   7.2423263118277564E-04   7.3334244598808685E-04   7.4256685158695813E-04
   7.5190728948517759E-04   7.6136521932545533E-04   7.7094211911574119E-04
   7.8063948546043570E-04   7.9045883379451082E-04   8.0040169862057747E-04
   8.1046963374895790E-04   8.2066421254077060E-04   8.3098702815408902E-04
   8.4143969379321432E-04   8.5202384296106937E-04   8.6274112971480540E-04
   8.7359322892461351E-04   8.8458183653580965E-04   8.9570866983423446E-04
   9.0697546771498401E-04   9.1838399095455414E-04   9.2993602248640415E-04
   9.4163336768000720E-04   9.5347785462342844E-04   9.6547133440945409E-04
   9.7761568142535715E-04   9.8991279364630158E-04   1.0023645929324663E-03
   1.0149730253299217E-03   1.0277400613752962E-03   1.0406676964043065E-03
   1.0537579508641756E-03   1.0670128706300069E-03   1.0804345273251574E-03
   1.0940250186456479E-03   1.1077864686886939E-03   1.1217210282853758E-03
   1.1358308753375203E-03   1.1501182151588544E-03   1.1645852808204477E-03
   1.1792343335005531E-03   1.1940676628388587E-03   1.2090875872952263E-03
   1.2242964545129734E-03   1.2396966416867478E-03   1.2552905559350652E-03
   1.2710806346775628E-03   1.2870693460170280E-03   1.3032591891262760E-03
   1.3196526946399130E-03   1.3362524250510777E-03   1.3530609751132090E-03
   1.3700809722468972E-03   1.3873150769519130E-03   1.4047659832244319E-03
   1.4224364189795854E-03   1.4403291464793464E-03   1.4584469627658588E-03
   1.4767927001002636E-03   1.4953692264070906E-03   1.5141794457243004E-03
   1.5332262986590423E-03   1.5525127628491927E-03   1.5720418534307819E-03
   1.5918166235113272E-03   1.6118401646492179E-03   1.6321156073391717E-03
   1.6526461215038886E-03   1.6734349169919419E-03   1.6944852440820193E-03
   1.7158003939935756E-03   1.7373836994039988E-03   1.7592385349723509E-03
   1.7813683178698042E-03   1.8037765083168157E-03   1.8264666101271664E-03
   1.8494421712589469E-03   1.8727067843725526E-03   1.8962640873958266E-03
   1.9201177640964006E-03   1.9442715446613597E-03   1.9687292062843141E-03
   1.9934945737599633E-03   2.0185715200863050E-03   2.0439639670744828E-03
   2.0696758859665089E-03   2.0957112980608595E-03   2.1220742753460899E-03
   2.1487689411425945E-03   2.1757994707525619E-03   2.2031700921182934E-03
   2.2308850864889772E-03   2.2589487890959997E-03   2.2873655898369674E-03
   2.3161399339685002E-03   2.3452763228079387E-03   2.3747793144441053E-03
   2.4046535244571870E-03   2.4349036266479245E-03   2.4655343537761743E-03
   2.4965504983090309E-03   2.5279569131785788E-03   2.5597585125494522E-03
   2.5919602725963087E-03   2.6245672322913697E-03   2.6575844942021256E-03
   2.6910172252994119E-03   2.7248706577759391E-03   2.7591500898754453E-03
   2.7938608867326097E-03   2.8290084812238785E-03   2.8645983748293627E-03
   2.9006361385059362E-03   2.9371274135717236E-03   2.9740779126020945E-03
   3.0114934203373631E-03   3.0493797946023449E-03   3.0877429672379066E-03
   3.1265889450447335E-03   3.1659238107394250E-03   3.2057537239231480E-03
   3.2460849220629722E-03   3.2869237214861280E-03   3.3282765183872943E-03
   3.3701497898491824E-03   3.4125500948765323E-03   3.4554840754437688E-03
   3.4989584575564978E-03   3.5429800523270106E-03   3.5875557570640509E-03
   3.6326925563769908E-03   3.6783975232947065E-03   3.7246778203992668E-03
   3.7715407009747477E-03   3.8189935101713233E-03   3.8670436861848729E-03
   3.9156987614524068E-03   3.9649663638634041E-03   4.0148542179874328E-03
   4.0653701463182158E-03   4.1165220705344282E-03   4.1683180127774352E-03
   4.2207660969462938E-03   4.2738745500102140E-03   4.3276517033387493E-03
   4.3821059940500470E-03   4.4372459663773612E-03   4.4930802730541800E-03
   4.5496176767181613E-03   4.6068670513342777E-03   4.6648373836373708E-03
   4.7235377745944900E-03   4.7829774408872884E-03   4.8431657164148103E-03
   4.9041120538169626E-03   4.9658260260190285E-03   5.0283173277975799E-03
   5.0915957773680440E-03   5.1556713179944117E-03   5.2205540196212747E-03
   5.2862540805287224E-03   5.3527818290103543E-03   5.4201477250748588E-03
   5.4883623621714778E-03   5.5574364689398399E-03   5.6273809109844697E-03
   5.6982066926745019E-03   5.7699249589689148E-03   5.8425469972677750E-03
   5.9160842392899406E-03   5.9905482629776189E-03   6.0659507944283396E-03
   6.1423037098546854E-03   6.2196190375724313E-03   6.2979089600174089E-03
   6.3771858157917133E-03   6.4574621017397657E-03   6.5387504750547406E-03
   6.6210637554158774E-03   6.7044149271572717E-03   6.7888171414687221E-03
   6.8742837186291554E-03   6.9608281502733264E-03   7.0484641016922795E-03
   7.1372054141683357E-03   7.2270661073451248E-03   7.3180603816333850E-03
   7.4102026206532634E-03   7.5035073937136324E-03   7.5979894583293392E-03
   7.6936637627769292E-03   7.7905454486897827E-03   7.8886498536932317E-03
   7.9879925140806367E-03   8.0885891675309754E-03   8.1904557558691426E-03
   8.2936084278693832E-03   8.3980635421030854E-03   8.5038376698316157E-03
   8.6109475979451872E-03   8.7194103319487345E-03   8.8292430989956854E-03
   8.9404633509706961E-03   9.0530887676223623E-03   9.1671372597468513E-03
   9.2826269724237461E-03   9.3995762883049925E-03   9.5180038309582559E-03
   9.6379284682657045E-03   9.7593693158795885E-03   9.8823457407357408E-03
   1.0006877364626288E-02   1.0132984067832945E-02   1.0260685992822214E-02
   1.0390003548003755E-02   1.0520957411553596E-02   1.0653568535303427E-02
   1.0787858148697614E-02   1.0923847762819492E-02   1.1061559174488393E-02
   1.1201014470429328E-02   1.1342236031516666E-02   1.1485246537093955E-02
   1.1630068969371339E-02   1.1776726617902619E-02   1.1925243084143838E-02
   1.2075642286095282E-02   1.2227948463029071E-02   1.2382186180304245E-02
   1.2538380334271626E-02   1.2696556157270691E-02   1.2856739222720539E-02
   1.3018955450307653E-02   1.3183231111272601E-02   1.3349592833798125E-02
   1.3518067608501624E-02   1.3688682794034167E-02   1.3861466122789115E-02
   1.4036445706723133E-02   1.4213650043292343E-02   1.4393108021506845E-02
   1.4574848928106544E-02   1.4758902453861553E-02   1.4945298700000588E-02
   1.5134068184770307E-02   1.5325241850129942E-02   1.5518851068583890E-02
   1.5714927650156509E-02   1.5913503849513334E-02   1.6114612373231568E-02
   1.6318286387225458E-02   1.6524559524329348E-02   1.6733465892043591E-02
   1.6945040080448063E-02   1.7159317170286841E-02   1.7376332741230207E-02
   1.7596122880317960E-02   1.7818724190589136E-02   1.8044173799904660E-02
   1.8272509369966376E-02   1.8503769105540000E-02   1.8737991763886602E-02
   1.8975216664408705E-02   1.9215483698518245E-02   1.9458833339731033E-02
   1.9705306653995822E-02   1.9954945310264142E-02   2.0207791591307558E-02
   2.0463888404790565E-02   2.0723279294605514E-02   2.0986008452478121E-02
   2.1252120729850835E-02   2.1521661650052828E-02   2.1794677420764713E-02
   2.2071214946786984E-02   2.2351321843120730E-02   2.2635046448370645E-02
   2.2922437838479113E-02   2.3213545840802000E-02   2.3508421048535583E-02
   2.3807114835506224E-02   2.4109679371332196E-02   2.4416167636970233E-02
   2.4726633440657623E-02   2.5041131434261444E-02   2.5359717130048524E-02
   2.5682446917886861E-02   2.6009378082893313E-02   2.6340568823540113E-02
   2.6676078270233581E-02   2.7015966504381032E-02   2.7360294577958435E-02
   2.7709124533595197E-02   2.8062519425192257E-02   2.8420543339087258E-02
   2.8783261415786493E-02   2.9150739872277818E-02   2.9523046024943215E-02
   2.9900248313090273E-02   3.0282416323118188E-02   3.0669620813340629E-02
   3.1061933739482874E-02   3.1459428280873676E-02   3.1862178867354568E-02
   3.2270261206924625E-02   3.2683752314145928E-02   3.3102730539330147E-02
   3.3527275598529652E-02   3.3957468604358367E-02   3.4393392097664607E-02
   3.4835130080082495E-02   3.5282768047487367E-02   3.5736393024380551E-02
   3.6196093599232190E-02   3.6661959960808142E-02   3.7134083935510181E-02
   3.7612559025758767E-02   3.8097480449446892E-02   3.8588945180496909E-02
   3.9087051990550500E-02   3.9591901491823532E-02   4.0103596181159135E-02
   4.0622240485310809E-02   4.1147940807490915E-02   4.1680805575217431E-02
   4.2220945289496312E-02   4.2768472575372585E-02   4.3323502233889331E-02
   4.3886151295490054E-02   4.4456539074901831E-02   4.5034787227540306E-02
   4.5621019807471477E-02   4.6215363326972722E-02   4.6817946817732298E-02
   4.7428901893726581E-02   4.8048362815818285E-02   4.8676466558114098E-02
   4.9313352876125233E-02   4.9959164376773446E-02   5.0614046590281556E-02
   5.1278148043995130E-02   5.1951620338174069E-02   5.2634618223797669E-02
   5.3327299682427949E-02   5.4029826008168857E-02   5.4742361891768065E-02
   5.5465075506900267E-02   5.6198138598672460E-02   5.6941726574396521E-02
   5.7696018596661812E-02   5.8461197678753463E-02   5.9237450782450768E-02
   6.0024968918242098E-02   6.0823947247995266E-02   6.1634585190112626E-02
   6.2457086527206440E-02   6.3291659516323984E-02   6.4138517001748135E-02
   6.4997876530402524E-02   6.5869960469880959E-02   6.6754996129122085E-02
   6.7653215881746734E-02   6.8564857292067932E-02   6.9490163243786374E-02
   7.0429382071372268E-02   7.1382767694136692E-02   7.2350579752985339E-02
   7.3333083749844347E-02   7.4330551189743424E-02   7.5343259725531520E-02
   7.6371493305197213E-02   7.7415542321754793E-02   7.8475703765655325E-02
   7.9552281379663831E-02   8.0645585816146309E-02   8.1755934796691868E-02
   8.2883653273987348E-02   8.4029073595856318E-02   8.5192535671352779E-02
   8.6374387138796624E-02   8.7574983535623013E-02   8.8794688469897590E-02
   9.0033873793346555E-02   9.1292919775725428E-02   9.2572215280337281E-02
   9.3872157940500300E-02   9.5193154336733476E-02   9.6535620174428460E-02
   9.7899980461738353E-02   9.9286669687404960E-02   1.0069613199822548E-01
   1.0212882137582646E-01   1.0358520181240416E-01   1.0506574748505534E-01
   1.0657094292830077E-01   1.0810128320438331E-01   1.0965727407088607E-01
   1.1123943214519605E-01   1.1284828506530784E-01   1.1448437164642962E-01
   1.1614824203283056E-01   1.1784045784432974E-01   1.1956159231680191E-01
   1.2131223043603796E-01   1.2309296906426923E-01   1.2490441705863002E-01
   1.2674719538079710E-01   1.2862193719701617E-01   1.3052928796768207E-01
   1.3246990552561788E-01   1.3444446014215283E-01   1.3645363458006754E-01
   1.3849812413245016E-01   1.4057863664645567E-01   1.4269589253095000E-01
   1.4485062474697280E-01   1.4704357877992402E-01   1.4927551259236421E-01
   1.5154719655626667E-01   1.5385941336355610E-01   1.5621295791373360E-01
   1.5860863717735593E-01   1.6104727003414651E-01   1.6352968708445847E-01
   1.6605673043282684E-01   1.6862925344232721E-01   1.7124812045842769E-01
   1.7391420650105729E-01   1.7662839692356477E-01   1.7939158703727190E-01
   1.8220468170033063E-01   1.8506859486956770E-01   1.8798424911405823E-01
   1.9095257508913821E-01   1.9397451096960497E-01   1.9705100184087240E-01
   2.0018299904684797E-01   2.0337145949333871E-01   2.0661734490579883E-01
   2.0992162104024617E-01   2.1328525684621119E-01   2.1670922358055858E-01
   2.2019449387105772E-01   2.2374204072855730E-01   2.2735283650660276E-01
   2.3102785180732863E-01   2.3476805433238346E-01   2.3857440767761101E-01
   2.4244787007010185E-01   2.4638939304612967E-01   2.5039992006833028E-01
   2.5448038508029475E-01   2.5863171099652904E-01   2.6285480812543305E-01
   2.6715057252263763E-01   2.7151988427162344E-01   2.7596360568807288E-01
   2.8048257944386851E-01   2.8507762660599034E-01   2.8974954458484603E-01
   2.9449910498571974E-01   2.9932705135605109E-01   3.0423409682021207E-01
   3.0922092159217940E-01   3.1428817035519124E-01   3.1943644949594779E-01
   3.2466632417923230E-01   3.2997831524704929E-01   3.3537289592431807E-01
   3.4085048831104697E-01   3.4641145963855363E-01   3.5205611826477645E-01
   3.5778470938111262E-01   3.6359741040033750E-01   3.6949432599226056E-01
   3.7547548273072573E-01   3.8154082331235867E-01   3.8769020030437834E-01
   3.9392336937550632E-01   4.0023998196093524E-01   4.0663957730931599E-01
   4.1312157385683124E-01   4.1968525987099958E-01   4.2632978330464216E-01
   4.3305414079883403E-01   4.3985716577275075E-01   4.4673751553803098E-01
   4.5369365737619327E-01   4.6072385351951473E-01   4.6782614497912384E-01
   4.7499833416898779E-01   4.8223796628114807E-01   4.8954230937640841E-01
   4.9690833316580385E-01   5.0433268647194629E-01   5.1181167337601297E-01
   5.1934122807596517E-01   5.2691688850489649E-01   5.3453376878539571E-01
   5.4218653062674715E-01   5.4986935380690261E-01   5.5757590592051798E-01
   5.6529931161814806E-01   5.7303212160983641E-01   5.8076628175886547E-01
   5.8849310264801202E-01   5.9620323006104370E-01   6.0388661688588052E-01
   6.1153249701204249E-01   6.1912936186302614E-01   6.2666494027301001E-01
   6.3412618248612829E-01   6.4149924912229683E-01   6.4876950601369354E-01
   6.5592152587019281E-01   6.6293909777695803E-01   6.6980524556007159E-01
   6.7650225607345393E-01   6.8301171845853914E-01   6.8931457540385532E-01
   6.9539118738057759E-01   7.0122141074822308E-01   7.0678469050806259E-01
   7.1206016832617747E-01   7.1702680624995152E-01   7.2166352629771924E-01
   7.2594936580850822E-01   7.2986364809583681E-01   7.3338616755537600E-01
   7.3649738793208075E-01   7.3917865196059662E-01   7.4141240005808451E-01
   7.4318239517826534E-01   7.4447395033935360E-01   7.4527415472955993E-01
   7.4557209368832045E-01   7.4535905727909091E-01   7.4462873163373589E-01
   7.4337736678615196E-01   7.4160391435389905E-01   7.3931012820440134E-01
   7.3650062119204340E-01   7.3318287121095349E-01   7.2936717021233854E-01
   7.2506651052044135E-01   7.2029640377987303E-01   7.1507462920621212E-01
   7.0942090951042125E-01   7.0335651493430251E-01   6.9690379826373960E-01
   6.9008566645710301E-01   6.8292499759332337E-01   6.7544401491391581E-01
   6.6766363295489206E-01   6.5960279684168788E-01   6.5127783777434045E-01
   6.4270218977515015E-01   6.3388804080368910E-01   6.2484770947320023E-01
   6.1559365578970426E-01   6.0613847074786287E-01   5.9649485389961010E-01
   5.8667559124604662E-01   5.7669353314726179E-01   5.6656157225627557E-01
   5.5629262152619685E-01   5.4589959233856200E-01   5.3539537279599292E-01
   5.2479280622781554E-01   5.1410466994526549E-01   5.0334365428878647E-01
   4.9252234200521283E-01   4.8165318799157458E-01   4.7074849944110098E-01
   4.5982041642589144E-01   4.4888089294990624E-01   4.3794167850550858E-01
   4.2701430016644076E-01   4.1611004525019257E-01   4.0523994458301277E-01
   3.9441475640119344E-01   3.8364495092302042E-01   3.7294069562640214E-01
   3.6231184126800187E-01   3.5176790868039104E-01   3.4131807638420847E-01
   3.3097116905265345E-01   3.2073564686549066E-01   3.1061959578922821E-01
   3.0063071881906239E-01   2.9077632821645738E-01   2.8106333877392692E-01
   2.7149826213553357E-01   2.6208720219788828E-01   2.5283585161204225E-01
   2.4374948940162958E-01   2.3483297970701775E-01   2.2609077165917008E-01
   2.1752690038050967E-01   2.0914498910337131E-01   2.0094825238988137E-01
   1.9293950043033553E-01   1.8512114439048810E-01   1.7749520277187844E-01
   1.7006330874324876E-01   1.6282671839566595E-01   1.5578631986895111E-01
   1.4894264329262891E-01   1.4229587148094039E-01   1.3584585131832916E-01
   1.2959210576945543E-01   1.2353384644608076E-01   1.1766998666201293E-01
   1.1199915490690966E-01   1.0651970866978727E-01   1.0122974854372677E-01
   9.6127132544445701E-02   9.1209490576924859E-02   8.6474238986325141E-02
   8.1918595131772978E-02   7.7539591924266571E-02   7.3334092273003845E-02
   6.9298803387628602E-02   6.5430290887456416E-02   6.1724992672416684E-02
   5.8179232514342906E-02   5.4789233331316023E-02   5.1551130111883316E-02
   4.8460982460238430E-02   4.5514786737698827E-02   4.2708487780046857E-02
   4.0037990174482750E-02   3.7499169083948340E-02   3.5087880610412049E-02
   3.2799971692272799E-02   3.0631289534276299E-02   2.8577690571217576E-02
   2.6635048969152340E-02   2.4799264669850569E-02   2.3066270985769421E-02
   2.1432041753906145E-02   1.9892598057536615E-02   1.8444014525071786E-02
   1.7082425215147353E-02   1.5804029096635048E-02   1.4605095131630483E-02
   1.3481966968683637E-02   1.2431067252687075E-02   1.1448901557004272E-02
   1.0532061942651929E-02   9.6772301487402269E-03   8.8811804179404572E-03
   8.1407819605371357E-03   7.4530010606622434E-03   6.8149028285810096E-03
   6.2236526034271872E-03   5.6765170115478884E-03   5.1708646866501524E-03
   4.7041666575397814E-03   4.2739964195047248E-03   3.8780296742588240E-03
   3.5140437987321799E-03   3.1799169952159115E-03   2.8736271807287559E-03
   2.5932506123535143E-03   2.3369602680340276E-03   2.1030239998915982E-03
   1.8898024780337596E-03   1.6957469435156499E-03   1.5193967896230008E-03
   1.3593769909764160E-03   1.2143954001073382E-03   1.0832399311267518E-03
   9.6477564990920248E-04   8.5794178985428373E-04   7.6174871177647047E-04
   6.7527482582948402E-04   5.9766349260221131E-04   5.2811991965184910E-04
   4.6590806877755376E-04   4.1034758830332384E-04   3.6081078354840914E-04
   3.1671963753121752E-04   2.7754289279558251E-04   2.4279320407886702E-04
   2.1202437037390879E-04   1.8482865378283207E-04   1.6083419143141976E-04
   1.3970250561721347E-04   1.2112611631234268E-04   1.0482625913903274E-04
   9.0550710988906766E-05   7.8071724570832280E-05   6.7184072350139198E-05
   5.7703199586759879E-05   4.9463485493304247E-05   4.2316610916535668E-05
   3.6130030397141579E-05   3.0785545982409224E-05   2.6177979751915604E-05
   2.2213941666981799E-05   1.8810689065900914E-05   1.5895073896994968E-05
   1.3402573606401692E-05   1.1276401473341002E-05   9.4666921086950660E-06
   7.9297577988769784E-06   6.6274113820119265E-06
       </PP_GIPAW_WFS_PS>
     </PP_GIPAW_ORBITAL.2>
     <PP_GIPAW_ORBITAL.3 index="3" label="4P" l="1" cutoff_radius="  2.18987755406557" ultrasoft_cutoff_radius="  2.18987755406557">
       <PP_GIPAW_WFS_AE size="1106">
   0.0000000000000000E+00   7.6484061332555321E-08   7.8076669550244456E-08
   7.9705193258979592E-08   8.1370509412673843E-08   8.3073419859552839E-08
   8.4814714553655241E-08   8.6595200613103848E-08   8.8415703383093769E-08
   9.0277066823930848E-08   9.2180153906425886E-08   9.4125847016147419E-08
   9.6115048366849122E-08   9.8148680423272996E-08   1.0022768633353242E-07
   1.0235303037128231E-07   1.0452569838788915E-07   1.0674669827481963E-07
   1.0901706043646789E-07   1.1133783827365213E-07   1.1371010867801109E-07
   1.1613497253754024E-07   1.1861355525351170E-07   1.2114700726902523E-07
   1.2373650460944872E-07   1.2638324943500587E-07   1.2908847060578132E-07
   1.3185342425941420E-07   1.3467939440176015E-07   1.3756769351080857E-07
   1.4051966315414656E-07   1.4353667462026932E-07   1.4662012956404320E-07
   1.4977146066663415E-07   1.5299213231022174E-07   1.5628364126782805E-07
   1.5964751740859323E-07   1.6308532441884545E-07   1.6659866053931094E-07
   1.7018915931882668E-07   1.7385849038492165E-07   1.7760836023164119E-07
   1.8144051302499967E-07   1.8535673142645495E-07   1.8935883743480500E-07
   1.9344869324691897E-07   1.9762820213772271E-07   2.0189930935987064E-07
   2.0626400306354199E-07   2.1072431523681292E-07   2.1528232266706472E-07
   2.1994014792390100E-07   2.2469996036405225E-07   2.2956397715876561E-07
   2.3453446434417992E-07   2.3961373789520600E-07   2.4480416482343682E-07
   2.5010816429962972E-07   2.5552820880131236E-07   2.6106682528607820E-07
   2.6672659639114980E-07   2.7251016165979997E-07   2.7842021879523622E-07
   2.8445952494257182E-07   2.9063089799950902E-07   2.9693721795638959E-07
   3.0338142826627074E-07   3.0996653724570732E-07   3.1669561950693176E-07
   3.2357181742214434E-07   3.3059834262063521E-07   3.3777847751948592E-07
   3.4511557688860729E-07   3.5261306945089231E-07   3.6027445951827703E-07
   3.6810332866452723E-07   3.7610333743557904E-07   3.8427822709828735E-07
   3.9263182142845423E-07   4.0116802853902522E-07   4.0989084274936868E-07
   4.1880434649657095E-07   4.2791271228969757E-07   4.3722020470800582E-07
   4.4673118244409824E-07   4.5645010039304370E-07   4.6638151178851509E-07
   4.7653007038700844E-07   4.8690053270123928E-07   4.9749776028383855E-07
   5.0832672206249612E-07   5.1939249672771464E-07   5.3070027517438884E-07
   5.4225536299842468E-07   5.5406318304965919E-07   5.6612927804237185E-07
   5.7845931322469238E-07   5.9105907910825816E-07   6.0393449425949832E-07
   6.1709160815394669E-07   6.3053660409503609E-07   6.4427580219883888E-07
   6.5831566244627071E-07   6.7266278780430272E-07   6.8732392741775574E-07
   7.0230597987330750E-07   7.1761599653735275E-07   7.3326118496942841E-07
   7.4924891241292754E-07   7.6558670936487330E-07   7.8228227322658669E-07
   7.9934347203708972E-07   8.1677834829116014E-07   8.3459512284397443E-07
   8.5280219890434843E-07   8.7140816611859860E-07   8.9042180474713270E-07
   9.0985208993589096E-07   9.2970819608484088E-07   9.4999950131575959E-07
   9.7073559204160120E-07   9.9192626763980430E-07   1.0135815452319252E-06
   1.0357116645720906E-06   1.0583270930467584E-06   1.0814385307884000E-06
   1.1050569159057163E-06   1.1291934298331246E-06   1.1538595028022509E-06
   1.1790668194383276E-06   1.2048273244843119E-06   1.2311532286558082E-06
   1.2580570146297366E-06   1.2855514431699709E-06   1.3136495593930454E-06
   1.3423646991772980E-06   1.3717104957187216E-06   1.4017008862370217E-06
   1.4323501188353536E-06   1.4636727595173851E-06   1.4956836993653213E-06
   1.5283981618827429E-06   1.5618317105060497E-06   1.5960002562885578E-06
   1.6309200657612386E-06   1.6666077689743425E-06   1.7030803677240720E-06
   1.7403552439687726E-06   1.7784501684390602E-06   1.8173833094464570E-06
   1.8571732418952835E-06   1.8978389565025651E-06   1.9393998692309049E-06
   1.9818758309393725E-06   2.0252871372575702E-06   2.0696545386881655E-06
   2.1149992509433386E-06   2.1613429655206706E-06   2.2087078605241947E-06
   2.2571166117364445E-06   2.3065924039474175E-06   2.3571589425466420E-06
   2.4088404653845884E-06   2.4616617549098011E-06   2.5156481505884326E-06
   2.5708255616127668E-06   2.6272204799057741E-06   2.6848599934286710E-06
   2.7437717997987493E-06   2.8039842202248831E-06   2.8655262137683165E-06
   2.9284273919364840E-06   2.9927180336178578E-06   3.0584291003658893E-06
   3.1255922520405780E-06   3.1942398628159610E-06   3.2644050375625493E-06
   3.3361216286134719E-06   3.4094242529236075E-06   3.4843483096311146E-06
   3.5609299980309661E-06   3.6392063359703381E-06   3.7192151786760209E-06
   3.8009952380240595E-06   3.8845861022624250E-06   3.9700282561973173E-06
   4.0573631018544498E-06   4.1466329796264848E-06   4.2378811899183734E-06
   4.3311520153025460E-06   4.4264907431960736E-06   4.5239436890724158E-06
   4.6235582202204417E-06   4.7253827800639632E-06   4.8294669130551434E-06
   4.9358612901554996E-06   5.0446177349186717E-06   5.1557892501893597E-06
   5.2694300454330832E-06   5.3855955647120770E-06   5.5043425153226909E-06
   5.6257288971101281E-06   5.7498140324769529E-06   5.8766585971016758E-06
   6.0063246513849182E-06   6.1388756726400694E-06   6.2743765880468153E-06
   6.4128938083854453E-06   6.5544952625709007E-06   6.6992504330057467E-06
   6.8472303917716454E-06   6.9985078376794546E-06   7.1531571341987640E-06
   7.3112543482877174E-06   7.4728772901449973E-06   7.6381055539059889E-06
   7.8070205593058125E-06   7.9797055943325627E-06   8.1562458588944779E-06
   8.3367285095254299E-06   8.5212427051537535E-06   8.7098796539598662E-06
   8.9027326613491014E-06   9.0998971790662269E-06   9.3014708554795753E-06
   9.5075535870624574E-06   9.7182475711010259E-06   9.9336573596579535E-06
   1.0153889914822118E-05   1.0379054665275458E-05   1.0609263564208306E-05
   1.0844631148616202E-05   1.1085274600010936E-05   1.1331313806580168E-05
   1.1582871426830486E-05   1.1840072954749452E-05   1.2103046786523355E-05
   1.2371924288848037E-05   1.2646839868871299E-05   1.2927931045805875E-05
   1.3215338524253580E-05   1.3509206269281316E-05   1.3809681583291618E-05
   1.4116915184730640E-05   1.4431061288677742E-05   1.4752277689362096E-05
   1.5080725844652645E-05   1.5416570962568772E-05   1.5759982089860400E-05
   1.6111132202707154E-05   1.6470198299587617E-05   1.6837361496370695E-05
   1.7212807123682689E-05   1.7596724826604582E-05   1.7989308666755387E-05
   1.8390757226819227E-05   1.8801273717574280E-05   1.9221066087483960E-05
   1.9650347134911893E-05   2.0089334623023054E-05   2.0538251397435962E-05
   2.0997325506691854E-05   2.1466790325607673E-05   2.1946884681582843E-05
   2.2437852983929704E-05   2.2939945356300367E-05   2.3453417772284043E-05
   2.3978532194250190E-05   2.4515556715515787E-05   2.5064765705915237E-05
   2.5626439960854679E-05   2.6200866853933856E-05   2.6788340493220091E-05
   2.7389161881262052E-05   2.8003639078931904E-05   2.8632087373187156E-05
   2.9274829448845600E-05   2.9932195564468344E-05   3.0604523732449255E-05
   3.1292159903410010E-05   3.1995458155003269E-05   3.2714780885228949E-05
   3.3450499010369498E-05   3.4202992167654955E-05   3.4972648922768741E-05
   3.5759866982309161E-05   3.6565053411323995E-05   3.7388624856037187E-05
   3.8231007771891455E-05   3.9092638657031256E-05   3.9973964291354792E-05
   4.0875441981266416E-05   4.1797539810262936E-05   4.2740736895491994E-05
   4.3705523650422343E-05   4.4692402053769331E-05   4.5701885924823229E-05
   4.6734501205329434E-05   4.7790786248074996E-05   4.8871292112337994E-05
   4.9976582866359911E-05   5.1107235897006292E-05   5.2263842226781634E-05
   5.3447006838372091E-05   5.4657349006889769E-05   5.5895502639998307E-05
   5.7162116626104240E-05   5.8457855190799150E-05   5.9783398261746092E-05
   6.1139441842206037E-05   6.2526698393402101E-05   6.3945897225929957E-05
   6.5397784900419071E-05   6.6883125637662061E-05   6.8402701738428474E-05
   6.9957314013186162E-05   7.1547782221959580E-05   7.3174945524555381E-05
   7.4839662941396257E-05   7.6542813825204424E-05   7.8285298343782635E-05
   8.0068037974149141E-05   8.1891976008281443E-05   8.3758078070739767E-05
   8.5667332648433868E-05   8.7620751632816389E-05   8.9619370874778056E-05
   9.1664250752539170E-05   9.3756476752828189E-05   9.5897160065648080E-05
   9.8087438192939790E-05   1.0032847557145212E-04   1.0262146421014327E-04
   1.0496762434243557E-04   1.0736820509366007E-04   1.0982448516403244E-04
   1.1233777352750203E-04   1.1490941014683630E-04   1.1754076670529816E-04
   1.2023324735528456E-04   1.2298828948430961E-04   1.2580736449870807E-04
   1.2869197862546038E-04   1.3164367373253466E-04   1.3466402816815493E-04
   1.3775465761941590E-04   1.4091721599066300E-04   1.4415339630207869E-04
   1.4746493160891329E-04   1.5085359594181060E-04   1.5432120526869485E-04
   1.5786961847867590E-04   1.6150073838846603E-04   1.6521651277178322E-04
   1.6901893541224595E-04   1.7291004718026379E-04   1.7689193713443590E-04
   1.8096674364799289E-04   1.8513665556081077E-04   1.8940391335754407E-04
   1.9377081037244215E-04   1.9823969402140329E-04   2.0281296706185732E-04
   2.0749308888105708E-04   2.1228257681337947E-04   2.1718400748725052E-04
   2.2220001820230751E-04   2.2733330833743935E-04   2.3258664079034576E-04
   2.3796284344926685E-04   2.4346481069755993E-04   2.4909550495178754E-04
   2.5485795823402283E-04   2.6075527377906576E-04   2.6679062767728513E-04
   2.7296727055381659E-04   2.7928852928485394E-04   2.8575780875178341E-04
   2.9237859363393035E-04   2.9915445024068522E-04   3.0608902838381299E-04
   3.1318606329072750E-04   3.2044937755956716E-04   3.2788288315688377E-04
   3.3549058345879070E-04   3.4327657533642618E-04   3.5124505128659468E-04
   3.5940030160846429E-04   3.6774671662722172E-04   3.7628878896557772E-04
   3.8503111586405634E-04   3.9397840155098703E-04   4.0313545966314999E-04
   4.1250721571804022E-04   4.2209870963870824E-04   4.3191509833217037E-04
   4.4196165832239198E-04   4.5224378843882840E-04   4.6276701256158404E-04
   4.7353698242419287E-04   4.8455948047508612E-04   4.9584042279880562E-04
   5.0738586209802140E-04   5.1920199073746912E-04   5.3129514385086458E-04
   5.4367180251194049E-04   5.5633859697070374E-04   5.6930230995604287E-04
   5.8256988004585088E-04   5.9614840510578064E-04   6.1004514579782881E-04
   6.2426752915990434E-04   6.3882315225755439E-04   6.5371978590906437E-04
   6.6896537848511184E-04   6.8456805978417857E-04   7.0053614498496650E-04
   7.1687813867698591E-04   7.3360273897060463E-04   7.5071884168774917E-04
   7.6823554463450886E-04   7.8616215195690677E-04   8.0450817858104156E-04
   8.2328335473889804E-04   8.4249763058104072E-04   8.6216118087746444E-04
   8.8228440980785670E-04   9.0287795584249137E-04   9.2395269671505340E-04
   9.4551975448860400E-04   9.6759050071593610E-04   9.9017656169557325E-04
   1.0132898238246109E-03   1.0369424390496568E-03   1.0611468304170574E-03
   1.0859156977236135E-03   1.1112620232690041E-03   1.1371990777110140E-03
   1.1637404260248327E-03   1.1908999335674608E-03   1.2186917722484057E-03
   1.2471304268077492E-03   1.2762307012026256E-03   1.3060077251032260E-03
   1.3364769604992674E-03   1.3676542084179765E-03   1.3995556157545153E-03
   1.4321976822157486E-03   1.4655972673782724E-03   1.4997715978615105E-03
   1.5347382746166644E-03   1.5705152803323088E-03   1.6071209869572515E-03
   1.6445741633413695E-03   1.6828939829949645E-03   1.7221000319671545E-03
   1.7622123168437947E-03   1.8032512728652450E-03   1.8452377721643802E-03
   1.8881931321250232E-03   1.9321391238609615E-03   1.9770979808156662E-03
   2.0230924074825796E-03   2.0701455882460034E-03   2.1182811963422277E-03
   2.1675234029406845E-03   2.2178968863446188E-03   2.2694268413107552E-03
   2.3221389884872682E-03   2.3760595839692959E-03   2.4312154289709664E-03
   2.4876338796129796E-03   2.5453428568243701E-03   2.6043708563571982E-03
   2.6647469589125539E-03   2.7265008403761274E-03   2.7896627821615613E-03
   2.8542636816593419E-03   2.9203350627891320E-03   2.9879090866529235E-03
   3.0570185622864018E-03   3.1276969575056417E-03   3.1999784098458500E-03
   3.2738977375889882E-03   3.3494904508765150E-03   3.4267927629033903E-03
   3.5058416011892633E-03   3.5866746189222986E-03   3.6693302063710276E-03
   3.7538475023591944E-03   3.8402664057981643E-03   3.9286275872714100E-03
   4.0189725006649019E-03   4.1113433948371777E-03   4.2057833253223761E-03
   4.3023361660590436E-03   4.4010466211374518E-03   4.5019602365572401E-03
   4.6051234119874372E-03   4.7105834125198672E-03   4.8183883804068716E-03
   4.9285873467737242E-03   5.0412302432955615E-03   5.1563679138282217E-03
   5.2740521259819588E-03   5.3943355826262121E-03   5.5172719333134099E-03
   5.6429157856088862E-03   5.7713227163136279E-03   5.9025492825659767E-03
   6.0366530328075495E-03   6.1736925175983762E-03   6.3137273002651902E-03
   6.4568179673664978E-03   6.6030261389571215E-03   6.7524144786342234E-03
   6.9050467033462170E-03   7.0609875929450111E-03   7.2203029994614247E-03
   7.3830598560827377E-03   7.5493261858104567E-03   7.7191711097756533E-03
   7.8926648551882837E-03   8.0698787628959608E-03   8.2508852945269127E-03
   8.4357580391907373E-03   8.6245717197096453E-03   8.8174021983520000E-03
   9.0143264820387661E-03   9.2154227269927048E-03   9.4207702427988333E-03
   9.6304494958438132E-03   9.8445421121005419E-03   1.0063130879223437E-02
   1.0286299747918651E-02   1.0514133832551849E-02   1.0746719410955882E-02
   1.0984143923398424E-02   1.1226495970669249E-02   1.1473865311245087E-02
   1.1726342857488824E-02   1.1984020670838588E-02   1.2246991955940653E-02
   1.2515351053679255E-02   1.2789193433054402E-02   1.3068615681857970E-02
   1.3353715496096383E-02   1.3644591668107312E-02   1.3941344073315836E-02
   1.4244073655574646E-02   1.4552882411030707E-02   1.4867873370459984E-02
   1.5189150580009622E-02   1.5516819080286157E-02   1.5850984883726459E-02
   1.6191754950186245E-02   1.6539237160680380E-02   1.6893540289206428E-02
   1.7254773972582554E-02   1.7623048678228490E-02   1.7998475669817063E-02
   1.8381166970722337E-02   1.8771235325188436E-02   1.9168794157142385E-02
   1.9573957526571949E-02   1.9986840083388403E-02   2.0407557018692790E-02
   2.0836224013362423E-02   2.1272957183873002E-02   2.1717873025271107E-02
   2.2171088351208811E-02   2.2632720230952998E-02   2.3102885923278516E-02
   2.3581702807154586E-02   2.4069288309132485E-02   2.4565759827340550E-02
   2.5071234651992610E-02   2.5585829882313803E-02   2.6109662339788575E-02
   2.6642848477632326E-02   2.7185504286390196E-02   2.7737745195563462E-02
   2.8299685971164931E-02   2.8871440609104095E-02   2.9453122224301499E-02
   3.0044842935433389E-02   3.0646713745205528E-02   3.1258844416056884E-02
   3.1881343341193268E-02   3.2514317410851673E-02   3.3157871873696378E-02
   3.3812110193249027E-02   3.4477133899254907E-02   3.5153042433890648E-02
   3.5839932992717094E-02   3.6537900360285890E-02   3.7247036740306820E-02
   3.7967431580287647E-02   3.8699171390559201E-02   3.9442339557600320E-02
   4.0197016151582270E-02   4.0963277728052729E-02   4.1741197123684452E-02
   4.2530843246017400E-02   4.3332280857126149E-02   4.4145570351149833E-02
   4.4970767525625628E-02   4.5807923346572861E-02   4.6657083707279119E-02
   4.7518289180746957E-02   4.8391574765764674E-02   4.9276969626572499E-02
   5.0174496826100944E-02   5.1084173052768737E-02   5.2006008340831550E-02
   5.2940005784285364E-02   5.3886161244334922E-02   5.4844463050446712E-02
   5.5814891695019499E-02   5.6797419521711044E-02   5.7792010407475961E-02
   5.8798619438377310E-02   5.9817192579249036E-02   6.0847666337300162E-02
   6.1889967419762562E-02   6.2944012385701700E-02   6.4009707292122839E-02
   6.5086947334520362E-02   6.6175616482039096E-02   6.7275587107425636E-02
   6.8386719611974553E-02   6.9508862045687833E-02   7.0641849722885203E-02
   7.1785504833529287E-02   7.2939636050542961E-02   7.4104038133424935E-02
   7.5278491528489422E-02   7.6462761966079165E-02   7.7656600055128144E-02
   7.8859740875471734E-02   8.0071903568331618E-02   8.1292790925426281E-02
   8.2522088977183758E-02   8.3759466580565559E-02   8.5004575007027669E-02
   8.6257047531180159E-02   8.7516499020729999E-02   8.8782525528309689E-02
   9.0054703885832352E-02   9.1332591302019386E-02   9.2615724963778123E-02
   9.3903621642123611E-02   9.5195777303341847E-02   9.6491666726120390E-02
   9.7790743125361332E-02   9.9092437783405790E-02   1.0039615968939773E-01
   1.0170129518749799E-01   1.0300720763466717E-01   1.0431323706870722E-01
   1.0561869988724555E-01   1.0692288853833110E-01   1.0822507122328703E-01
   1.0952449161246507E-01   1.1082036857453390E-01   1.1211189591993748E-01
   1.1339824215918101E-01   1.1467855027662612E-01   1.1595193752053423E-01
   1.1721749521016211E-01   1.1847428856081658E-01   1.1972135652788871E-01
   1.2095771167103254E-01   1.2218234003982270E-01   1.2339420108240400E-01
   1.2459222757884637E-01   1.2577532560112759E-01   1.2694237450186271E-01
   1.2809222693411046E-01   1.2922370890475607E-01   1.3033561986414333E-01
   1.3142673283475123E-01   1.3249579458181057E-01   1.3354152582881842E-01
   1.3456262152091786E-01   1.3555775113909341E-01   1.3652555906806249E-01
   1.3746466502062840E-01   1.3837366452111916E-01   1.3925112945032958E-01
   1.4009560865416862E-01   1.4090562861794553E-01   1.4167969420793525E-01
   1.4241628948157378E-01   1.4311387856730692E-01   1.4377090661482861E-01
   1.4438580081616767E-01   1.4495697149783612E-01   1.4548281328407908E-01
   1.4596170633112571E-01   1.4639201763227780E-01   1.4677210239366309E-01
   1.4710030548050645E-01   1.4737496293384869E-01   1.4759440355772330E-01
   1.4775695057688826E-01   1.4786092336528500E-01   1.4790463924544028E-01
   1.4788641535904407E-01   1.4780457060891020E-01   1.4765742767247092E-01
   1.4744331508685907E-01   1.4716056940551220E-01   1.4680753742608946E-01
   1.4638257848932901E-01   1.4588406684830862E-01   1.4531039410738888E-01
   1.4465997172994757E-01   1.4393123361382990E-01   1.4312263873326267E-01
   1.4223267384580493E-01   1.4125985626272511E-01   1.4020273668102110E-01
   1.3905990207511029E-01   1.3782997864603791E-01   1.3651163482585033E-01
   1.3510358433458683E-01   1.3360458928713626E-01   1.3201346334697756E-01
   1.3032907492361920E-01   1.2855035041029700E-01   1.2667627745826096E-01
   1.2470590828372810E-01   1.2263836300331268E-01   1.2047283299348978E-01
   1.1820858426936308E-01   1.1584496087772987E-01   1.1338138829916182E-01
   1.1081737685350640E-01   1.0815252510294616E-01   1.0538652324644014E-01
   1.0251915649906851E-01   9.9550308449532318E-02   9.6479964388725248E-02
   9.3308214602035533E-02   9.0035257617737438E-02   8.6661403403533635E-02
   8.3187076503086183E-02   7.9612819104061594E-02   7.5939294029014393E-02
   7.2167287640193784E-02   6.8297712649135617E-02   6.4331610821753538E-02
   6.0270155569447037E-02   5.6114654416626990E-02   5.1866551334962950E-02
   4.7527428934546402E-02   4.3099010502151230E-02   3.8583161876723650E-02
   3.3981893152242079E-02   2.9297360198131315E-02   2.4531865987426075E-02
   1.9687861722970143E-02   1.4767947751980114E-02   9.7748742593822702E-03
   4.7115417303923391E-03  -4.1899882714126511E-04  -5.6135459100535232E-03
  -1.0868747806221029E-02  -1.6181103149281683E-02  -2.1546961750977162E-02
  -2.6962525720176028E-02  -3.2423850877420522E-02  -3.7926848473330450E-02
  -4.3467287218445345E-02  -4.9040795630962419E-02  -5.4642864707068896E-02
  -6.0268850916239368E-02  -6.5913979520642971E-02  -7.1573348213637145E-02
  -7.7241931067241740E-02  -8.2914582772334641E-02  -8.8586043148439278E-02
  -9.4250941892676077E-02  -9.9903803530166896E-02  -1.0553905252193198E-01
  -1.1115101848178868E-01  -1.1673394145229013E-01  -1.2228197719236533E-01
  -1.2778920243701702E-01  -1.3324962010316252E-01  -1.3865716443555270E-01
  -1.4400570611259444E-01  -1.4928905736269477E-01  -1.5450097717540109E-01
  -1.5963517672505981E-01  -1.6468532515350007E-01  -1.6964505587683756E-01
  -1.7450797358385198E-01  -1.7926766207405501E-01  -1.8391769303972719E-01
  -1.8845163582952107E-01  -1.9286306814923818E-01  -1.9714558757091427E-01
  -2.0129282364986745E-01  -2.0529845040475056E-01  -2.0915619890568093E-01
  -2.1285986973983373E-01  -2.1640334517407186E-01  -2.1978060089742768E-01
  -2.2298571728915872E-01  -2.2601289021036008E-01  -2.2885644135332583E-01
  -2.3151082820203633E-01  -2.3397065366181385E-01  -2.3623067541030707E-01
  -2.3828581500966090E-01  -2.4013116680462662E-01  -2.4176200661589309E-01
  -2.4317380022378354E-01  -2.4436221162554012E-01  -2.4532311104007512E-01
  -2.4605258262746638E-01  -2.4654693188645699E-01  -2.4680269269157967E-01
  -2.4681663393198958E-01  -2.4658576571624669E-01  -2.4610734511081522E-01
  -2.4537888138449845E-01  -2.4439814073609042E-01  -2.4316315048782122E-01
  -2.4167220273248313E-01  -2.3992385742720226E-01  -2.3791694493152821E-01
  -2.3565056799179482E-01  -2.3312410317745222E-01  -2.3033720177834910E-01
  -2.2728979017472631E-01  -2.2398206969399848E-01  -2.2041451597036082E-01
  -2.1658787782479544E-01  -2.1250317568431634E-01  -2.0816169956026909E-01
  -2.0356500660619134E-01  -1.9871491827628221E-01  -1.9361351710579031E-01
  -1.8826314313477310E-01  -1.8266638999662510E-01  -1.7682610069256507E-01
  -1.7074536307293817E-01  -1.6442750504569623E-01  -1.5787608953184143E-01
  -1.5109490918687948E-01  -1.4408798090654618E-01  -1.3685954013416779E-01
  -1.2941403498604806E-01  -1.2175612021027415E-01  -1.1389065099326968E-01
  -1.0582267662734873E-01  -9.7557434051485384E-02  -8.9100341276403372E-02
  -8.0456990704168327E-02  -7.1633142351428231E-02  -6.2634716984624722E-02
  -5.3467789174741501E-02  -4.4138580278407460E-02  -3.4653451351756515E-02
  -2.5018896002942784E-02  -1.5241533188990571E-02  -5.3280999626075659E-03
   4.7145558254927311E-03   1.4879482862879488E-02   2.5159633744213709E-02
   3.5547872366055562E-02   4.6036981340532301E-02   5.6619669420316314E-02
   6.7288578926618686E-02   7.8036293171419760E-02   8.8855343864695485E-02
   9.9738218496885911E-02   1.1067736768682244E-01   1.2166521248522238E-01
   1.3269415162417308E-01   1.4375656870369088E-01   1.5484483930718682E-01
   1.6595133803905682E-01   1.7706844547902970E-01   1.8818855504970433E-01
   1.9930407979569562E-01   2.1040745907471231E-01   2.2149116516285702E-01
   2.3254770977797035E-01   2.4356965052591573E-01   2.5454959727497267E-01
   2.6548021846267567E-01   2.7635424733730163E-01   2.8716448813240469E-01
   2.9790382216713085E-01   3.0856521385742502E-01   3.1914171661349122E-01
   3.2962647858730026E-01   3.4001274822073324E-01   3.5029387953089525E-01
   3.6046333705503503E-01   3.7051470036466827E-01   3.8044166804857293E-01
   3.9023806105888503E-01   3.9989782531582996E-01   4.0941503347617553E-01
   4.1878388578997744E-01   4.2799871000050121E-01   4.3705396028291776E-01
   4.4594421526761513E-01   4.5466417525060265E-01   4.6320865875266382E-01
   4.7157259864557122E-01   4.7975103811174846E-01   4.8773912673796876E-01
   4.9553211705896855E-01   5.0312536186007428E-01   5.1051431251857815E-01
   5.1769451861281479E-01   5.2466162896032442E-01   5.3141139416797301E-01
   5.3793967069460014E-01   5.4424242634833908E-01   5.5031574707233766E-01
   5.5615584481936520E-01   5.6175906628045735E-01   5.6712190221578695E-01
   5.7224099713631016E-01   5.7711315909931005E-01   5.8173536940622961E-01
   5.8610479202320132E-01   5.9021878257955696E-01   5.9407489683441783E-01
   5.9767089853367894E-01   6.0100476660787538E-01   6.0407470168478450E-01
   6.0687913190893783E-01   6.0941671807386188E-01   6.1168635808239491E-01
   6.1368719075649247E-01   6.1541859902142027E-01   6.1688021249067204E-01
   6.1807190947812429E-01   6.1899381846321588E-01   6.1964631903375678E-01
   6.2003004232961423E-01   6.2014587100911389E-01   6.1999493875869138E-01
   6.1957862936515318E-01   6.1889857536886339E-01   6.1795665631526331E-01
   6.1675499662127764E-01   6.1529596307239054E-01   6.1358216196536297E-01
   6.1161643591075143E-01   6.0940186030846932E-01   6.0694173950865893E-01
   6.0423960266901233E-01   6.0129919931847797E-01   5.9812449463593165E-01
   5.9471966445094260E-01   5.9108908997226506E-01   5.8723735224789286E-01
   5.8316922635936830E-01   5.7888967535074110E-01   5.7440384389155041E-01
   5.6971705167153341E-01   5.6483478652350438E-01   5.5976269726983996E-01
   5.5450658628724658E-01   5.4907240178407724E-01   5.4346622978455761E-01
   5.3769428581473844E-01   5.3176290628606737E-01   5.2567853957408994E-01
   5.1944773679192358E-01   5.1307714226100098E-01   5.0657348368487076E-01
   4.9994356203574031E-01   4.9319424116783478E-01   4.8633243717632624E-01
   4.7936510752567812E-01   4.7229923997638323E-01   4.6514184134422004E-01
   4.5789992613171676E-01   4.5058050507497216E-01   4.4319057365504005E-01
   4.3573710062576004E-01   4.2822701661313917E-01   4.2066720284374665E-01
   4.1306448006086827E-01   4.0542559768753833E-01   3.9775722329498941E-01
   3.9006593243350485E-01   3.8235819888016925E-01   3.7464038535469713E-01
   3.6691873475042458E-01   3.5919936192275381E-01   3.5148824607209583E-01
   3.4379122375254734E-01   3.3611398253158037E-01   3.2846205531978606E-01
   3.2084081538340592E-01   3.1325547204620002E-01   3.0571106708097529E-01
   2.9821247178515836E-01   2.9076438472907290E-01   2.8337133015999899E-01
   2.7603765703997818E-01   2.6876753869033437E-01   2.6156497301126436E-01
   2.5443378324057525E-01   2.4737761921155557E-01   2.4039995906632164E-01
   2.3350411137758434E-01   2.2669321762873512E-01   2.1997025499960710E-01
   2.1333803940299659E-01   2.0679922871549014E-01   2.0035632614503363E-01
   1.9401168367733054E-01   1.8776750554364530E-01   1.8162585165382564E-01
   1.7558864094068641E-01   1.6965765456517551E-01   1.6383453893608657E-01
   1.5812080850355698E-01   1.5251784829203416E-01   1.4702691614583979E-01
   1.4164914466873563E-01   1.3638554284780041E-01   1.3123699736131211E-01
   1.2620427357986738E-01   1.2128801627942740E-01   1.1648875009403999E-01
   1.1180687974436442E-01   1.0724269008556106E-01   1.0279634602431045E-01
   9.8467892359571249E-02   9.4257253604937016E-02   9.0164233852126643E-02
   8.6188516735132753E-02   8.2329665552951542E-02   7.8587123605745032E-02
   7.4960214794811339E-02   7.1448144531176677E-02   6.8050000991092943E-02
   6.4764756749497651E-02   6.1591270814871590E-02   5.8528291081024676E-02
   5.5574457203518689E-02   5.2728303900964446E-02   4.9988264675126737E-02
   4.7352675921659267E-02   4.4819781488423270E-02   4.2387737406133309E-02
   4.0054617259353609E-02   3.7818417553194414E-02   3.5677063492322525E-02
   3.3628414944722962E-02   3.1670272584943801E-02   2.9800384175062047E-02
   2.8016450942147896E-02   2.6316134011446481E-02   2.4697060855427867E-02
   2.3156831720240634E-02   2.1693025992871415E-02   2.0303208474363659E-02
   1.8984935526762118E-02   1.7735761063947076E-02   1.6553242359141032E-02
   1.5434945644607460E-02   1.4378451481807060E-02   1.3381359883060627E-02
   1.2441295168512341E-02   1.1555910544878853E-02   1.0722892395096141E-02
   9.9399642704921676E-03   9.2048905795305367E-03   8.5154799694543721E-03
   7.8695883993132598E-03   7.2651219048671493E-03   6.7000390577244377E-03
   6.1723531227876865E-03   5.6801339196414537E-03   5.2215093949332242E-03
   4.7946669140615013E-03   4.3978542816030981E-03   4.0293805008912225E-03
   3.6876162839906768E-03   3.3709943240259580E-03   3.0780093423960950E-03
   2.8072179238671406E-03   2.5572381528798905E-03   2.3267490646433904E-03
   2.1144899247214966E-03   1.9192593508607083E-03   1.7399142907589074E-03
   1.5753688693511032E-03   1.4245931189852102E-03   1.2866116055954870E-03
   1.1605019636551815E-03   1.0453933523078913E-03
       </PP_GIPAW_WFS_AE>
       <PP_GIPAW_WFS_PS size="1106">
   0.0000000000000000E+00   4.6890916290202512E-11   4.8077965488803440E-11
   4.9295064981224966E-11   5.0542975494016766E-11   5.1822477011870200E-11
   5.3134369264887211E-11   5.4479472228433773E-11   5.5858626635651010E-11
   5.7272694502941100E-11   5.8722559668755236E-11   6.0209128346021598E-11
   6.1733329688557994E-11   6.3296116371823189E-11   6.4898465188370018E-11
   6.6541377658372679E-11   6.8225880655609207E-11   6.9953027049291341E-11
   7.1723896362141856E-11   7.3539595445131431E-11   7.5401259169296616E-11
   7.7310051135070916E-11   7.9267164399573517E-11   8.1273822222308192E-11
   8.3331278829740762E-11   8.5440820199231167E-11   8.7603764862811522E-11
   8.9821464731311205E-11   9.2095305939345381E-11   9.4426709711694357E-11
   9.6817133251614863E-11   9.9268070651640111E-11   1.0178105382743609E-10
   1.0435765347529857E-10   1.0699948005388929E-10   1.0970818479082590E-10
   1.1248546071475183E-10   1.1533304371353521E-10   1.1825271361925487E-10
   1.2124629532065350E-10   1.2431565990375249E-10   1.2746272582134168E-10
   1.3068946009207465E-10   1.3399787952991966E-10   1.3739005200473391E-10
   1.4086809773474970E-10   1.4443419061177946E-10   1.4809055955996953E-10
   1.5183948992894968E-10   1.5568332492225164E-10   1.5962446706188726E-10
   1.6366537969000319E-10   1.6780858850854958E-10   1.7205668315792675E-10
   1.7641231883559371E-10   1.8087821795565437E-10   1.8545717185045406E-10
   1.9015204251525330E-10   1.9496576439706819E-10   1.9990134622879515E-10
   2.0496187290976731E-10   2.1015050743391750E-10   2.1547049286675066E-10
   2.2092515437236775E-10   2.2651790129179955E-10   2.3225222927395755E-10
   2.3813172246052720E-10   2.4416005572617343E-10   2.5034099697545741E-10
   2.5667840949789975E-10   2.6317625438266103E-10   2.6983859299435364E-10
   2.7666958951152438E-10   2.8367351352940414E-10   2.9085474272854252E-10
   2.9821776561100130E-10   3.0576718430581431E-10   3.1350771744546776E-10
   3.2144420311519995E-10   3.2958160187696096E-10   3.3792499986992740E-10
   3.4647961198950291E-10   3.5525078514679894E-10   3.6424400161062820E-10
   3.7346488243410147E-10   3.8291919096796811E-10   3.9261283646289871E-10
   4.0255187776296021E-10   4.1274252709258822E-10   4.2319115393943233E-10
   4.3390428903549252E-10   4.4488862843903874E-10   4.5615103771986698E-10
   4.6769855625050293E-10   4.7953840160603846E-10   4.9167797407535391E-10
   5.0412486128653846E-10   5.1688684294940310E-10   5.2997189571805548E-10
   5.4338819817656830E-10   5.5714413595085840E-10   5.7124830694998096E-10
   5.8570952674009776E-10   6.0053683405449693E-10   6.1573949644309352E-10
   6.3132701606495365E-10   6.4730913562744946E-10   6.6369584447577169E-10
   6.8049738483659575E-10   6.9772425821980620E-10   7.1538723198228376E-10
   7.3349734605785385E-10   7.5206591985760529E-10   7.7110455934489312E-10
   7.9062516428944116E-10   8.1063993570508775E-10   8.3116138347581738E-10
   8.5220233417484502E-10   8.7377593908164533E-10   8.9589568240192846E-10
   9.1857538969570908E-10   9.4182923651873405E-10   9.6567175728266518E-10
   9.9011785433956282E-10   1.0151828072963365E-09   1.0408822825650079E-09
   1.0672323431547206E-09   1.0942494587116475E-09   1.1219505158130575E-09
   1.1503528285219807E-09   1.1794741492090538E-09   1.2093326796483448E-09
   1.2399470823940398E-09   1.2713364924451636E-09   1.3035205292055678E-09
   1.3365193087467054E-09   1.3703534563808284E-09   1.4050441195524846E-09
   1.4406129810563554E-09   1.4770822725897193E-09   1.5144747886479806E-09
   1.5528139007719776E-09   1.5921235721559615E-09   1.6324283726253661E-09
   1.6737534939937611E-09   1.7161247658085588E-09   1.7595686714953176E-09
   1.8041123649107532E-09   1.8497836873147872E-09   1.8966111847722428E-09
   1.9446241259950692E-09   1.9938525206362464E-09   2.0443271380467919E-09
   2.0960795265076160E-09   2.1491420329482326E-09   2.2035478231646438E-09
   2.2593309025490495E-09   2.3165261373443245E-09   2.3751692764365641E-09
   2.4352969736993192E-09   2.4969468109034481E-09   2.5601573212069645E-09
   2.6249680132395192E-09   2.6914193957965928E-09   2.7595530031588094E-09
   2.8294114210522351E-09   2.9010383132658334E-09   2.9744784489427893E-09
   3.0497777305626716E-09   3.1269832226319805E-09   3.2061431811010348E-09
   3.2873070835254977E-09   3.3705256599914941E-09   3.4558509248235397E-09
   3.5433362090952499E-09   3.6330361939629693E-09   3.7250069448433064E-09
   3.8193059464558670E-09   3.9159921387530851E-09   4.0151259537596032E-09
   4.1167693533443167E-09   4.2209858679485411E-09   4.3278406362946541E-09
   4.4374004460999168E-09   4.5497337758209901E-09   4.6649108374552407E-09
   4.7830036204255337E-09   4.9040859365760057E-09   5.0282334663068868E-09
   5.1555238058772162E-09   5.2860365159051068E-09   5.4198531710957330E-09
   5.5570574112281883E-09   5.6977349934331247E-09   5.8419738457937926E-09
   5.9898641223039722E-09   6.1414982592171977E-09   6.2969710328224853E-09
   6.4563796186826139E-09   6.6198236523720801E-09   6.7874052917526213E-09
   6.9592292808252395E-09   7.1354030151987035E-09   7.3160366092152851E-09
   7.5012429647759514E-09   7.6911378419077129E-09   7.8858399311175277E-09
   8.0854709275777885E-09   8.2901556071897895E-09   8.5000219045728748E-09
   8.7152009930277792E-09   8.9358273665242828E-09   9.1620389237644494E-09
   9.3939770543738430E-09   9.6317867272747650E-09   9.8756165812966990E-09
   1.0125619018080438E-08   1.0381950297334211E-08   1.0644770634501263E-08
   1.0914244300899770E-08   1.1190539726397925E-08   1.1473829604688221E-08
   1.1764291001226795E-08   1.2062105463905158E-08   1.2367459136523837E-08
   1.2680542875138400E-08   1.3001552367350850E-08   1.3330688254620986E-08
   1.3668156257673988E-08   1.4014167305082879E-08   1.4368937665105771E-08
   1.4732689080861021E-08   1.5105648908923937E-08   1.5488050261432377E-08
   1.5880132151789690E-08   1.6282139644056144E-08   1.6694324006122210E-08
   1.7116942866759456E-08   1.7550260376647310E-08   1.7994547373476055E-08
   1.8450081551229708E-08   1.8917147633753989E-08   1.9396037552718514E-08
   1.9887050630083987E-08   2.0390493765188525E-08   2.0906681626570243E-08
   2.1435936848645864E-08   2.1978590233368039E-08   2.2534980956988101E-08
   2.3105456782052646E-08   2.3690374274767138E-08   2.4290099027861891E-08
   2.4905005889100119E-08   2.5535479195570756E-08   2.6181913013912137E-08
   2.6844711386617489E-08   2.7524288584575224E-08   2.8221069366002590E-08
   2.8935489241934342E-08   2.9667994748432134E-08   3.0419043725685055E-08
   3.1189105604175743E-08   3.1978661698090633E-08   3.2788205506158214E-08
   3.3618243020103022E-08   3.4469293040907893E-08   3.5341887503083122E-08
   3.6236571807143917E-08   3.7153905160505070E-08   3.8094460927005223E-08
   3.9058826985279435E-08   4.0047606096204410E-08   4.1061416279644996E-08
   4.2100891200738897E-08   4.3166680565959803E-08   4.4259450529206979E-08
   4.5379884108175619E-08   4.6528681611266951E-08   4.7706561075306411E-08
   4.8914258714342576E-08   5.0152529379807037E-08   5.1422147032324649E-08
   5.2723905225466098E-08   5.4058617601748374E-08   5.5427118401190745E-08
   5.6830262982745338E-08   5.8268928358927797E-08   5.9744013743982340E-08
   6.1256441115923858E-08   6.2807155792808222E-08   6.4397127023590928E-08
   6.6027348593944510E-08   6.7698839447410520E-08   6.9412644322278374E-08
   7.1169834404585553E-08   7.2971507997649181E-08   7.4818791208547571E-08
   7.6712838651979353E-08   7.8654834171942188E-08   8.0645991581679998E-08
   8.2687555422363006E-08   8.4780801740974419E-08   8.6927038887888099E-08
   8.9127608334639407E-08   9.1383885512396527E-08   9.3697280671658804E-08
   9.6069239763719480E-08   9.8501245344441400E-08   1.0099481750091355E-07
   1.0355151480156684E-07   1.0617293527034004E-07   1.0886071738551110E-07
   1.1161654110381040E-07   1.1444212891046320E-07   1.1733924689581275E-07
   1.2030970585919860E-07   1.2335536244078268E-07   1.2647812028202392E-07
   1.2967993121553542E-07   1.3296279648506077E-07   1.3632876799633596E-07
   1.3977994959961777E-07   1.4331849840467872E-07   1.4694662612909512E-07
   1.5066660048066334E-07   1.5448074657481972E-07   1.5839144838793473E-07
   1.6240115024740595E-07   1.6651235835947012E-07   1.7072764237569346E-07
   1.7504963699912076E-07   1.7948104363108088E-07   1.8402463205968887E-07
   1.8868324219108783E-07   1.9345978582452202E-07   1.9835724847234896E-07
   2.0337869122612156E-07   2.0852725266991583E-07   2.1380615084209741E-07
   2.1921868524674580E-07   2.2476823891600960E-07   2.3045828052466102E-07
   2.3629236655819121E-07   2.4227414353579070E-07   2.4840735028960290E-07
   2.5469582030168942E-07   2.6114348410014392E-07   2.6775437171587855E-07
   2.7453261520160244E-07   2.8148245121456806E-07   2.8860822366471212E-07
   2.9591438642982383E-07   3.0340550613946264E-07   3.1108626502935008E-07
   3.1896146386802322E-07   3.2703602495758549E-07   3.3531499521041634E-07
   3.4380354930378107E-07   3.5250699291430295E-07   3.6143076603431378E-07
   3.7058044637217379E-07   3.7996175283866482E-07   3.8958054912165543E-07
   3.9944284735126185E-07   4.0955481185779576E-07   4.1992276302485892E-07
   4.3055318123997391E-07   4.4145271094524134E-07   4.5262816479054618E-07
   4.6408652789190221E-07   4.7583496219762284E-07   4.8788081096500195E-07
   5.0023160335035990E-07   5.1289505911527776E-07   5.2587909345198471E-07
   5.3919182193091530E-07   5.5284156557351842E-07   5.6683685605349563E-07
   5.8118644102973074E-07   5.9589928961422102E-07   6.1098459797845835E-07
   6.2645179510173056E-07   6.4231054866497625E-07   6.5857077109384457E-07
   6.7524262575475236E-07   6.9233653330781907E-07   7.0986317822063855E-07
   7.2783351544696093E-07   7.4625877727447936E-07   7.6515048034597075E-07
   7.8452043285821872E-07   8.0438074194318442E-07   8.2474382123605480E-07
   8.4562239863491953E-07   8.6702952425689151E-07   8.8897857859566585E-07
   9.1148328088564377E-07   9.3455769767777510E-07   9.5821625163257836E-07
   9.8247373053576328E-07   1.0073452965421274E-06   1.0328464956535044E-06
   1.0589932674366677E-06   1.0858019549873115E-06   1.1132893151462873E-06
   1.1414725289745212E-06   1.1703692124931661E-06   1.1999974276956529E-06
   1.2303756938386115E-06   1.2615229990186364E-06   1.2934588120421990E-06
   1.3262030945961175E-06   1.3597763137261417E-06   1.3941994546315550E-06
   1.4294940337837133E-06   1.4656821123767479E-06   1.5027863101188905E-06
   1.5408298193729480E-06   1.5798364196548822E-06   1.6198304924994907E-06
   1.6608370367024984E-06   1.7028816839486385E-06   1.7459907148354124E-06
   1.7901910753026529E-06   1.8355103934780702E-06   1.8819769969494154E-06
   1.9296199304739821E-06   1.9784689741365630E-06   2.0285546619672317E-06
   2.0799083010305755E-06   2.1325619909983208E-06   2.1865486442176328E-06
   2.2419020062875655E-06   2.2986566771566456E-06   2.3568481327546942E-06
   2.4165127471724625E-06   2.4776878154030026E-06   2.5404115766588675E-06
   2.6047232382799101E-06   2.6706630002465062E-06   2.7382720803135805E-06
   2.8075927397812376E-06   2.8786683099179527E-06   2.9515432190530668E-06
   3.0262630203553784E-06   3.1028744203153088E-06   3.1814253079484594E-06
   3.2619647847387589E-06   3.3445431953400659E-06   3.4292121590553831E-06
   3.5160246021133359E-06   3.6050347907622564E-06   3.6962983652024307E-06
   3.7898723743778990E-06   3.8858153116495018E-06   3.9841871513715099E-06
   4.0850493863948462E-06   4.1884650665201730E-06   4.2944988379251540E-06
   4.4032169835904598E-06   4.5146874647498177E-06   4.6289799633901894E-06
   4.7461659258284748E-06   4.8663186073922980E-06   4.9895131182326789E-06
   5.1158264702973559E-06   5.2453376254941937E-06   5.3781275450748223E-06
   5.5142792402694471E-06   5.6538778242046298E-06   5.7970105651364323E-06
   5.9437669410324642E-06   6.0942386955368540E-06   6.2485198953533256E-06
   6.4067069890824322E-06   6.5688988675495382E-06   6.7351969256617785E-06
   6.9057051258323162E-06   7.0805300630121140E-06   7.2597810313696425E-06
   7.4435700926605211E-06   7.6320121463300123E-06   7.8252250013920234E-06
   8.0233294501301769E-06   8.2264493436667815E-06   8.4347116694472831E-06
   8.6482466306888728E-06   8.8671877278428669E-06   9.0916718421222098E-06
   9.3218393211465359E-06   9.5578340667582121E-06   9.7998036250649959E-06
   1.0047899278765338E-05   1.0302276141814600E-05   1.0563093256491688E-05
   1.0830513692926593E-05   1.1104704651152140E-05   1.1385837565743065E-05
   1.1674088213109135E-05   1.1969636821509015E-05   1.2272668183854318E-05
   1.2583371773374792E-05   1.2901941862217088E-05   1.3228577643051817E-05
   1.3563483353765584E-05   1.3906868405315841E-05   1.4258947512829683E-05
   1.4619940830028374E-05   1.4990074087062596E-05   1.5369578731845146E-05
   1.5758692074969673E-05   1.6157657438307290E-05   1.6566724307373834E-05
   1.6986148487564400E-05   1.7416192264353280E-05   1.7857124567559960E-05
   1.8309221139785259E-05   1.8772764709123169E-05   1.9248045166257547E-05
   1.9735359746055404E-05   2.0235013213770937E-05   2.0747318055978181E-05
   2.1272594676352360E-05   2.1811171596423528E-05   2.2363385661429593E-05
   2.2929582251398178E-05   2.3510115497590841E-05   2.4105348504446442E-05
   2.4715653577163452E-05   2.5341412455065836E-05   2.5983016550899044E-05
   2.6640867196208386E-05   2.7315375892954070E-05   2.8006964571522653E-05
   2.8716065855298436E-05   2.9443123331961315E-05   3.0188591831684103E-05
   3.0952937712404454E-05   3.1736639152353062E-05   3.2540186450022864E-05
   3.3364082331769997E-05   3.4208842267241448E-05   3.5074994792829102E-05
   3.5963081843356441E-05   3.6873659092207776E-05   3.7807296300116582E-05
   3.8764577672834220E-05   3.9746102227906636E-05   4.0752484170792602E-05
   4.1784353280562327E-05   4.2842355305422590E-05   4.3927152368320131E-05
   4.5039423382881136E-05   4.6179864479953137E-05   4.7349189445020811E-05
   4.8548130166774349E-05   4.9777437097118335E-05   5.1037879722912863E-05
   5.2330247049750756E-05   5.3655348098078229E-05   5.5014012411978311E-05
   5.6407090580941331E-05   5.7835454774957226E-05   5.9299999293273661E-05
   6.0801641127170460E-05   6.2341320537112415E-05   6.3920001644651739E-05
   6.5538673039459107E-05   6.7198348401874682E-05   6.8900067141380693E-05
   7.0644895051404408E-05   7.2433924980876781E-05   7.4268277522976321E-05
   7.6149101721505953E-05   7.8077575795357796E-05   8.0054907881534562E-05
   8.2082336797208210E-05   8.4161132821309218E-05   8.6292598496154850E-05
   8.8478069449633411E-05   9.0718915238481839E-05   9.3016540213202613E-05
   9.5372384405182552E-05   9.7787924436593197E-05   1.0026467445366398E-04
   1.0280418708393869E-04   1.0540805441813942E-04   1.0807790901728048E-04
   1.1081542494569203E-04   1.1362231883063018E-04   1.1650035094916891E-04
   1.1945132634308822E-04   1.2247709596248903E-04   1.2557955783889428E-04
   1.2876065828860107E-04   1.3202239314708656E-04   1.3536680903527808E-04
   1.3879600465852682E-04   1.4231213213914949E-04   1.4591739838341536E-04
   1.4961406648389636E-04   1.5340445715810580E-04   1.5729095022438819E-04
   1.6127598611604692E-04   1.6536206743471965E-04   1.6955176054404310E-04
   1.7384769720467694E-04   1.7825257625178313E-04   1.8276916531609295E-04
   1.8740030258972040E-04   1.9214889863791422E-04   1.9701793825797827E-04
   2.0201048238661180E-04   2.0712967005697826E-04   2.1237872040682034E-04
   2.1776093473900118E-04   2.2327969863587786E-04   2.2893848412894411E-04
   2.3474085192524982E-04   2.4069045369210748E-04   2.4679103440167693E-04
   2.5304643473703819E-04   2.5946059356141458E-04   2.6603755045227182E-04
   2.7278144830204072E-04   2.7969653598728647E-04   2.8678717110818442E-04
   2.9405782280021871E-04   3.0151307462009049E-04   3.0915762750784680E-04
   3.1699630282734382E-04   3.2503404548718089E-04   3.3327592714432085E-04
   3.4172714949268955E-04   3.5039304763908577E-04   3.5927909356882624E-04
   3.6839089970361843E-04   3.7773422255420739E-04   3.8731496647045302E-04
   3.9713918749153924E-04   4.0721309729912537E-04   4.1754306727631552E-04
   4.2813563267540648E-04   4.3899749689750741E-04   4.5013553588712769E-04
   4.6155680264502489E-04   4.7326853186265954E-04   4.8527814468165366E-04
   4.9759325358188851E-04   5.1022166740183350E-04   5.2317139649490452E-04
   5.3645065802579320E-04   5.5006788141068988E-04   5.6403171390563632E-04
   5.7835102634721549E-04   5.9303491904998226E-04   6.0809272786524731E-04
   6.2353403040578967E-04   6.3936865244143505E-04   6.5560667447043435E-04
   6.7225843847177258E-04   6.8933455484380187E-04   7.0684590953457407E-04
   7.2480367136961517E-04   7.4321929958295441E-04   7.6210455155741421E-04
   7.8147149078045268E-04   8.0133249502191504E-04   8.2170026474040535E-04
   8.4258783172507597E-04   8.6400856797997218E-04   8.8597619485823536E-04
   9.0850479245371016E-04   9.3160880925779966E-04   9.5530307208964525E-04
   9.7960279630793907E-04   1.0045235963130640E-03   1.0300814963484057E-03
   1.0562929416101485E-03   1.0831748096749843E-03   1.1107444222556897E-03
   1.1390195572947277E-03   1.1680184614063600E-03   1.1977598626783524E-03
   1.2282629838443265E-03   1.2595475558386108E-03   1.2916338317456306E-03
   1.3245426011562220E-03   1.3582952049440338E-03   1.3929135504751437E-03
   1.4284201272649216E-03   1.4648380230964893E-03   1.5021909406154322E-03
   1.5405032144164442E-03   1.5797998286375277E-03   1.6201064350783733E-03
   1.6614493718600872E-03   1.7038556826436625E-03   1.7473531364258367E-03
   1.7919702479310595E-03   1.8377362986192549E-03   1.8846813583299434E-03
   1.9328363075834484E-03   1.9822328605613674E-03   2.0329035887887803E-03
   2.0848819455416001E-03   2.1382022910036115E-03   2.1928999181980669E-03
   2.2490110797202157E-03   2.3065730152976756E-03   2.3656239802066891E-03
   2.4262032745734500E-03   2.4883512735904435E-03   2.5521094586791458E-03
   2.6175204496314509E-03   2.6846280377632306E-03   2.7534772201149847E-03
   2.8241142347354802E-03   2.8965865970857966E-03   2.9709431376024891E-03
   3.0472340404599642E-03   3.1255108835737508E-03   3.2058266798876251E-03
   3.2882359199895373E-03   3.3727946161022709E-03   3.4595603474971990E-03
   3.5485923073806346E-03   3.6399513513042468E-03   3.7337000471533198E-03
   3.8299027267675819E-03   3.9286255392523665E-03   4.0299365060393073E-03
   4.1339055777578669E-03   4.2406046929817287E-03   4.3501078389155019E-03
   4.4624911140902753E-03   4.5778327931387365E-03   4.6962133937224837E-03
   4.8177157456878441E-03   4.9424250625278790E-03   5.0704290152316948E-03
   5.2018178086051742E-03   5.3366842601488846E-03   5.4751238815834956E-03
   5.6172349631145695E-03   5.7631186605322359E-03   5.9128790852451298E-03
   6.0666233973492301E-03   6.2244619018378905E-03   6.3865081480608699E-03
   6.5528790325441186E-03   6.7236949052863785E-03   6.8990796796504919E-03
   7.0791609459724117E-03   7.2640700890140332E-03   7.4539424093887641E-03
   7.6489172490942538E-03   7.8491381212884483E-03   8.0547528444502008E-03
   8.2659136810691730E-03   8.4827774810125826E-03   8.7055058297216686E-03
   8.9342652013928957E-03   9.1692271173035491E-03   9.4105683094445457E-03
   9.6584708896266178E-03   9.9131225242300620E-03   1.0174716614770802E-02
   1.0443452484459092E-02   1.0719535570929589E-02   1.1003177625325669E-02
   1.1294596917920749E-02   1.1594018450464762E-02   1.1901674175443503E-02
   1.2217803222440560E-02   1.2542652131794346E-02   1.2876475095740655E-02
   1.3219534207233879E-02   1.3572099716638921E-02   1.3934450296483426E-02
   1.4306873314461222E-02   1.4689665114872906E-02   1.5083131308686699E-02
   1.5487587072401103E-02   1.5903357455880739E-02   1.6330777699336746E-02
   1.6770193559609788E-02   1.7221961645908532E-02   1.7686449765146550E-02
   1.8164037277005052E-02   1.8655115458840885E-02   1.9160087880539117E-02
   1.9679370789394850E-02   2.0213393505089921E-02   2.0762598824806456E-02
   2.1327443438496716E-02   2.1908398354301858E-02   2.2505949334080871E-02
   2.3120597338980753E-02   2.3752858984940433E-02   2.4403267007982985E-02
   2.5072370739106151E-02   2.5760736588534134E-02   2.6468948539042577E-02
   2.7197608648009918E-02   2.7947337557790445E-02   2.8718775013932996E-02
   2.9512580390703168E-02   3.0329433223283273E-02   3.1170033745943029E-02
   3.2035103435384273E-02   3.2925385558360179E-02   3.3841645722572040E-02
   3.4784672429727617E-02   3.5755277629525434E-02   3.6754297273206032E-02
   3.7782591865162148E-02   3.8841047010963962E-02   3.9930573959992298E-02
   4.1052110140702945E-02   4.2206619686380058E-02   4.3395093949031384E-02
   4.4618551998893217E-02   4.5878041106798322E-02   4.7174637206428692E-02
   4.8509445333260084E-02   4.9883600036736538E-02   5.1298265761969650E-02
   5.2754637196985359E-02   5.4253939581243089E-02   5.5797428970877659E-02
   5.7386392455785681E-02   5.9022148323367468E-02   6.0706046163406469E-02
   6.2439466908210367E-02   6.4223822801799252E-02   6.6060557291551150E-02
   6.7951144835340524E-02   6.9897090616837576E-02   7.1899930161224299E-02
   7.3961228843213114E-02   7.6082581278843112E-02   7.8265610592129956E-02
   8.0511967547263100E-02   8.2823329536629964E-02   8.5201399414580298E-02
   8.7647904166454432E-02   9.0164593402044774E-02   9.2753237662316787E-02
   9.5415626527889208E-02   9.8153566517493282E-02   1.0096887876435764E-01
   1.0386339645826442E-01   1.0683896204083845E-01   1.0989742414151964E-01
   1.1304063424161530E-01   1.1627044305383966E-01   1.1958869660484456E-01
   1.2299723200843184E-01   1.2649787291740647E-01   1.3009242464244450E-01
   1.3378266892682758E-01   1.3757035836657100E-01   1.4145721046624407E-01
   1.4544490132171400E-01   1.4953505892219263E-01   1.5372925606521076E-01
   1.5802900287967442E-01   1.6243573895384081E-01   1.6695082506694175E-01
   1.7157553452538599E-01   1.7631104410679582E-01   1.8115842461782400E-01
   1.8611863107460364E-01   1.9119249251781306E-01   1.9638070147786851E-01
   2.0168380310942133E-01   2.0710218401838970E-01   2.1263606080907624E-01
   2.1828546838342414E-01   2.2405024802939430E-01   2.2993003534047915E-01
   2.3592424801370790E-01   2.4203207357909598E-01   2.4825245711912347E-01
   2.5458408904280028E-01   2.6102539298478877E-01   2.6757451390611453E-01
   2.7422930647904575E-01   2.8098732384464675E-01   2.8784580683737959E-01
   2.9480167377669597E-01   3.0185151093085955E-01   3.0899156376310932E-01
   3.1621772907460538E-01   3.2352554816232065E-01   3.3091020111297875E-01
   3.3836650235617743E-01   3.4588889760089125E-01   3.5347146227937731E-01
   3.6110790162109763E-01   3.6879155247636336E-01   3.7651538700496545E-01
   3.8427201833888669E-01   3.9205370832017572E-01   3.9985237740516710E-01
   4.0765961681420332E-01   4.1546670299201277E-01   4.2326461442792251E-01
   4.3104405086801656E-01   4.3879545493176642E-01   4.4650903612279974E-01
   4.5417479719936443E-01   4.6178256284416314E-01   4.6932201054575068E-01
   4.7678270357501068E-01   4.8415412591031587E-01   4.9142571893453685E-01
   4.9858691969626495E-01   5.0562720049684151E-01   5.1253610953483020E-01
   5.1930331231043647E-01   5.2591863346501222E-01   5.3237209870547075E-01
   5.3865397644057855E-01   5.4475481873648579E-01   5.5066550118252511E-01
   5.5637726124589515E-01   5.6188173468560709E-01   5.6717098959201384E-01
   5.7223755761885786E-01   5.7707446197971535E-01   5.8167524179019781E-01
   5.8603397235108168E-01   5.9014528098542174E-01   5.9400435806466301E-01
   5.9760696288446502E-01   6.0094942408049667E-01   6.0402863430799936E-01
   6.0684203894682454E-01   6.0938761863696023E-01   6.1166386549951812E-01
   6.1366975295690473E-01   6.1540469913621720E-01   6.1686852392601876E-01
   6.1806139994406861E-01   6.1898379808302617E-01   6.1963642695730015E-01
   6.2002016702351126E-01   6.2013601045652877E-01   6.1998509943593549E-01
   6.1956881806636943E-01   6.1888879856619983E-01   6.1794692019924524E-01
   6.1674530710563635E-01   6.1528632579814047E-01   6.1357258230510470E-01
   6.1160691897318675E-01   6.0939241094311514E-01   6.0693236231073722E-01
   6.0423030198450356E-01   6.0128997924931282E-01   5.9811535904531121E-01
   5.9471061696876804E-01   5.9108013400066162E-01   5.8722849096681784E-01
   5.8316046273228528E-01   5.7888101213035248E-01   5.7439528362557724E-01
   5.6970859670853191E-01   5.6482643901871143E-01   5.5975445919103983E-01
   5.5449845942065201E-01   5.4906438774021993E-01   5.4345833000417976E-01
   5.3768650157468412E-01   5.3175523870516594E-01   5.2567098961902614E-01
   5.1944030528309393E-01   5.1306982987834671E-01   5.0656629097368178E-01
   4.9993648941242858E-01   4.9318728892566643E-01   4.8632560549110671E-01
   4.7935839646138118E-01   4.7229264949071581E-01   4.6513537129416965E-01
   4.5789357627887944E-01   4.5057427509086728E-01   4.4318446312634480E-01
   4.3573110905940143E-01   4.2822114344125983E-01   4.2066144742853057E-01
   4.1305884169921736E-01   4.0542007561558968E-01   3.9775181669246329E-01
   3.9006064042787458E-01   3.8235302055064740E-01   3.7463531973602976E-01
   3.6691378083649012E-01   3.5919451866996255E-01   3.5148351240258791E-01
   3.4378659855718779E-01   3.3610946467275499E-01   3.2845764363399615E-01
   3.2083650868366853E-01   3.1325126912425588E-01   3.0570696670931113E-01
   2.9820847271885059E-01   2.9076048570745949E-01   2.8336752990818681E-01
   2.7603395427019678E-01   2.6876393210314392E-01   2.6156146129662700E-01
   2.5443036507880262E-01   2.4737429327413996E-01   2.4039672401666251E-01
   2.3350096587162267E-01   2.2669016031550374E-01   2.1996728452170841E-01
   2.1333515439702150E-01   2.0679642781238539E-01   2.0035360797042898E-01
   1.9400904685183862E-01   1.8776494868314089E-01   1.8162337336971693E-01
   1.7558623984018557E-01   1.6965532925157906E-01   1.6383228800907190E-01
   1.5811863055950440E-01   1.5251574192437858E-01   1.4702487994546004E-01
   1.4164717722438430E-01   1.3638364274657866E-01   1.3123516318919104E-01
   1.2620250392225860E-01   1.2128630972180128E-01   1.1648710522259254E-01
   1.1180529514672959E-01   1.0724116435156636E-01   1.0279487774677235E-01
   9.8466480135125739E-02   9.4255896034901324E-02   9.0162929543386047E-02
   8.6187264301047450E-02   8.2328463614278258E-02   7.8585970791567358E-02
   7.4959109743473376E-02   7.1447085891215178E-02   6.8048987422162338E-02
   6.4763786923283689E-02   6.1590343415989228E-02   5.8527404807896394E-02
   5.5573610769229800E-02   5.2727496034092491E-02   4.9987494120541869E-02
   4.7351941441292386E-02   4.4819081862011098E-02   4.2387071431910478E-02
   4.0053983754726470E-02   3.7817815355371528E-02   3.5676491458908173E-02
   3.3627871954273317E-02   3.1669757537484675E-02   2.9799895992568014E-02
   2.8015988568982637E-02   2.6315696414764125E-02   2.4696647025535100E-02
   2.3156440670919851E-02   2.1692656761664746E-02   2.0302860122817987E-02
   1.8984607140635251E-02   1.7735451753375157E-02   1.6552951258767611E-02
   1.5434671913674274E-02   1.4378194304206992E-02   1.3381118467353187E-02
   1.2441068747902248E-02   1.1555698377158072E-02   1.0722693762550192E-02
   9.9397784797712399E-03   9.2047169614863748E-03   8.5153178789436103E-03
   7.8694372149683573E-03   7.2649810288358558E-03   6.6999079153789651E-03
   6.1722311624048355E-03   5.6800206120549684E-03   5.2214042331598124E-03
   4.7945694129019004E-03   4.3977639772198015E-03   4.0292969503643913E-03
   3.6875390648539071E-03   3.3709230337835845E-03   3.0779435980237465E-03
   2.8071573612973074E-03   2.5571824264742789E-03   2.3266978466538299E-03
   2.1144429047411889E-03   1.9192162352675984E-03   1.7398748021529309E-03
   1.5753327459870376E-03   1.4245601142028374E-03   1.2865814872487164E-03
   1.1604745135417481E-03   1.0453683656011835E-03
       </PP_GIPAW_WFS_PS>
     </PP_GIPAW_ORBITAL.3>
   </PP_GIPAW_ORBITALS>
   <PP_GIPAW_VLOCAL>
     <PP_GIPAW_VLOCAL_AE size="1106">
   0.0000000000000000E+00  -3.1999049331268804E+01  -3.1999023517405778E+01
  -3.1999030470588192E+01  -3.1999033080295721E+01  -3.1999035877961287E+01
  -3.1999039220471449E+01  -3.1999043138829808E+01  -3.1999047657878283E+01
  -3.1999052802980049E+01  -3.1999058600316527E+01  -3.1999065076920186E+01
  -3.1999072260695083E+01  -3.1999080180441830E+01  -3.1999088865875898E+01
  -3.1999098347653550E+01  -3.1999108657391101E+01  -3.1999119827691487E+01
  -3.1999131892164485E+01  -3.1999144885449819E+01  -3.1999158843242768E+01
  -3.1999173802314829E+01  -3.1999189800537046E+01  -3.1999206876907746E+01
  -3.1999225071568265E+01  -3.1999244425833641E+01  -3.1999264982211152E+01
  -3.1999286784424470E+01  -3.1999309877437152E+01  -3.1999334307474474E+01
  -3.1999360122045253E+01  -3.1999387369965437E+01  -3.1999416101375878E+01
  -3.1999446367767600E+01  -3.1999478221999144E+01  -3.1999511718315997E+01
  -3.1999546912373603E+01  -3.1999583861249128E+01  -3.1999622623462315E+01
  -3.1999663258995266E+01  -3.1999705829298037E+01  -3.1999750397310699E+01
  -3.1999797027475832E+01  -3.1999845785743833E+01  -3.1999896739587612E+01
  -3.1999949958010902E+01  -3.2000005511550853E+01  -3.2000063472287103E+01
  -3.2000123913840405E+01  -3.2000186911375543E+01  -3.2000252541597931E+01
  -3.2000320882748959E+01  -3.2000392014602348E+01  -3.2000466018448385E+01
  -3.2000542977089488E+01  -3.2000622974811073E+01  -3.2000706097378931E+01
  -3.2000792432008133E+01  -3.2000882067333592E+01  -3.2000975093385932E+01
  -3.2001071601559502E+01  -3.2001171684564333E+01  -3.2001275436396227E+01
  -3.2001382952278128E+01  -3.2001494328622321E+01  -3.2001609662955083E+01
  -3.2001729053874243E+01  -3.2001852600965670E+01  -3.2001980404744067E+01
  -3.2002112566563902E+01  -3.2002249188541967E+01  -3.2002390373463321E+01
  -3.2002536224685585E+01  -3.2002686846030265E+01  -3.2002842341683319E+01
  -3.2003002816071643E+01  -3.2003168373734056E+01  -3.2003339119202160E+01
  -3.2003515156850625E+01  -3.2003696590751169E+01  -3.2003883524531737E+01
  -3.2004076061200315E+01  -3.2004274302983042E+01  -3.2004478351144513E+01
  -3.2004688305796357E+01  -3.2004904265725884E+01  -3.2005126328168046E+01
  -3.2005354588611169E+01  -3.2005589140571566E+01  -3.2005830075373609E+01
  -3.2006077481915689E+01  -3.2006331446440704E+01  -3.2006592052264715E+01
  -3.2006859379520805E+01  -3.2007133504917377E+01  -3.2007414501462328E+01
  -3.2007702438173617E+01  -3.2007997379798475E+01  -3.2008299386534638E+01
  -3.2008608513712865E+01  -3.2008924811530910E+01  -3.2009248324713674E+01
  -3.2009579092221720E+01  -3.2009917146927009E+01  -3.2010262515317805E+01
  -3.2010615217150182E+01  -3.2010975265158784E+01  -3.2011342664688186E+01
  -3.2011717413431462E+01  -3.2012099501072925E+01  -3.2012488908963114E+01
  -3.2012885609838904E+01  -3.2013289567467119E+01  -3.2013700736344333E+01
  -3.2014119061428296E+01  -3.2014544477820536E+01  -3.2014976910445647E+01
  -3.2015416273816406E+01  -3.2015862471759888E+01  -3.2016315397123599E+01
  -3.2016774931598441E+01  -3.2017240945378887E+01  -3.2017713297078039E+01
  -3.2018191833405453E+01  -3.2018676389095397E+01  -3.2019166786639566E+01
  -3.2019662836209832E+01  -3.2020164335522615E+01  -3.2020671069744481E+01
  -3.2021182811383923E+01  -3.2021699320318582E+01  -3.2022220343618272E+01
  -3.2022745615765245E+01  -3.2023274858487163E+01  -3.2023807780928365E+01
  -3.2024344079700370E+01  -3.2024883439018282E+01  -3.2025425530821096E+01
  -3.2025970015027461E+01  -3.2026516539672990E+01  -3.2027064741192319E+01
  -3.2027614244698739E+01  -3.2028164664317607E+01  -3.2028715603529150E+01
  -3.2029266655538272E+01  -3.2029817403666698E+01  -3.2030367421873208E+01
  -3.2030916275206764E+01  -3.2031463520265497E+01  -3.2032008705822037E+01
  -3.2032551373347857E+01  -3.2033091057616609E+01  -3.2033627287395930E+01
  -3.2034159586038690E+01  -3.2034687472179932E+01  -3.2035210460486248E+01
  -3.2035728062285180E+01  -3.2036239786468464E+01  -3.2036745140160349E+01
  -3.2037243629452171E+01  -3.2037734760334899E+01  -3.2038218039391992E+01
  -3.2038692974673644E+01  -3.2039159076524172E+01  -3.2039615858374717E+01
  -3.2040062837587243E+01  -3.2040499536311600E+01  -3.2040925482254046E+01
  -3.2041340209544309E+01  -3.2041743259555915E+01  -3.2042134181626828E+01
  -3.2042512533903519E+01  -3.2042877884067302E+01  -3.2043229810148027E+01
  -3.2043567901176608E+01  -3.2043891757903502E+01  -3.2044200993511055E+01
  -3.2044495234100616E+01  -3.2044774119520696E+01  -3.2045037303830874E+01
  -3.2045284455780831E+01  -3.2045515259435334E+01  -3.2045729414483318E+01
  -3.2045926636848840E+01  -3.2046106658959644E+01  -3.2046269229999069E+01
  -3.2046414116440012E+01  -3.2046541101997526E+01  -3.2046649988060800E+01
  -3.2046740593759743E+01  -3.2046812756057626E+01  -3.2046866329852456E+01
  -3.2046901187923019E+01  -3.2046917221023065E+01  -3.2046914337709950E+01
  -3.2046892464230858E+01  -3.2046851544445651E+01  -3.2046791539482960E+01
  -3.2046712427624747E+01  -3.2046614203986273E+01  -3.2046496880102218E+01
  -3.2046360483721671E+01  -3.2046205058260128E+01  -3.2046030662506887E+01
  -3.2045837370076690E+01  -3.2045625268944242E+01  -3.2045394460906181E+01
  -3.2045145061113729E+01  -3.2044877197423808E+01  -3.2044591009893928E+01
  -3.2044286650081496E+01  -3.2043964280522978E+01  -3.2043624074045795E+01
  -3.2043266213184253E+01  -3.2042890889451719E+01  -3.2042498302721455E+01
  -3.2042088660589123E+01  -3.2041662177686653E+01  -3.2041219074999219E+01
  -3.2040759579227156E+01  -3.2040283922116288E+01  -3.2039792339824515E+01
  -3.2039285072223599E+01  -3.2038762362362263E+01  -3.2038224455725896E+01
  -3.2037671599695607E+01  -3.2037104042923957E+01  -3.2036522034759756E+01
  -3.2035925824669903E+01  -3.2035315661686795E+01  -3.2034691793881727E+01
  -3.2034054467842196E+01  -3.2033403928186388E+01  -3.2032740417080035E+01
  -3.2032064173784775E+01  -3.2031375434202566E+01  -3.2030674430522375E+01
  -3.2029961390767902E+01  -3.2029236538452032E+01  -3.2028500092255442E+01
  -3.2027752265644878E+01  -3.2026993266633568E+01  -3.2026223297470075E+01
  -3.2025442554363124E+01  -3.2024651227280039E+01  -3.2023849499699303E+01
  -3.2023037548430452E+01  -3.2022215543431031E+01  -3.2021383647644029E+01
  -3.2020542016861810E+01  -3.2019690799605236E+01  -3.2018830137020302E+01
  -3.2017960162792455E+01  -3.2017081003066266E+01  -3.2016192776400857E+01
  -3.2015295593722080E+01  -3.2014389558298014E+01  -3.2013474765723373E+01
  -3.2012551303920972E+01  -3.2011619253149732E+01  -3.2010678686025308E+01
  -3.2009729667556179E+01  -3.2008772255179764E+01  -3.2007806498819320E+01
  -3.2006832440934069E+01  -3.2005850116594132E+01  -3.2004859553544520E+01
  -3.2003860772291034E+01  -3.2002853786184879E+01  -3.2001838601511494E+01
  -3.2000815217575749E+01  -3.1999783626818548E+01  -3.1998743814897871E+01
  -3.1997695760823181E+01  -3.1996639437015006E+01  -3.1995574809462276E+01
  -3.1994501837797170E+01  -3.1993420475429339E+01  -3.1992330669642119E+01
  -3.1991232361723089E+01  -3.1990125487028930E+01  -3.1989009975175435E+01
  -3.1987885750079098E+01  -3.1986752730094405E+01  -3.1985610828125797E+01
  -3.1984459951719398E+01  -3.1983300003181853E+01  -3.1982130879685911E+01
  -3.1980952473358130E+01  -3.1979764671388335E+01  -3.1978567356109153E+01
  -3.1977360405132117E+01  -3.1976143691393311E+01  -3.1974917083264526E+01
  -3.1973680444629768E+01  -3.1972433634976067E+01  -3.1971176509477456E+01
  -3.1969908919057637E+01  -3.1968630710483559E+01  -3.1967341726409835E+01
  -3.1966041805468059E+01  -3.1964730782331497E+01  -3.1963408487766149E+01
  -3.1962074748696612E+01  -3.1960729388250098E+01  -3.1959372225815176E+01
  -3.1958003077117780E+01  -3.1956621754205759E+01  -3.1955228065554415E+01
  -3.1953821816071379E+01  -3.1952402807140405E+01  -3.1950970836667935E+01
  -3.1949525699091307E+01  -3.1948067185446234E+01  -3.1946595083323711E+01
  -3.1945109176964785E+01  -3.1943609247263300E+01  -3.1942095071736784E+01
  -3.1940566424610182E+01  -3.1939023076768265E+01  -3.1937464795800505E+01
  -3.1935891346035362E+01  -3.1934302488453220E+01  -3.1932697980776513E+01
  -3.1931077577420350E+01  -3.1929441029561719E+01  -3.1927788085048743E+01
  -3.1926118488428674E+01  -3.1924431980939072E+01  -3.1922728300517520E+01
  -3.1921007181773827E+01  -3.1919268355965258E+01  -3.1917511551018887E+01
  -3.1915736491463512E+01  -3.1913942898435209E+01  -3.1912130489653727E+01
  -3.1910298979421228E+01  -3.1908448078554507E+01  -3.1906577494439830E+01
  -3.1904686930893551E+01  -3.1902776088208920E+01  -3.1900844663112736E+01
  -3.1898892348710415E+01  -3.1896918834500276E+01  -3.1894923806283302E+01
  -3.1892906946191005E+01  -3.1890867932588773E+01  -3.1888806440053177E+01
  -3.1886722139344478E+01  -3.1884614697358604E+01  -3.1882483777120779E+01
  -3.1880329037684302E+01  -3.1878150134114939E+01  -3.1875946717440655E+01
  -3.1873718434609501E+01  -3.1871464928444329E+01  -3.1869185837594561E+01
  -3.1866880796454090E+01  -3.1864549435201127E+01  -3.1862191379633114E+01
  -3.1859806251180178E+01  -3.1857393666829818E+01  -3.1854953239083716E+01
  -3.1852484575912445E+01  -3.1849987280676412E+01  -3.1847460952089691E+01
  -3.1844905184129821E+01  -3.1842319566000135E+01  -3.1839703682080163E+01
  -3.1837057111834717E+01  -3.1834379429828960E+01  -3.1831670205536380E+01
  -3.1828929003391160E+01  -3.1826155382652544E+01  -3.1823348897391153E+01
  -3.1820509096383589E+01  -3.1817635523074895E+01  -3.1814727715485844E+01
  -3.1811785206179245E+01  -3.1808807522150079E+01  -3.1805794184779817E+01
  -3.1802744709747699E+01  -3.1799658606985165E+01  -3.1796535380614745E+01
  -3.1793374528815132E+01  -3.1790175543821313E+01  -3.1786937911785724E+01
  -3.1783661112743655E+01  -3.1780344620535271E+01  -3.1776987902709894E+01
  -3.1773590420484943E+01  -3.1770151628622969E+01  -3.1766670975371831E+01
  -3.1763147902396838E+01  -3.1759581844684035E+01  -3.1755972230463009E+01
  -3.1752318481154123E+01  -3.1748620011247713E+01  -3.1744876228234787E+01
  -3.1741086532531583E+01  -3.1737250317373686E+01  -3.1733366968765953E+01
  -3.1729435865361815E+01  -3.1725456378426845E+01  -3.1721427871700314E+01
  -3.1717349701321719E+01  -3.1713221215760296E+01  -3.1709041755707513E+01
  -3.1704810654021617E+01  -3.1700527235596784E+01  -3.1696190817292788E+01
  -3.1691800707863834E+01  -3.1687356207828749E+01  -3.1682856609408148E+01
  -3.1678301196419827E+01  -3.1673689244189262E+01  -3.1669020019492500E+01
  -3.1664292780397361E+01  -3.1659506776217352E+01  -3.1654661247406032E+01
  -3.1649755425456455E+01  -3.1644788532825569E+01  -3.1639759782814998E+01
  -3.1634668379514011E+01  -3.1629513517656136E+01  -3.1624294382561509E+01
  -3.1619010150018262E+01  -3.1613659986212554E+01  -3.1608243047604134E+01
  -3.1602758480866495E+01  -3.1597205422754715E+01  -3.1591583000035595E+01
  -3.1585890329371360E+01  -3.1580126517242743E+01  -3.1574290659845648E+01
  -3.1568381842989854E+01  -3.1562399142035314E+01  -3.1556341621751326E+01
  -3.1550208336248211E+01  -3.1543998328876100E+01  -3.1537710632136719E+01
  -3.1531344267595905E+01  -3.1524898245771013E+01  -3.1518371566057699E+01
  -3.1511763216623212E+01  -3.1505072174319910E+01  -3.1498297404601640E+01
  -3.1491437861424711E+01  -3.1484492487161795E+01  -3.1477460212527731E+01
  -3.1470339956461114E+01  -3.1463130626061488E+01  -3.1455831116497723E+01
  -3.1448440310921399E+01  -3.1440957080390142E+01  -3.1433380283775403E+01
  -3.1425708767699550E+01  -3.1417941366431958E+01  -3.1410076901828194E+01
  -3.1402114183246496E+01  -3.1394052007472212E+01  -3.1385889158660202E+01
  -3.1377624408246668E+01  -3.1369256514879229E+01  -3.1360784224351864E+01
  -3.1352206269552212E+01  -3.1343521370372720E+01  -3.1334728233675094E+01
  -3.1325825553211430E+01  -3.1316812009587913E+01  -3.1307686270187443E+01
  -3.1298446989124017E+01  -3.1289092807205073E+01  -3.1279622351870874E+01
  -3.1270034237164705E+01  -3.1260327063677821E+01  -3.1250499418520736E+01
  -3.1240549875280472E+01  -3.1230476993992593E+01  -3.1220279321113914E+01
  -3.1209955389494610E+01  -3.1199503718366937E+01  -3.1188922813308388E+01
  -3.1178211166236530E+01  -3.1167367255399469E+01  -3.1156389545365858E+01
  -3.1145276487019650E+01  -3.1134026517571311E+01  -3.1122638060546720E+01
  -3.1111109525811212E+01  -3.1099439309570482E+01  -3.1087625794390618E+01
  -3.1075667349224254E+01  -3.1063562329431527E+01  -3.1051309076824872E+01
  -3.1038905919684300E+01  -3.1026351172810212E+01  -3.1013643137558592E+01
  -3.1000780101900727E+01  -3.0987760340478349E+01  -3.0974582114653412E+01
  -3.0961243672575200E+01  -3.0947743249263727E+01  -3.0934079066663827E+01
  -3.0920249333735860E+01  -3.0906252246534454E+01  -3.0892085988307407E+01
  -3.0877748729589793E+01  -3.0863238628289643E+01  -3.0848553829813198E+01
  -3.0833692467159668E+01  -3.0818652661043064E+01  -3.0803432520013676E+01
  -3.0788030140580453E+01  -3.0772443607350311E+01  -3.0756670993153488E+01
  -3.0740710359182067E+01  -3.0724559755143140E+01  -3.0708217219409438E+01
  -3.0691680779164734E+01  -3.0674948450573808E+01  -3.0658018238935234E+01
  -3.0640888138857658E+01  -3.0623556134423065E+01  -3.0606020199366135E+01
  -3.0588278297254153E+01  -3.0570328381663447E+01  -3.0552168396379848E+01
  -3.0533796275569010E+01  -3.0515209943976522E+01  -3.0496407317121864E+01
  -3.0477386301493407E+01  -3.0458144794748847E+01  -3.0438680685909457E+01
  -3.0418991855569811E+01  -3.0399076176091398E+01  -3.0378931511809000E+01
  -3.0358555719231987E+01  -3.0337946647247094E+01  -3.0317102137323271E+01
  -3.0296020023714696E+01  -3.0274698133652453E+01  -3.0253134287547915E+01
  -3.0231326299187803E+01  -3.0209271975924143E+01  -3.0186969118869929E+01
  -3.0164415523077317E+01  -3.0141608977729572E+01  -3.0118547266303977E+01
  -3.0095228166752275E+01  -3.0071649451663774E+01  -3.0047808888423770E+01
  -3.0023704239370147E+01  -2.9999333261931962E+01  -2.9974693708769692E+01
  -2.9949783327898771E+01  -2.9924599862818365E+01  -2.9899141052609824E+01
  -2.9873404632042753E+01  -2.9847388331662657E+01  -2.9821089877873668E+01
  -2.9794506992994968E+01  -2.9767637395322339E+01  -2.9740478799169935E+01
  -2.9713028914899507E+01  -2.9685285448940864E+01  -2.9657246103788932E+01
  -2.9628908578004598E+01  -2.9600270566181422E+01  -2.9571329758915819E+01
  -2.9542083842754554E+01  -2.9512530500132968E+01  -2.9482667409302437E+01
  -2.9452492244231369E+01  -2.9422002674507162E+01  -2.9391196365224200E+01
  -2.9360070976851127E+01  -2.9328624165095011E+01  -2.9296853580754096E+01
  -2.9264756869555644E+01  -2.9232331671993347E+01  -2.9199575623144650E+01
  -2.9166486352496261E+01  -2.9133061483751437E+01  -2.9099298634645489E+01
  -2.9065195416751674E+01  -2.9030749435285202E+01  -2.8995958288919002E+01
  -2.8960819569591070E+01  -2.8925330862327321E+01  -2.8889489745068726E+01
  -2.8853293788511014E+01  -2.8816740555951242E+01  -2.8779827603164886E+01
  -2.8742552478280871E+01  -2.8704912721694956E+01  -2.8666905865997837E+01
  -2.8628529435932577E+01  -2.8589780948382778E+01  -2.8550657912384104E+01
  -2.8511157829179115E+01  -2.8471278192299028E+01  -2.8431016487688176E+01
  -2.8390370193861003E+01  -2.8349336782105574E+01  -2.8307913716719948E+01
  -2.8266098455285711E+01  -2.8223888448983409E+01  -2.8181281142939689E+01
  -2.8138273976608893E+01  -2.8094864384176194E+01  -2.8051049794988984E+01
  -2.8006827633994757E+01  -2.7962195322193161E+01  -2.7917150277073173E+01
  -2.7871689913037883E+01  -2.7825811641799302E+01  -2.7779512872720609E+01
  -2.7732791013096360E+01  -2.7685643468339471E+01  -2.7638067642065543E+01
  -2.7590060936037766E+01  -2.7541620749955968E+01  -2.7492744481055233E+01
  -2.7443429523487950E+01  -2.7393673267461693E+01  -2.7343473098097739E+01
  -2.7292826393991561E+01  -2.7241730525439490E+01  -2.7190182852318159E+01
  -2.7138180721594022E+01  -2.7085721464457389E+01  -2.7032802393076484E+01
  -2.6979420796993661E+01  -2.6925573939183391E+01  -2.6871259051827348E+01
  -2.6816473331879049E+01  -2.6761213936515627E+01  -2.6705477978617559E+01
  -2.6649262522439681E+01  -2.6592564579704046E+01  -2.6535381106374981E+01
  -2.6477709000437084E+01  -2.6419545101072032E+01  -2.6360886189653161E+01
  -2.6301728993102181E+01  -2.6242070190173049E+01  -2.6181906421280821E+01
  -2.6121234302618152E+01  -2.6060050445253037E+01  -2.5998351479989186E+01
  -2.5936134088771357E+01  -2.5873395043323441E+01  -2.5810131251705705E+01
  -2.5746339813297372E+01  -2.5682018082516688E+01  -2.5617163741382118E+01
  -2.5551774880584432E+01  -2.5485850088402884E+01  -2.5419388546262958E+01
  -2.5352390129122355E+01  -2.5284855508325641E+01  -2.5216786253824523E+01
  -2.5148184932080529E+01  -2.5079055194887868E+01  -2.5009401856430465E+01
  -2.4939230948038976E+01  -2.4868549753319499E+01  -2.4797366811314248E+01
  -2.4725691887067420E+01  -2.4653535904680293E+01  -2.4580910840410755E+01
  -2.4507829574884774E+01  -2.4434305705119730E+01  -2.4360353319160264E+01
  -2.4285986737972088E+01  -2.4211220231127243E+01  -2.4136067714454327E+01
  -2.4060542438921679E+01  -2.3984656680793456E+01  -2.3908421443296540E+01
  -2.3831846179591018E+01  -2.3754938546150704E+01  -2.3677704194476490E+01
  -2.3600146607643918E+01  -2.3522266986913976E+01  -2.3444064192062843E+01
  -2.3365534737828661E+01  -2.3286672847630857E+01  -2.3207470564233891E+01
  -2.3127917915741453E+01  -2.3048003133517227E+01  -2.2967712916595556E+01
  -2.2887032735101236E+01  -2.2805947162720773E+01  -2.2724440226340132E+01
  -2.2642495759414533E+01  -2.2560097744837417E+01  -2.2477230633659165E+01
  -2.2393879627416140E+01  -2.2310030914497954E+01  -2.2225671854494028E+01
  -2.2140791108066754E+01  -2.2055378713818644E+01  -2.1969426116811697E+01
  -2.1882926155786055E+01  -2.1795873017796325E+01  -2.1708262169317216E+01
  -2.1620090272587021E+01  -2.1531355094926610E+01  -2.1442055417168923E+01
  -2.1352190945754014E+01  -2.1261762231363996E+01  -2.1170770595414925E+01
  -2.1079218064702548E+01  -2.0987107313444032E+01  -2.0894441611562968E+01
  -2.0801224777798033E+01  -2.0707461136088284E+01  -2.0613155473978097E+01
  -2.0518313001926860E+01  -2.0422939312701224E+01  -2.0327040340403510E+01
  -2.0230622318847935E+01  -2.0133691739276362E+01  -2.0036255307624693E+01
  -1.9938319901547089E+01  -1.9839892527605667E+01  -1.9740980279028410E+01
  -1.9641590294374247E+01  -1.9541729717573332E+01  -1.9441405659618720E+01
  -1.9340625162279370E+01  -1.9239395164107886E+01  -1.9137722468954596E+01
  -1.9035613717249163E+01  -1.8933075360201929E+01  -1.8830113637080569E+01
  -1.8726734555742393E+01  -1.8622943876494627E+01  -1.8518747099420999E+01
  -1.8414149455281855E+01  -1.8309155900009149E+01  -1.8203771112909209E+01
  -1.8097999498554689E+01  -1.7991845192344538E+01  -1.7885312069709578E+01
  -1.7778403758780538E+01  -1.7671123656360479E+01  -1.7563474946906467E+01
  -1.7455460624094215E+01  -1.7347083514513546E+01  -1.7238346302790390E+01
  -1.7129251557363812E+01  -1.7019801756000028E+01  -1.6909999309879016E+01
  -1.6799846585053761E+01  -1.6689345919875215E+01  -1.6578499636872241E+01
  -1.6467310047603743E+01  -1.6355779448938339E+01  -1.6243910109425229E+01
  -1.6131704244706782E+01  -1.6019163981344978E+01  -1.5906291309220419E+01
  -1.5793088023605922E+01  -1.5679555659348857E+01  -1.5565695421351215E+01
  -1.5451508117563789E+01  -1.5336994103323997E+01  -1.5222153248737682E+01
  -1.5106984943978910E+01  -1.4991488160782589E+01  -1.4875661591430259E+01
  -1.4759503889633287E+01  -1.4643014037022070E+01  -1.4526191863354896E+01
  -1.4409038737746242E+01  -1.4291558448396358E+01  -1.4173758271471566E+01
  -1.4055650214386858E+01  -1.3937252395101311E+01  -1.3818590491216538E+01
  -1.3699699158798849E+01  -1.3580623297749975E+01  -1.3461418995482513E+01
  -1.3342153983513722E+01  -1.3222907419657135E+01  -1.3103768830539082E+01
  -1.2984836080958164E+01  -1.2866212292371973E+01  -1.2748001708599535E+01
  -1.2630304601731108E+01  -1.2513211425169274E+01  -1.2396796553177470E+01
  -1.2281112093489408E+01  -1.2166182406806925E+01  -1.2052000080719115E+01
  -1.1938524132626728E+01  -1.1825681094250504E+01  -1.1713369316371320E+01
  -1.1601466339847757E+01  -1.1489838599228879E+01  -1.1378352217755587E+01
  -1.1266883387426075E+01  -1.1155326909802948E+01  -1.1043601887313406E+01
  -1.0931654167469144E+01  -1.0819455762751854E+01  -1.0707001930427731E+01
  -1.0594306814855960E+01  -1.0481398539829634E+01  -1.0368314463102541E+01
  -1.0255097061538805E+01  -1.0141790679370889E+01  -1.0028439187223501E+01
  -9.9150844791818447E+00  -9.8017656724948754E+00  -9.6885188534730098E+00
  -9.5753772179521306E+00  -9.4623714724415944E+00  -9.3495303845646269E+00
  -9.2368813944494832E+00  -9.1244512199996404E+00  -9.0122664080159467E+00
  -8.9003537997567914E+00  -8.7887408934501359E+00  -8.6774560978102979E+00
  -8.5665288795077057E+00  -8.4559898138779772E+00  -8.3458705523651204E+00
  -8.2362037222024345E+00  -8.1270227743133567E+00  -8.0183617946940569E+00
  -7.9102552928860241E+00  -7.8027379791631111E+00  -7.6958445398596291E+00
  -7.5896094180464493E+00  -7.4840666049051325E+00  -7.3792494453609638E+00
  -7.2751904602135848E+00  -7.1719211859293690E+00  -7.0694720323825102E+00
  -6.9678721583452621E+00  -6.8671493640991770E+00  -6.7673300003023584E+00
  -6.6684388921898705E+00  -6.5704992780914848E+00  -6.4735327612885936E+00
  -6.3775592744599017E+00  -6.2825970553529658E+00  -6.1886626338386570E+00
  -6.0957708287379360E+00  -6.0039347543614143E+00  -5.9131658360692247E+00
  -5.8234738343395582E+00  -5.7348668769165245E+00  -5.6473514986070654E+00
  -5.5609326882853738E+00  -5.4756139427120614E+00  -5.3913973267361479E+00
  -5.3082835394034982E+00  -5.2262719855373962E+00  -5.1453608522219234E+00
  -5.0655471896350859E+00  -4.9868269956161129E+00  -4.9091953032383762E+00
  -4.8326462705550473E+00  -4.7571732720644668E+00  -4.6827689899012643E+00
  -4.6094255059883178E+00  -4.5371343900197543E+00  -4.4658867876862152E+00
  -4.3956735026503786E+00  -4.3264850742909244E+00  -4.2583118485125482E+00
  -4.1911440410500571E+00  -4.1249717915667592E+00  -4.0597852077363772E+00
  -3.9955743982371632E+00  -3.9323294939609372E+00  -3.8700406569874297E+00
  -3.8086980772075654E+00  -3.7482919569675150E+00  -3.6888124845402301E+00
  -3.6302497978330752E+00  -3.5725939403619935E+00  -3.5158348121385785E+00
  -3.4599621188383876E+00  -3.4049653232549888E+00  -3.3508336036602731E+00
  -3.2975558242623069E+00  -3.2451205233292142E+00  -3.1935159247728406E+00
  -3.1427299789784393E+00  -3.0927504382480806E+00  -3.0435649714991384E+00
  -2.9951613215181903E+00  -2.9475275062029120E+00  -2.9006520626787422E+00
  -2.8545243298670466E+00  -2.8091347611529724E+00  -2.7644752542303266E+00
  -2.7205394802621248E+00  -2.6773231896095924E+00  -2.6348244669845231E+00
  -2.5930439057249512E+00  -2.5519846698091020E+00  -2.5116524138836325E+00
  -2.4720550368522898E+00  -2.4332022537565083E+00  -2.3951049836572458E+00
  -2.3577745675072928E+00  -2.3212218479470148E+00  -2.2854561607534016E+00
  -2.2504843028127604E+00  -2.2163095513660851E+00  -2.1829308119958468E+00
  -2.1503419669287491E+00  -2.1185314807652977E+00  -2.0874822992133359E+00
  -2.0571720501159678E+00  -2.0275735287404912E+00  -1.9986554244820984E+00
  -1.9703832269019566E+00  -1.9427202378761468E+00  -1.9156286140741723E+00
  -1.8890703696079760E+00  -1.8630082808996102E+00  -1.8374066518680918E+00
  -1.8122319152271591E+00  -1.7874530624253164E+00  -1.7630419088248603E+00
  -1.7389732113409924E+00  -1.7152246622840448E+00  -1.6917767861266420E+00
  -1.6686127659459107E+00  -1.6457182239722064E+00  -1.6230809772184720E+00
  -1.6006907849698915E+00  -1.5785391006612457E+00  -1.5566188368906524E+00
  -1.5349241489560510E+00  -1.5134502397011231E+00  -1.4921931865205873E+00
  -1.4711497899427279E+00  -1.4503174423859855E+00  -1.4296940152110202E+00
  -1.4092777619420516E+00  -1.3890672356546023E+00  -1.3690612185520696E+00
  -1.3492586620570786E+00  -1.3296586359713953E+00  -1.3102602854610839E+00
  -1.2910627949261504E+00  -1.2720653579783030E+00  -1.2532671529196437E+00
  -1.2346673233124439E+00  -1.2162649632844862E+00  -1.1980591073289355E+00
  -1.1800487244597033E+00  -1.1622327165333985E+00  -1.1446099206731382E+00
  -1.1271791154850368E+00  -1.1099390320924758E+00  -1.0928883666941176E+00
  -1.0760257994931481E+00  -1.0593500149767170E+00  -1.0428597260547654E+00
  -1.0265537008451500E+00  -1.0104307918388491E+00  -9.9448996696604752E-01
  -9.7873034200513054E-01  -9.6315121373351076E-01  -9.4775209308832820E-01
  -9.3253273758189037E-01  -9.1749318215660824E-01  -9.0263376758523606E-01
  -8.8795516555916698E-01  -8.7345839956568361E-01  -8.5914486069728135E-01
  -8.4501631762046692E-01  -8.3107491997488558E-01  -8.1732319463420555E-01
  -8.0376403438679733E-01  -7.9040067875206288E-01  -7.7723668686369618E-01
  -7.6427590251916933E-01  -7.5152241168224154E-01  -7.3898049298250190E-01
  -7.2665456184192390E-01  -7.1454910908390334E-01  -7.0266863497512821E-01
  -6.9101757974982547E-01  -6.7960025172705130E-01  -6.6842075414227020E-01
  -6.5748291180214846E-01  -6.4679019861447751E-01  -6.3634566696767580E-01
  -6.2615187982650899E-01  -6.1621084629242850E-01  -6.0652396125380481E-01
  -5.9709194961152667E-01  -5.8791481546414959E-01  -5.7899179651376320E-01
  -5.7032132387346068E-01  -5.6190098740470751E-01  -5.5372750665654569E-01
  -5.4579670748993703E-01  -5.3810350448265754E-01  -5.3064188924342093E-01
  -5.2340492485275292E-01  -5.1638474670877554E-01  -5.0957257015562563E-01
  -5.0295870537601617E-01  -4.9653258009918178E-01  -4.9028277076067650E-01
  -4.8419704280079801E-01  -4.7826240077799759E-01  -4.7246514897373676E-01
  -4.6679096304561046E-01  -4.6122497316522132E-01  -4.5575185886253311E-01
  -4.5035595551834340E-01  -4.4502137213680859E-01  -4.3973211963678321E-01
  -4.3447224848040306E-01  -4.2922599403686135E-01  -4.2397792762182474E-01
  -4.1871311075323309E-01  -4.1341724981054340E-01  -4.0807684798849508E-01
  -4.0267935127661253E-01  -3.9721328512848952E-01  -3.9166837855888736E-01
  -3.8603567263795391E-01  -3.8030761068543673E-01  -3.7447810795351827E-01
  -3.6854259915741167E-01  -3.6249806285439995E-01  -3.5634302236696297E-01
  -3.5007752362789452E-01  -3.4370309098650154E-01  -3.3722266261834838E-01
  -3.3064050768117942E-01  -3.2396212777000571E-01  -3.1719414550393782E-01
  -3.1034418323466151E-01  -3.0342073491268456E-01  -2.9643303407331306E-01
  -2.8939092074254141E-01  -2.8230470982410039E-01  -2.7518506322757863E-01
  -2.6804286765893709E-01  -2.6088911933190373E-01  -2.5373478200880650E-01
  -2.4658999144061070E-01  -2.3946847484539968E-01  -2.3237667806896217E-01
  -2.2532702206042779E-01  -2.1832883811045048E-01  -2.1139142950078410E-01
  -2.0452365855131222E-01  -1.9773388992849014E-01  -1.9102996851192705E-01
  -1.8441920441758772E-01  -1.7790836435141782E-01  -1.7150366856197052E-01
  -1.6521079268030089E-01  -1.5903487376770839E-01  -1.5298051993269365E-01
  -1.4705182292548186E-01  -1.4125237316928865E-01  -1.3558527673946316E-01
  -1.3005317385413556E-01  -1.2465825849075605E-01  -1.1940229879168941E-01
  -1.1428665796790088E-01  -1.0931231545214791E-01  -1.0447988809202521E-01
  -9.9789651208316663E-02  -9.5241559375526502E-02  -9.0835266809284845E-02
  -8.6570147269674089E-02  -8.2445313410620627E-02  -7.8459635523630833E-02
  -7.4611759639505157E-02  -7.0900124964533448E-02  -6.7322980638366128E-02
  -6.3878401809423224E-02  -6.0564305030675641E-02  -5.7378462984117230E-02
  -5.4318518546387459E-02  -5.1381998211114527E-02  -4.8566324885688947E-02
  -4.5868830081551834E-02  -4.3286765517870106E-02  -4.0817314158692532E-02
  -3.8457600703550879E-02  -3.6204701551028187E-02  -3.4055654254113013E-02
  -3.2007466485364192E-02  -3.0057124528948778E-02  -2.8201601315641100E-02
  -2.6437864015885826E-02  -2.4762881205020938E-02
     </PP_GIPAW_VLOCAL_AE>
     <PP_GIPAW_VLOCAL_PS size="1106">
   0.0000000000000000E+00  -3.0617149035578088E-04  -3.1002265375084390E-04
  -3.1392225881803846E-04  -3.1787091487856417E-04  -3.2186923891796919E-04
  -3.2591785568250554E-04  -3.3001739777680091E-04  -3.3416850576262642E-04
  -3.3837182825905169E-04  -3.4262802204377326E-04  -3.4693775215573067E-04
  -3.5130169199901575E-04  -3.5572052344810042E-04  -3.6019493695438847E-04
  -3.6472563165408363E-04  -3.6931331547745446E-04  -3.7395870525946338E-04
  -3.7866252685164975E-04  -3.8342551523574736E-04  -3.8824841463837610E-04
  -3.9313197864736493E-04  -3.9807697032951978E-04  -4.0308416234987237E-04
  -4.0815433709234425E-04  -4.1328828678201528E-04  -4.1848681360905370E-04
  -4.2375072985376377E-04  -4.2908085801382013E-04  -4.3447803093255998E-04
  -4.3994309192922377E-04  -4.4547689493072001E-04  -4.5108030460502135E-04
  -4.5675419649630645E-04  -4.6249945716168189E-04  -4.6831698430984130E-04
  -4.7420768694121418E-04  -4.8017248549004059E-04  -4.8621231196830137E-04
  -4.9232811011111380E-04  -4.9852083552437909E-04  -5.0479145583403196E-04
  -5.1114095083726297E-04  -5.1757031265557132E-04  -5.2408054588979475E-04
  -5.3067266777715794E-04  -5.3734770835008603E-04  -5.4410671059723365E-04
  -5.5095073062645856E-04  -5.5788083782980376E-04  -5.6489811505062320E-04
  -5.7200365875270415E-04  -5.7919857919175365E-04  -5.8648400058869605E-04
  -5.9386106130544607E-04  -6.0133091402271002E-04  -6.0889472592020536E-04
  -6.1655367885888256E-04  -6.2430896956572096E-04  -6.3216180982066767E-04
  -6.4011342664599218E-04  -6.4816506249796527E-04  -6.5631797546104485E-04
  -6.6457343944450065E-04  -6.7293274438129402E-04  -6.8139719642989214E-04
  -6.8996811817807258E-04  -6.9864684884980309E-04  -7.0743474451442499E-04
  -7.1633317829845498E-04  -7.2534354060024820E-04  -7.3446723930728193E-04
  -7.4370570001594115E-04  -7.5306036625457588E-04  -7.6253269970875449E-04
  -7.7212418044983640E-04  -7.8183630716619184E-04  -7.9167059739731723E-04
  -8.0162858777108493E-04  -8.1171183424368781E-04  -8.2192191234292601E-04
  -8.3226041741423895E-04  -8.4272896487001532E-04  -8.5332919044209797E-04
  -8.6406275043727620E-04  -8.7493132199604866E-04  -8.8593660335490253E-04
  -8.9708031411126691E-04  -9.0836419549274704E-04  -9.1979001062862870E-04
  -9.3135954482572022E-04  -9.4307460584732686E-04  -9.5493702419544317E-04
  -9.6694865339706369E-04  -9.7911137029367675E-04  -9.9142707533446937E-04
  -1.0038976928733354E-03  -1.0165251714696661E-03  -1.0293114841925463E-03
  -1.0422586289293696E-03  -1.0553686286976936E-03  -1.0686435319617132E-03
  -1.0820854129520304E-03  -1.0956963719897077E-03  -1.1094785358148345E-03
  -1.1234340579184248E-03  -1.1375651188791345E-03  -1.1518739267039075E-03
  -1.1663627171731453E-03  -1.1810337541895194E-03  -1.1958893301325497E-03
  -1.2109317662160103E-03  -1.2261634128511278E-03  -1.2415866500135153E-03
  -1.2572038876152488E-03  -1.2730175658814866E-03  -1.2890301557315104E-03
  -1.3052441591649012E-03  -1.3216621096526072E-03  -1.3382865725327256E-03
  -1.3551201454112532E-03  -1.3721654585680887E-03  -1.3894251753679384E-03
  -1.4069019926765658E-03  -1.4245986412821968E-03  -1.4425178863218188E-03
  -1.4606625277140354E-03  -1.4790354005956221E-03  -1.4976393757653520E-03
  -1.5164773601319822E-03  -1.5355522971687388E-03  -1.5548671673731049E-03
  -1.5744249887328018E-03  -1.5942288171967862E-03  -1.6142817471536807E-03
  -1.6345869119141830E-03  -1.6551474842013826E-03  -1.6759666766464462E-03
  -1.6970477422902210E-03  -1.7183939750918893E-03  -1.7400087104435761E-03
  -1.7618953256913026E-03  -1.7840572406630706E-03  -1.8064979182028380E-03
  -1.8292208647118842E-03  -1.8522296306965613E-03  -1.8755278113232656E-03
  -1.8991190469793016E-03  -1.9230070238433099E-03  -1.9471954744599103E-03
  -1.9716881783231931E-03  -1.9964889624678908E-03  -2.0216017020662871E-03
  -2.0470303210349118E-03  -2.0727787926466431E-03  -2.0988511401521192E-03
  -2.1252514374084856E-03  -2.1519838095152106E-03  -2.1790524334594392E-03
  -2.2064615387682538E-03  -2.2342154081695844E-03  -2.2623183782614830E-03
  -2.2907748401896047E-03  -2.3195892403335585E-03  -2.3487660810014186E-03
  -2.3783099211331683E-03  -2.4082253770133020E-03  -2.4385171229920331E-03
  -2.4691898922157961E-03  -2.5002484773662867E-03  -2.5316977314098345E-03
  -2.5635425683557278E-03  -2.5957879640238226E-03  -2.6284389568217931E-03
  -2.6615006485328913E-03  -2.6949782051129334E-03  -2.7288768574971079E-03
  -2.7632019024180147E-03  -2.7979587032328102E-03  -2.8331526907610280E-03
  -2.8687893641340619E-03  -2.9048742916535329E-03  -2.9414131116613494E-03
  -2.9784115334214383E-03  -3.0158753380113649E-03  -3.0538103792252342E-03
  -3.0922225844891961E-03  -3.1311179557873860E-03  -3.1705025705985545E-03
  -3.2103825828480237E-03  -3.2507642238672474E-03  -3.2916538033677997E-03
  -3.3330577104283411E-03  -3.3749824144917668E-03  -3.4174344663762818E-03
  -3.4604204992998793E-03  -3.5039472299155561E-03  -3.5480214593614401E-03
  -3.5926500743236464E-03  -3.6378400481115753E-03  -3.6835984417485138E-03
  -3.7299324050741774E-03  -3.7768491778621036E-03  -3.8243560909510029E-03
  -3.8724605673900393E-03  -3.9211701235986737E-03  -3.9704923705418758E-03
  -4.0204350149174667E-03  -4.0710058603625112E-03  -4.1222128086713730E-03
  -4.1740638610301573E-03  -4.2265671192684030E-03  -4.2797307871232163E-03
  -4.3335631715224884E-03  -4.3880726838815016E-03  -4.4432678414186143E-03
  -4.4991572684855933E-03  -4.5557496979146250E-03  -4.6130539723836586E-03
  -4.6710790457972703E-03  -4.7298339846867160E-03  -4.7893279696257013E-03
  -4.8495702966650494E-03  -4.9105703787857540E-03  -4.9723377473692622E-03
  -5.0348820536867392E-03  -5.0982130704070793E-03  -5.1623406931244099E-03
  -5.2272749419036866E-03  -5.2930259628468420E-03  -5.3596040296776618E-03
  -5.4270195453470704E-03  -5.4952830436594954E-03  -5.5644051909168714E-03
  -5.6343967875878021E-03  -5.7052687699932821E-03  -5.7770322120158620E-03
  -5.8496983268302629E-03  -5.9232784686554752E-03  -5.9977841345279243E-03
  -6.0732269661004767E-03  -6.1496187514576304E-03  -6.2269714269605368E-03
  -6.3052970791107402E-03  -6.3846079464394655E-03  -6.4649164214180569E-03
  -6.5462350523969922E-03  -6.6285765455640069E-03  -6.7119537669321000E-03
  -6.7963797443467665E-03  -6.8818676695240966E-03  -6.9684309001110164E-03
  -7.0560829617729347E-03  -7.1448375503054612E-03  -7.2347085337773039E-03
  -7.3257099546941030E-03  -7.4178560321948462E-03  -7.5111611642722032E-03
  -7.6056399300229380E-03  -7.7013070919260381E-03  -7.7981775981480110E-03
  -7.8962665848811738E-03  -7.9955893787052139E-03  -8.0961614989847348E-03
  -8.1979986602941039E-03  -8.3011167748700057E-03  -8.4055319551016201E-03
  -8.5112605160443701E-03  -8.6183189779730496E-03  -8.7267240689590346E-03
  -8.8364927274872107E-03  -8.9476421051020976E-03  -9.0601895690855996E-03
  -9.1741527051734106E-03  -9.2895493203011183E-03  -9.4063974453863514E-03
  -9.5247153381474037E-03  -9.6445214859555185E-03  -9.7658346087226202E-03
  -9.8886736618264467E-03  -1.0013057839074066E-02  -1.0139006575699726E-02
  -1.0266539551399327E-02  -1.0395676693409421E-02  -1.0526438179618606E-02
  -1.0658844441720241E-02  -1.0792916168404590E-02  -1.0928674308593001E-02
  -1.1066140074709895E-02  -1.1205334945996166E-02  -1.1346280671868563E-02
  -1.1488999275313841E-02  -1.1633513056334368E-02  -1.1779844595426480E-02
  -1.1928016757114747E-02  -1.2078052693520719E-02  -1.2229975847982376E-02
  -1.2383809958715238E-02  -1.2539579062522895E-02  -1.2697307498551887E-02
  -1.2857019912094616E-02  -1.3018741258441144E-02  -1.3182496806776751E-02
  -1.3348312144131109E-02  -1.3516213179375715E-02  -1.3686226147274314E-02
  -1.3858377612576522E-02  -1.4032694474174479E-02  -1.4209203969303086E-02
  -1.4387933677794137E-02  -1.4568911526388013E-02  -1.4752165793097877E-02
  -1.4937725111622450E-02  -1.5125618475827425E-02  -1.5315875244269694E-02
  -1.5508525144787094E-02  -1.5703598279143794E-02  -1.5901125127731858E-02
  -1.6101136554332724E-02  -1.6303663810944335E-02  -1.6508738542655662E-02
  -1.6716392792601915E-02  -1.6926659006960713E-02  -1.7139570040028172E-02
  -1.7355159159350188E-02  -1.7573460050917301E-02  -1.7794506824434245E-02
  -1.8018334018642872E-02  -1.8244976606723536E-02  -1.8474470001755727E-02
  -1.8706850062251004E-02  -1.8942153097760275E-02  -1.9180415874541817E-02
  -1.9421675621305593E-02  -1.9665970035035476E-02  -1.9913337286870149E-02
  -2.0163816028076487E-02  -2.0417445396080237E-02  -2.0674265020585329E-02
  -2.0934315029767087E-02  -2.1197636056535206E-02  -2.1464269244886418E-02
  -2.1734256256336838E-02  -2.2007639276419307E-02  -2.2284461021287925E-02
  -2.2564764744382342E-02  -2.2848594243187862E-02  -2.3135993866080732E-02
  -2.3427008519254028E-02  -2.3721683673733767E-02  -2.4020065372484897E-02
  -2.4322200237602225E-02  -2.4628135477595556E-02  -2.4937918894766885E-02
  -2.5251598892675444E-02  -2.5569224483699853E-02  -2.5890845296699778E-02
  -2.6216511584765973E-02  -2.6546274233066297E-02  -2.6880184766809062E-02
  -2.7218295359280671E-02  -2.7560658839998867E-02  -2.7907328702967117E-02
  -2.8258359115034926E-02  -2.8613804924361760E-02  -2.8973721668967427E-02
  -2.9338165585438326E-02  -2.9707193617686190E-02  -3.0080863425856891E-02
  -3.0459233395339416E-02  -3.0842362645880809E-02  -3.1230311040824736E-02
  -3.1623139196465720E-02  -3.2020908491512748E-02  -3.2423681076681782E-02
  -3.2831519884406662E-02  -3.3244488638665921E-02  -3.3662651864935521E-02
  -3.4086074900275716E-02  -3.4514823903535059E-02  -3.4948965865682469E-02
  -3.5388568620273814E-02  -3.5833700854050146E-02  -3.6284432117660734E-02
  -3.6740832836535911E-02  -3.7202974321882382E-02  -3.7670928781823071E-02
  -3.8144769332683154E-02  -3.8624570010395237E-02  -3.9110405782082816E-02
  -3.9602352557760588E-02  -4.0100487202185162E-02  -4.0604887546877313E-02
  -4.1115632402265394E-02  -4.1632801570001002E-02  -4.2156475855426652E-02
  -4.2686737080184521E-02  -4.3223668095012512E-02  -4.3767352792673214E-02
  -4.4317876121061188E-02  -4.4875324096470839E-02  -4.5439783817029532E-02
  -4.6011343476302514E-02  -4.6590092377065614E-02  -4.7176120945250609E-02
  -4.7769520744078232E-02  -4.8370384488342168E-02  -4.8978806058893820E-02
  -4.9594880517321187E-02  -5.0218704120767128E-02  -5.0850374336978074E-02
  -5.1489989859525007E-02  -5.2137650623209457E-02  -5.2793457819676731E-02
  -5.3457513913209263E-02  -5.4129922656733193E-02  -5.4810789108023075E-02
  -5.5500219646090442E-02  -5.6198321987825206E-02  -5.6905205204778146E-02
  -5.7620979740223240E-02  -5.8345757426380783E-02  -5.9079651501899109E-02
  -5.9822776629516065E-02  -6.0575248913960586E-02  -6.1337185920105695E-02
  -6.2108706691304645E-02  -6.2889931767964952E-02  -6.3680983206388958E-02
  -6.4481984597829625E-02  -6.5293061087761867E-02  -6.6114339395432778E-02
  -6.6945947833663255E-02  -6.7788016328833633E-02  -6.8640676441204779E-02
  -6.9504061385443364E-02  -7.0378306051390907E-02  -7.1263547025153834E-02
  -7.2159922610414540E-02  -7.3067572849985232E-02  -7.3986639547718822E-02
  -7.4917266290594628E-02  -7.5859598471144776E-02  -7.6813783310154288E-02
  -7.7779969879607253E-02  -7.8758309125990356E-02  -7.9748953893808983E-02
  -8.0752058949451172E-02  -8.1767781005341489E-02  -8.2796278744403179E-02
  -8.3837712844784917E-02  -8.4892246004956248E-02  -8.5960042969083814E-02
  -8.7041270552714198E-02  -8.8136097668835012E-02  -8.9244695354195269E-02
  -9.0367236795987238E-02  -9.1503897358872141E-02  -9.2654854612325324E-02
  -9.3820288358320986E-02  -9.5000380659390968E-02  -9.6195315867026759E-02
  -9.7405280650389767E-02  -9.8630464025448630E-02  -9.9871057384450790E-02
  -1.0112725452576148E-01  -1.0239925168407313E-01  -1.0368724756099429E-01
  -1.0499144335607323E-01  -1.0631204279806664E-01  -1.0764925217679318E-01
  -1.0900328037525236E-01  -1.1037433890213967E-01  -1.1176264192487241E-01
  -1.1316840630293579E-01  -1.1459185162167054E-01  -1.1603320022649635E-01
  -1.1749267725755702E-01  -1.1897051068478574E-01  -1.2046693134342458E-01
  -1.2198217296998011E-01  -1.2351647223862922E-01  -1.2507006879809163E-01
  -1.2664320530892512E-01  -1.2823612748132857E-01  -1.2984908411340521E-01
  -1.3148232712989608E-01  -1.3313611162138880E-01  -1.3481069588402411E-01
  -1.3650634145971302E-01  -1.3822331317683462E-01  -1.3996187919146241E-01
  -1.4172231102905719E-01  -1.4350488362671104E-01  -1.4530987537598425E-01
  -1.4713756816613158E-01  -1.4898824742796793E-01  -1.5086220217829410E-01
  -1.5275972506478205E-01  -1.5468111241150809E-01  -1.5662666426501221E-01
  -1.5859668444092881E-01  -1.6059148057122205E-01  -1.6261136415195651E-01
  -1.6465665059173498E-01  -1.6672765926067340E-01  -1.6882471354000578E-01
  -1.7094814087232452E-01  -1.7309827281240295E-01  -1.7527544507869550E-01
  -1.7747999760542260E-01  -1.7971227459536457E-01  -1.8197262457323465E-01
  -1.8426140043980063E-01  -1.8657895952655820E-01  -1.8892566365125038E-01
  -1.9130187917387378E-01  -1.9370797705351353E-01  -1.9614433290588323E-01
  -1.9861132706147561E-01  -2.0110934462452446E-01  -2.0363877553263587E-01
  -2.0620001461721169E-01  -2.0879346166456175E-01  -2.1141952147781101E-01
  -2.1407860393948097E-01  -2.1677112407502183E-01  -2.1949750211692623E-01
  -2.2225816356972039E-01  -2.2505353927583055E-01  -2.2788406548207921E-01
  -2.3075018390715551E-01  -2.3365234180982725E-01  -2.3659099205798950E-01
  -2.3956659319867613E-01  -2.4257960952873225E-01  -2.4563051116650367E-01
  -2.4871977412428620E-01  -2.5184788038184869E-01  -2.5501531796063648E-01
  -2.5822258099891771E-01  -2.6147016982801841E-01  -2.6475859104933913E-01
  -2.6808835761221483E-01  -2.7145998889299761E-01  -2.7487401077479306E-01
  -2.7833095572844013E-01  -2.8183136289420768E-01  -2.8537577816473170E-01
  -2.8896475426873353E-01  -2.9259885085591641E-01  -2.9627863458280140E-01
  -3.0000467919955615E-01  -3.0377756563802810E-01  -3.0759788210063455E-01
  -3.1146622415049868E-01  -3.1538319480249472E-01  -3.1934940461554107E-01
  -3.2336547178593761E-01  -3.2743202224179241E-01  -3.3154968973851456E-01
  -3.3571911595558884E-01  -3.3994095059450591E-01  -3.4421585147763917E-01
  -3.4854448464849047E-01  -3.5292752447308445E-01  -3.5736565374254969E-01
  -3.6185956377685680E-01  -3.6640995452987635E-01  -3.7101753469554311E-01
  -3.7568302181544261E-01  -3.8040714238745632E-01  -3.8519063197586295E-01
  -3.9003423532260095E-01  -3.9493870645979845E-01  -3.9990480882379320E-01
  -4.0493331537025712E-01  -4.1002500869079195E-01  -4.1518068113084244E-01
  -4.2040113490892200E-01  -4.2568718223722513E-01  -4.3103964544366474E-01
  -4.3645935709529987E-01  -4.4194716012297719E-01  -4.4750390794777301E-01
  -4.5313046460855744E-01  -4.5882770489105024E-01  -4.6459651445837979E-01
  -4.7043778998310642E-01  -4.7635243928078586E-01  -4.8234138144483851E-01
  -4.8840554698303146E-01  -4.9454587795562921E-01  -5.0076332811467927E-01
  -5.0705886304529391E-01  -5.1343346030797932E-01  -5.1988810958312204E-01
  -5.2642381281629269E-01  -5.3304158436601345E-01  -5.3974245115219632E-01
  -5.4652745280687098E-01  -5.5339764182622897E-01  -5.6035408372437023E-01
  -5.6739785718837144E-01  -5.7453005423565984E-01  -5.8175178037213005E-01
  -5.8906415475283347E-01  -5.9646831034359893E-01  -6.0396539408476324E-01
  -6.1155656705630534E-01  -6.1924300464470949E-01  -6.2702589671182052E-01
  -6.3490644776489003E-01  -6.4288587712855660E-01  -6.5096541911881056E-01
  -6.5914632321802913E-01  -6.6742985425223877E-01  -6.7581729256999179E-01
  -6.8430993422264619E-01  -6.9290909114681665E-01  -7.0161609134818381E-01
  -7.1043227908710127E-01  -7.1935901506605504E-01  -7.2839767661861499E-01
  -7.3754965790021831E-01  -7.4681637008080815E-01  -7.5619924153854434E-01
  -7.6569971805620107E-01  -7.7531926301821452E-01  -7.8505935761024759E-01
  -7.9492150101978609E-01  -8.0490721063874626E-01  -8.1501802226766429E-01
  -8.2525549032144896E-01  -8.3562118803674512E-01  -8.4611670768099978E-01
  -8.5674366076289887E-01  -8.6750367824456354E-01  -8.7839841075521685E-01
  -8.8942952880640003E-01  -9.0059872300849853E-01  -9.1190770428898427E-01
  -9.2335820411188774E-01  -9.3495197469874980E-01  -9.4669078925100614E-01
  -9.5857644217358973E-01  -9.7061074929977109E-01  -9.8279554811766789E-01
  -9.9513269799706816E-01  -1.0076240804186773E+00  -1.0202715992032221E+00
  -1.0330771807424926E+00  -1.0460427742309730E+00  -1.0591703518985149E+00
  -1.0724619092440162E+00  -1.0859194652696129E+00  -1.0995450627159846E+00
  -1.1133407682981653E+00  -1.1273086729418196E+00  -1.1414508920203739E+00
  -1.1557695655921509E+00  -1.1702668586383627E+00  -1.1849449613008658E+00
  -1.1998060891205840E+00  -1.2148524832751408E+00  -1.2300864108176197E+00
  -1.2455101649141815E+00  -1.2611260650815428E+00  -1.2769364574246240E+00
  -1.2929437148729557E+00  -1.3091502374165929E+00  -1.3255584523418928E+00
  -1.3421708144645332E+00  -1.3589898063637809E+00  -1.3760179386133082E+00
  -1.3932577500120162E+00  -1.4107118078120950E+00  -1.4283827079461091E+00
  -1.4462730752517052E+00  -1.4643855636935073E+00  -1.4827228565837838E+00
  -1.5012876667989108E+00  -1.5200827369940244E+00  -1.5391108398145268E+00
  -1.5583747781028254E+00  -1.5778773851029517E+00  -1.5976215246604570E+00
  -1.6176100914178204E+00  -1.6378460110058850E+00  -1.6583322402295504E+00
  -1.6790717672494646E+00  -1.7000676117568589E+00  -1.7213228251430497E+00
  -1.7428404906629518E+00  -1.7646237235913709E+00  -1.7866756713719343E+00
  -1.8089995137597215E+00  -1.8315984629547215E+00  -1.8544757637270737E+00
  -1.8776346935343153E+00  -1.9010785626280517E+00  -1.9248107141512636E+00
  -1.9488345242256229E+00  -1.9731534020268457E+00  -1.9977707898495156E+00
  -2.0226901631583942E+00  -2.0479150306287570E+00  -2.0734489341713269E+00
  -2.0992954489448779E+00  -2.1254581833524222E+00  -2.1519407790227101E+00
  -2.1787469107755268E+00  -2.2058802865690219E+00  -2.2333446474298042E+00
  -2.2611437673642349E+00  -2.2892814532495001E+00  -2.3177615447040547E+00
  -2.3465879139376113E+00  -2.3757644655764336E+00  -2.4052951364671320E+00
  -2.4351838954546454E+00  -2.4654347431336756E+00  -2.4960517115747667E+00
  -2.5270388640213035E+00  -2.5584002945558488E+00  -2.5901401277377447E+00
  -2.6222625182073527E+00  -2.6547716502560403E+00  -2.6876717373623693E+00
  -2.7209670216910293E+00  -2.7546617735526921E+00  -2.7887602908256017E+00
  -2.8232668983336788E+00  -2.8581859471826907E+00  -2.8935218140493499E+00
  -2.9292789004252455E+00  -2.9654616318089655E+00  -3.0020744568483817E+00
  -3.0391218464286021E+00  -3.0766082927039728E+00  -3.1145383080715763E+00
  -3.1529164240841290E+00  -3.1917471902981376E+00  -3.2310351730578479E+00
  -3.2707849542078566E+00  -3.3110011297356756E+00  -3.3516883083372537E+00
  -3.3928511099061320E+00  -3.4344941639388269E+00  -3.4766221078571200E+00
  -3.5192395852404119E+00  -3.5623512439650535E+00  -3.6059617342474986E+00
  -3.6500757065885083E+00  -3.6946978096084440E+00  -3.7398326877771764E+00
  -3.7854849790266520E+00  -3.8316593122463209E+00  -3.8783603046531439E+00
  -3.9255925590315726E+00  -3.9733606608399681E+00  -4.0216691751744333E+00
  -4.0705226435850053E+00  -4.1199255807407082E+00  -4.1698824709309719E+00
  -4.2203977644017607E+00  -4.2714758735175673E+00  -4.3231211687388686E+00
  -4.3753379744120870E+00  -4.4281305643605409E+00  -4.4815031572647062E+00
  -4.5354599118327341E+00  -4.5900049217391876E+00  -4.6451422103316435E+00
  -4.7008757250917048E+00  -4.7572093318362327E+00  -4.8141468086535442E+00
  -4.8716918395611577E+00  -4.9298480078674478E+00  -4.9886187892339846E+00
  -5.0480075444176453E+00  -5.1080175116816280E+00  -5.1686517988632117E+00
  -5.2299133750783557E+00  -5.2918050620550359E+00  -5.3543295250722291E+00
  -5.4174892634922642E+00  -5.4812866008704955E+00  -5.5457236746217822E+00
  -5.6108024252287612E+00  -5.6765245849733788E+00  -5.7428916661671572E+00
  -5.8099049488731591E+00  -5.8775654680887071E+00  -5.9458740003724460E+00
  -6.0148310499021820E+00  -6.0844368339298498E+00  -6.1546912676282739E+00
  -6.2255939483025022E+00  -6.2971441389388438E+00  -6.3693407510898021E+00
  -6.4421823270577434E+00  -6.5156670213690724E+00  -6.5897925815210954E+00
  -6.6645563279763138E+00  -6.7399551334027468E+00  -6.8159854011398675E+00
  -6.8926430428695724E+00  -6.9699234555044205E+00  -7.0478214972666553E+00
  -7.1263314629619172E+00  -7.2054470584558583E+00  -7.2851613743389123E+00
  -7.3654668588053029E+00  -7.4463552897522343E+00  -7.5278177461101086E+00
  -7.6098445784452764E+00  -7.6924253788470285E+00  -7.7755489501461872E+00
  -7.8592032745139022E+00  -7.9433754814737991E+00  -8.0280518154146367E+00
  -8.1132176026492075E+00  -8.1988572181022725E+00  -8.2849540517334521E+00
  -8.3714904747551948E+00  -8.4584478057890777E+00  -8.5458062770485856E+00
  -8.6335450006823642E+00  -8.7216419354218608E+00  -8.8100738536513461E+00
  -8.8988163090792298E+00  -8.9878436051670345E+00  -9.0771287644587328E+00
  -9.1666434990243690E+00  -9.2563581822058882E+00  -9.3462418217812111E+00
  -9.4362620349395510E+00  -9.5263850249995876E+00  -9.6165755604089433E+00
  -9.7067969560087803E+00  -9.7970110569878681E+00  -9.8871782257292207E+00
  -9.9772573318473317E+00  -1.0067205745780223E+01  -1.0156979336280969E+01
  -1.0246532472204970E+01  -1.0335818029056904E+01  -1.0424787400817387E+01
  -1.0513390517586618E+01  -1.0601575869734837E+01  -1.0689290539263693E+01
  -1.0776480239195504E+01  -1.0863089361938851E+01  -1.0949061037616030E+01
  -1.1034337203532413E+01  -1.1118858686019285E+01  -1.1202565296024732E+01
  -1.1285395939963680E+01  -1.1367288747405098E+01  -1.1448181217297835E+01
  -1.1528010384534221E+01  -1.1606713008640382E+01  -1.1684225786474421E+01
  -1.1760485590731914E+01  -1.1835429735959771E+01  -1.1908996273676626E+01
  -1.1981124317870041E+01  -1.2051754401854724E+01  -1.2120828867031149E+01
  -1.2188292283455715E+01  -1.2254091901570540E+01  -1.2318178133576588E+01
  -1.2380505062096470E+01  -1.2441030972879089E+01  -1.2499718907214575E+01
  -1.2556537228844244E+01  -1.2611460199127553E+01  -1.2664468553287977E+01
  -1.2715550069865179E+01  -1.2764700124695956E+01  -1.2811922220234431E+01
  -1.2857228480625622E+01  -1.2900640102457880E+01  -1.2942187750908069E+01
  -1.2981911890516932E+01  -1.3019863039245212E+01  -1.3056101933729083E+01
  -1.3090699592301089E+01  -1.3123737260668234E+01  -1.3155306222799265E+01
  -1.3185507456478563E+01  -1.3214451109275814E+01  -1.3242255766345519E+01
  -1.3269047476258351E+01  -1.3294958496057038E+01  -1.3320125711247465E+01
  -1.3344688681955338E+01  -1.3368787263418429E+01  -1.3392558748591792E+01
  -1.3416134484675361E+01  -1.3439635925391896E+01  -1.3463170099125753E+01
  -1.3486824501288623E+01  -1.3510661458414811E+01  -1.3534712060733467E+01
  -1.3558969815344955E+01  -1.3583386103984600E+01  -1.3607881377010305E+01
  -1.3632357774315400E+01  -1.3656701477906912E+01  -1.3680785710705361E+01
  -1.3704475441466919E+01  -1.3727633747200864E+01  -1.3750129568376090E+01
  -1.3771846377516963E+01  -1.3792691102922898E+01  -1.3812602538605656E+01
  -1.3831558441477299E+01  -1.3849580550048621E+01  -1.3866736807351359E+01
  -1.3883140068486183E+01  -1.3898942468138586E+01  -1.3914324426045461E+01
  -1.3929477111365568E+01  -1.3944577371080202E+01  -1.3959755102036778E+01
  -1.3975055250460816E+01  -1.3990400129250165E+01  -1.4005561769160702E+01
  -1.4020156625451335E+01  -1.4033673478969774E+01  -1.4045537934812010E+01
  -1.4055204557039730E+01  -1.4062255237509227E+01  -1.4066476638558340E+01
  -1.4067894785112230E+01  -1.4066759427327602E+01  -1.4063487566398292E+01
  -1.4058586652486078E+01  -1.4052579576444096E+01  -1.4045947275210306E+01
  -1.4039095302963815E+01  -1.4032342593264589E+01  -1.4025926089176940E+01
  -1.4020013915563901E+01  -1.4014720817525985E+01  -1.4010121999386968E+01
  -1.4006263352377475E+01  -1.4003173071250110E+01  -1.4000862525340343E+01
  -1.3999315283906595E+01  -1.3998491935833375E+01  -1.3998314626623307E+01
  -1.3998412654390846E+01  -1.3998572775938049E+01  -1.3998789466019829E+01
  -1.3999041026958000E+01  -1.3999303566380249E+01  -1.3999553564627691E+01
  -1.3999770296105680E+01  -1.3999938087950126E+01  -1.4000047922933149E+01
  -1.4000098192920147E+01  -1.4000094508901748E+01  -1.4000048583404070E+01
  -1.3999976326772916E+01  -1.3999895409430703E+01  -1.3999822637406087E+01
  -1.3999771533152115E+01  -1.3999750500201744E+01  -1.3999761869026894E+01
  -1.3999801978598240E+01  -1.3999862275241533E+01  -1.3999931214121220E+01
  -1.3999996612853767E+01  -1.4000048006183391E+01  -1.4000078546701497E+01
  -1.4000084961258207E+01  -1.4000045419819635E+01  -1.3999998038370091E+01
  -1.4000001829186203E+01  -1.4000003758673941E+01  -1.4000005235795472E+01
  -1.4000006377746967E+01  -1.4000007240999317E+01  -1.4000007873997069E+01
  -1.4000008318060010E+01  -1.4000008608254014E+01  -1.4000008774150560E+01
  -1.4000008840540906E+01  -1.4000008828076894E+01  -1.4000008753849471E+01
  -1.4000008631906734E+01  -1.4000008473715425E+01  -1.4000008288568573E+01
  -1.4000008083943431E+01  -1.4000007865813227E+01  -1.4000007638916204E+01
  -1.4000007406986249E+01  -1.4000007172948209E+01  -1.4000006939082233E+01
  -1.4000006707159610E+01  -1.4000006478554987E+01  -1.4000006254336650E+01
  -1.4000006035338778E+01  -1.4000005822218252E+01  -1.4000005615498297E+01
  -1.4000005415601168E+01  -1.4000005222872813E+01  -1.4000005037599044E+01
  -1.4000004860017935E+01  -1.4000004690326641E+01  -1.4000004528685336E+01
  -1.4000004375219248E+01  -1.4000004230018698E+01  -1.4000004093138086E+01
  -1.4000003964594990E+01  -1.4000003844367729E+01  -1.4000003732394411E+01
  -1.4000003628571614E+01  -1.4000003532753041E+01  -1.4000003444749671E+01
  -1.4000003364329672E+01  -1.4000003291219432E+01  -1.4000003225105093E+01
  -1.4000003165634709E+01  -1.4000003112421114E+01  -1.4000003065045414E+01
  -1.4000003023061424E+01  -1.4000002985999711E+01  -1.4000002953373155E+01
  -1.4000002924681990E+01  -1.4000002899419663E+01  -1.4000002877078382E+01
  -1.4000002857155028E+01  -1.4000002839156531E+01  -1.4000002822605445E+01
  -1.4000002807044597E+01  -1.4000002792041725E+01  -1.4000002777193396E+01
  -1.4000002762128126E+01  -1.4000002746509063E+01  -1.4000002730035840E+01
  -1.4000002712445690E+01  -1.4000002693514045E+01  -1.4000002673054142E+01
  -1.4000002650916489E+01  -1.4000002626987410E+01  -1.4000002601187301E+01
  -1.4000002573468532E+01  -1.4000002543812979E+01  -1.4000002512229365E+01
  -1.4000002478750455E+01  -1.4000002443276607E+01  -1.4000002370344326E+01
  -1.4000001484457192E+01  -1.4000002798726635E+01  -1.4000002282146191E+01
  -1.4000002218876627E+01  -1.4000002179888355E+01  -1.4000002138627453E+01
  -1.4000002095416969E+01  -1.4000002050608609E+01  -1.4000002004504401E+01
  -1.4000001957365768E+01  -1.4000001909420826E+01  -1.4000001860870070E+01
  -1.4000001811890950E+01  -1.4000001762641407E+01  -1.4000001713262687E+01
  -1.4000001663881649E+01  -1.4000001614612538E+01  -1.4000001565558463E+01
  -1.4000001516812597E+01  -1.4000001468459137E+01  -1.4000001420574176E+01
  -1.4000001373226391E+01  -1.4000001326477658E+01  -1.4000001280383611E+01
  -1.4000001234994079E+01  -1.4000001190353547E+01  -1.4000001146501555E+01
  -1.4000001103473025E+01  -1.4000001061298597E+01  -1.4000001020004941E+01
  -1.4000000979615018E+01  -1.4000000940148361E+01  -1.4000000901621281E+01
  -1.4000000864047136E+01  -1.4000000827436462E+01  -1.4000000791797254E+01
  -1.4000000757135073E+01  -1.4000000723453228E+01  -1.4000000690752964E+01
  -1.4000000659033537E+01  -1.4000000628292433E+01  -1.4000000598525387E+01
  -1.4000000569726591E+01  -1.4000000541888733E+01  -1.4000000515003176E+01
  -1.4000000489059943E+01  -1.4000000464047918E+01  -1.4000000439954851E+01
  -1.4000000416767481E+01  -1.4000000394471602E+01
     </PP_GIPAW_VLOCAL_PS>
   </PP_GIPAW_VLOCAL>
 </PP_GIPAW>
</UPF>
