<UPF version="2.0.1">
  <PP_INFO>

 This pseudopotential file has been produced using the code
 ONCVPSP  (Optimized Norm-Conservinng Vanderbilt PSeudopotential)
 scalar-relativistic version 4.0.1 06/20/2107 by D. R. Hamann
 The code is available through a link at URL www.mat-simresearch.com.
 Documentation with the package provides a full discription of the
 input data below.


 While it is not required under the terms of the GNU GPL, it is
 suggested that you cite D. R. Hamann, Phys. Rev. B 88, 085117 (2013)
 in any publication using these pseudopotentials.

    <PP_INPUTFILE>
# ATOM AND REFERENCE CONFIGURATION
# atsym  z   nc   nv     iexc    psfile
  Li  3.00    0    2       4      upf
#
#   n    l    f        energy (Ha)
    1    0    2.00
    2    0    1.00
#
# PSEUDOPOTENTIAL AND OPTIMIZATION
# lmax
    1
#
#   l,   rc,      ep,       ncon, nbas, qcut
    0   1.62513  -1.90562    4    8   7.52332
    1   1.60038   0.10000    4    8   6.00000
#
# LOCAL POTENTIAL
# lloc, lpopt,  rc(5),   dvloc0
    4    5   0.65000      0.00000
#
# VANDERBILT-KLEINMAN-BYLANDER PROJECTORs
# l, nproj, debl
    0    2   1.80000
    1    2   1.00000
#
# MODEL CORE CHARGE
# icmod, fcfact, rcfact
    0   0.00000   0.00000
#
# LOG DERIVATIVE ANALYSIS
# epsh1, epsh2, depsh
  -12.00   12.00    0.02
#
# OUTPUT GRID (using internal log mesh)

# mmax =   2291, rmax =   4.4499E+01
#
# TEST CONFIGURATIONS
# ncnf
    0
# nvcnf
#   n    l    f
    </PP_INPUTFILE>
  </PP_INFO>
  <!--                               -->
  <!-- END OF HUMAN READABLE SECTION -->
  <!--                               -->
    <PP_HEADER
       generated="Generated using ONCVPSP code by D. R. Hamann"
       author="anonymous"
       date="260127"
       comment=""
       element="Li"
       pseudo_type="NC"
       relativistic="scalar"
       is_ultrasoft="F"
       is_paw="F"
       is_coulomb="F"
       has_so="F"
       has_wfc="F"
       has_gipaw="T"
       core_correction="F"
       functional="PBE"
       z_valence="    3.00"
       total_psenergy="  -1.40161386262E+01"
       rho_cutoff="   4.44985493181E+01"
       l_max="1"
       l_local="-1"
       mesh_size="  2291"
       number_of_wfc="2"
       number_of_proj="4"/>
 <PP_MESH dx="  5.98207167754747E-03" mesh="2291" xmin=" -9.90348755253613E+00" rmax="  4.44985493181008E+01" zmesh="1.0">
   <PP_R type="real"  size="  2291" columns="8">
  5.000000E-05  5.030000E-05  5.060180E-05  5.090541E-05  5.121084E-05  5.151811E-05  5.182722E-05  5.213818E-05
  5.245101E-05  5.276572E-05  5.308231E-05  5.340080E-05  5.372121E-05  5.404354E-05  5.436780E-05  5.469400E-05
  5.502217E-05  5.535230E-05  5.568441E-05  5.601852E-05  5.635463E-05  5.669276E-05  5.703292E-05  5.737511E-05
  5.771936E-05  5.806568E-05  5.841407E-05  5.876456E-05  5.911715E-05  5.947185E-05  5.982868E-05  6.018765E-05
  6.054878E-05  6.091207E-05  6.127754E-05  6.164521E-05  6.201508E-05  6.238717E-05  6.276149E-05  6.313806E-05
  6.351689E-05  6.389799E-05  6.428138E-05  6.466707E-05  6.505507E-05  6.544540E-05  6.583807E-05  6.623310E-05
  6.663050E-05  6.703028E-05  6.743247E-05  6.783706E-05  6.824408E-05  6.865355E-05  6.906547E-05  6.947986E-05
  6.989674E-05  7.031612E-05  7.073802E-05  7.116245E-05  7.158942E-05  7.201896E-05  7.245107E-05  7.288578E-05
  7.332309E-05  7.376303E-05  7.420561E-05  7.465084E-05  7.509875E-05  7.554934E-05  7.600264E-05  7.645865E-05
  7.691740E-05  7.737891E-05  7.784318E-05  7.831024E-05  7.878010E-05  7.925278E-05  7.972830E-05  8.020667E-05
  8.068791E-05  8.117204E-05  8.165907E-05  8.214902E-05  8.264192E-05  8.313777E-05  8.363660E-05  8.413842E-05
  8.464325E-05  8.515111E-05  8.566201E-05  8.617598E-05  8.669304E-05  8.721320E-05  8.773648E-05  8.826290E-05
  8.879247E-05  8.932523E-05  8.986118E-05  9.040035E-05  9.094275E-05  9.148841E-05  9.203734E-05  9.258956E-05
  9.314510E-05  9.370397E-05  9.426619E-05  9.483179E-05  9.540078E-05  9.597318E-05  9.654902E-05  9.712832E-05
  9.771109E-05  9.829735E-05  9.888714E-05  9.948046E-05  1.000773E-04  1.006778E-04  1.012819E-04  1.018896E-04
  1.025009E-04  1.031159E-04  1.037346E-04  1.043570E-04  1.049832E-04  1.056131E-04  1.062467E-04  1.068842E-04
  1.075255E-04  1.081707E-04  1.088197E-04  1.094726E-04  1.101294E-04  1.107902E-04  1.114550E-04  1.121237E-04
  1.127964E-04  1.134732E-04  1.141541E-04  1.148390E-04  1.155280E-04  1.162212E-04  1.169185E-04  1.176200E-04
  1.183257E-04  1.190357E-04  1.197499E-04  1.204684E-04  1.211912E-04  1.219184E-04  1.226499E-04  1.233858E-04
  1.241261E-04  1.248708E-04  1.256201E-04  1.263738E-04  1.271320E-04  1.278948E-04  1.286622E-04  1.294342E-04
  1.302108E-04  1.309920E-04  1.317780E-04  1.325687E-04  1.333641E-04  1.341643E-04  1.349692E-04  1.357791E-04
  1.365937E-04  1.374133E-04  1.382378E-04  1.390672E-04  1.399016E-04  1.407410E-04  1.415855E-04  1.424350E-04
  1.432896E-04  1.441493E-04  1.450142E-04  1.458843E-04  1.467596E-04  1.476402E-04  1.485260E-04  1.494172E-04
  1.503137E-04  1.512155E-04  1.521228E-04  1.530356E-04  1.539538E-04  1.548775E-04  1.558068E-04  1.567416E-04
  1.576821E-04  1.586282E-04  1.595799E-04  1.605374E-04  1.615006E-04  1.624696E-04  1.634445E-04  1.644251E-04
  1.654117E-04  1.664041E-04  1.674026E-04  1.684070E-04  1.694174E-04  1.704339E-04  1.714565E-04  1.724853E-04
  1.735202E-04  1.745613E-04  1.756087E-04  1.766623E-04  1.777223E-04  1.787886E-04  1.798614E-04  1.809405E-04
  1.820262E-04  1.831183E-04  1.842170E-04  1.853223E-04  1.864343E-04  1.875529E-04  1.886782E-04  1.898103E-04
  1.909491E-04  1.920948E-04  1.932474E-04  1.944069E-04  1.955733E-04  1.967468E-04  1.979272E-04  1.991148E-04
  2.003095E-04  2.015113E-04  2.027204E-04  2.039367E-04  2.051604E-04  2.063913E-04  2.076297E-04  2.088754E-04
  2.101287E-04  2.113895E-04  2.126578E-04  2.139338E-04  2.152174E-04  2.165087E-04  2.178077E-04  2.191146E-04
  2.204292E-04  2.217518E-04  2.230823E-04  2.244208E-04  2.257674E-04  2.271220E-04  2.284847E-04  2.298556E-04
  2.312347E-04  2.326221E-04  2.340179E-04  2.354220E-04  2.368345E-04  2.382555E-04  2.396851E-04  2.411232E-04
  2.425699E-04  2.440253E-04  2.454895E-04  2.469624E-04  2.484442E-04  2.499349E-04  2.514345E-04  2.529431E-04
  2.544607E-04  2.559875E-04  2.575234E-04  2.590686E-04  2.606230E-04  2.621867E-04  2.637598E-04  2.653424E-04
  2.669344E-04  2.685360E-04  2.701473E-04  2.717681E-04  2.733988E-04  2.750391E-04  2.766894E-04  2.783495E-04
  2.800196E-04  2.816997E-04  2.833899E-04  2.850903E-04  2.868008E-04  2.885216E-04  2.902527E-04  2.919943E-04
  2.937462E-04  2.955087E-04  2.972818E-04  2.990654E-04  3.008598E-04  3.026650E-04  3.044810E-04  3.063079E-04
  3.081457E-04  3.099946E-04  3.118546E-04  3.137257E-04  3.156080E-04  3.175017E-04  3.194067E-04  3.213231E-04
  3.232511E-04  3.251906E-04  3.271417E-04  3.291046E-04  3.310792E-04  3.330657E-04  3.350641E-04  3.370745E-04
  3.390969E-04  3.411315E-04  3.431783E-04  3.452374E-04  3.473088E-04  3.493926E-04  3.514890E-04  3.535979E-04
  3.557195E-04  3.578538E-04  3.600009E-04  3.621610E-04  3.643339E-04  3.665199E-04  3.687190E-04  3.709314E-04
  3.731569E-04  3.753959E-04  3.776483E-04  3.799141E-04  3.821936E-04  3.844868E-04  3.867937E-04  3.891145E-04
  3.914492E-04  3.937979E-04  3.961606E-04  3.985376E-04  4.009288E-04  4.033344E-04  4.057544E-04  4.081889E-04
  4.106381E-04  4.131019E-04  4.155805E-04  4.180740E-04  4.205824E-04  4.231059E-04  4.256446E-04  4.281984E-04
  4.307676E-04  4.333522E-04  4.359524E-04  4.385681E-04  4.411995E-04  4.438467E-04  4.465098E-04  4.491888E-04
  4.518839E-04  4.545952E-04  4.573228E-04  4.600668E-04  4.628272E-04  4.656041E-04  4.683977E-04  4.712081E-04
  4.740354E-04  4.768796E-04  4.797409E-04  4.826193E-04  4.855150E-04  4.884281E-04  4.913587E-04  4.943068E-04
  4.972727E-04  5.002563E-04  5.032579E-04  5.062774E-04  5.093151E-04  5.123710E-04  5.154452E-04  5.185379E-04
  5.216491E-04  5.247790E-04  5.279276E-04  5.310952E-04  5.342818E-04  5.374875E-04  5.407124E-04  5.439567E-04
  5.472204E-04  5.505037E-04  5.538068E-04  5.571296E-04  5.604724E-04  5.638352E-04  5.672182E-04  5.706215E-04
  5.740453E-04  5.774895E-04  5.809545E-04  5.844402E-04  5.879468E-04  5.914745E-04  5.950234E-04  5.985935E-04
  6.021851E-04  6.057982E-04  6.094330E-04  6.130896E-04  6.167681E-04  6.204687E-04  6.241915E-04  6.279367E-04
  6.317043E-04  6.354945E-04  6.393075E-04  6.431433E-04  6.470022E-04  6.508842E-04  6.547895E-04  6.587182E-04
  6.626706E-04  6.666466E-04  6.706465E-04  6.746703E-04  6.787184E-04  6.827907E-04  6.868874E-04  6.910087E-04
  6.951548E-04  6.993257E-04  7.035217E-04  7.077428E-04  7.119893E-04  7.162612E-04  7.205588E-04  7.248821E-04
  7.292314E-04  7.336068E-04  7.380084E-04  7.424365E-04  7.468911E-04  7.513725E-04  7.558807E-04  7.604160E-04
  7.649785E-04  7.695683E-04  7.741858E-04  7.788309E-04  7.835039E-04  7.882049E-04  7.929341E-04  7.976917E-04
  8.024779E-04  8.072927E-04  8.121365E-04  8.170093E-04  8.219114E-04  8.268428E-04  8.318039E-04  8.367947E-04
  8.418155E-04  8.468664E-04  8.519476E-04  8.570592E-04  8.622016E-04  8.673748E-04  8.725791E-04  8.778145E-04
  8.830814E-04  8.883799E-04  8.937102E-04  8.990725E-04  9.044669E-04  9.098937E-04  9.153531E-04  9.208452E-04
  9.263702E-04  9.319285E-04  9.375200E-04  9.431452E-04  9.488040E-04  9.544968E-04  9.602238E-04  9.659852E-04
  9.717811E-04  9.776118E-04  9.834774E-04  9.893783E-04  9.953146E-04  1.001286E-03  1.007294E-03  1.013338E-03
  1.019418E-03  1.025534E-03  1.031688E-03  1.037878E-03  1.044105E-03  1.050370E-03  1.056672E-03  1.063012E-03
  1.069390E-03  1.075806E-03  1.082261E-03  1.088755E-03  1.095287E-03  1.101859E-03  1.108470E-03  1.115121E-03
  1.121812E-03  1.128543E-03  1.135314E-03  1.142126E-03  1.148978E-03  1.155872E-03  1.162808E-03  1.169784E-03
  1.176803E-03  1.183864E-03  1.190967E-03  1.198113E-03  1.205302E-03  1.212533E-03  1.219809E-03  1.227128E-03
  1.234490E-03  1.241897E-03  1.249349E-03  1.256845E-03  1.264386E-03  1.271972E-03  1.279604E-03  1.287282E-03
  1.295005E-03  1.302775E-03  1.310592E-03  1.318455E-03  1.326366E-03  1.334324E-03  1.342330E-03  1.350384E-03
  1.358487E-03  1.366638E-03  1.374837E-03  1.383086E-03  1.391385E-03  1.399733E-03  1.408132E-03  1.416580E-03
  1.425080E-03  1.433630E-03  1.442232E-03  1.450886E-03  1.459591E-03  1.468348E-03  1.477158E-03  1.486021E-03
  1.494938E-03  1.503907E-03  1.512931E-03  1.522008E-03  1.531140E-03  1.540327E-03  1.549569E-03  1.558866E-03
  1.568220E-03  1.577629E-03  1.587095E-03  1.596617E-03  1.606197E-03  1.615834E-03  1.625529E-03  1.635282E-03
  1.645094E-03  1.654965E-03  1.664894E-03  1.674884E-03  1.684933E-03  1.695043E-03  1.705213E-03  1.715444E-03
  1.725737E-03  1.736091E-03  1.746508E-03  1.756987E-03  1.767529E-03  1.778134E-03  1.788803E-03  1.799536E-03
  1.810333E-03  1.821195E-03  1.832122E-03  1.843115E-03  1.854173E-03  1.865298E-03  1.876490E-03  1.887749E-03
  1.899076E-03  1.910470E-03  1.921933E-03  1.933465E-03  1.945065E-03  1.956736E-03  1.968476E-03  1.980287E-03
  1.992169E-03  2.004122E-03  2.016147E-03  2.028243E-03  2.040413E-03  2.052655E-03  2.064971E-03  2.077361E-03
  2.089825E-03  2.102364E-03  2.114978E-03  2.127668E-03  2.140434E-03  2.153277E-03  2.166197E-03  2.179194E-03
  2.192269E-03  2.205422E-03  2.218655E-03  2.231967E-03  2.245359E-03  2.258831E-03  2.272384E-03  2.286018E-03
  2.299734E-03  2.313533E-03  2.327414E-03  2.341378E-03  2.355427E-03  2.369559E-03  2.383777E-03  2.398079E-03
  2.412468E-03  2.426943E-03  2.441504E-03  2.456153E-03  2.470890E-03  2.485715E-03  2.500630E-03  2.515634E-03
  2.530727E-03  2.545912E-03  2.561187E-03  2.576554E-03  2.592014E-03  2.607566E-03  2.623211E-03  2.638950E-03
  2.654784E-03  2.670713E-03  2.686737E-03  2.702857E-03  2.719075E-03  2.735389E-03  2.751801E-03  2.768312E-03
  2.784922E-03  2.801632E-03  2.818441E-03  2.835352E-03  2.852364E-03  2.869478E-03  2.886695E-03  2.904015E-03
  2.921439E-03  2.938968E-03  2.956602E-03  2.974342E-03  2.992188E-03  3.010141E-03  3.028202E-03  3.046371E-03
  3.064649E-03  3.083037E-03  3.101535E-03  3.120144E-03  3.138865E-03  3.157698E-03  3.176645E-03  3.195704E-03
  3.214879E-03  3.234168E-03  3.253573E-03  3.273094E-03  3.292733E-03  3.312489E-03  3.332364E-03  3.352358E-03
  3.372473E-03  3.392707E-03  3.413064E-03  3.433542E-03  3.454143E-03  3.474868E-03  3.495717E-03  3.516692E-03
  3.537792E-03  3.559019E-03  3.580373E-03  3.601855E-03  3.623466E-03  3.645207E-03  3.667078E-03  3.689081E-03
  3.711215E-03  3.733482E-03  3.755883E-03  3.778419E-03  3.801089E-03  3.823896E-03  3.846839E-03  3.869920E-03
  3.893140E-03  3.916498E-03  3.939997E-03  3.963637E-03  3.987419E-03  4.011344E-03  4.035412E-03  4.059624E-03
  4.083982E-03  4.108486E-03  4.133137E-03  4.157936E-03  4.182883E-03  4.207980E-03  4.233228E-03  4.258628E-03
  4.284180E-03  4.309885E-03  4.335744E-03  4.361758E-03  4.387929E-03  4.414256E-03  4.440742E-03  4.467386E-03
  4.494191E-03  4.521156E-03  4.548283E-03  4.575573E-03  4.603026E-03  4.630644E-03  4.658428E-03  4.686379E-03
  4.714497E-03  4.742784E-03  4.771241E-03  4.799868E-03  4.828667E-03  4.857639E-03  4.886785E-03  4.916106E-03
  4.945602E-03  4.975276E-03  5.005128E-03  5.035158E-03  5.065369E-03  5.095762E-03  5.126336E-03  5.157094E-03
  5.188037E-03  5.219165E-03  5.250480E-03  5.281983E-03  5.313675E-03  5.345557E-03  5.377630E-03  5.409896E-03
  5.442355E-03  5.475009E-03  5.507859E-03  5.540907E-03  5.574152E-03  5.607597E-03  5.641243E-03  5.675090E-03
  5.709141E-03  5.743395E-03  5.777856E-03  5.812523E-03  5.847398E-03  5.882482E-03  5.917777E-03  5.953284E-03
  5.989004E-03  6.024938E-03  6.061087E-03  6.097454E-03  6.134039E-03  6.170843E-03  6.207868E-03  6.245115E-03
  6.282586E-03  6.320281E-03  6.358203E-03  6.396352E-03  6.434730E-03  6.473339E-03  6.512179E-03  6.551252E-03
  6.590559E-03  6.630103E-03  6.669883E-03  6.709903E-03  6.750162E-03  6.790663E-03  6.831407E-03  6.872395E-03
  6.913630E-03  6.955112E-03  6.996842E-03  7.038823E-03  7.081056E-03  7.123543E-03  7.166284E-03  7.209281E-03
  7.252537E-03  7.296052E-03  7.339829E-03  7.383868E-03  7.428171E-03  7.472740E-03  7.517576E-03  7.562682E-03
  7.608058E-03  7.653706E-03  7.699628E-03  7.745826E-03  7.792301E-03  7.839055E-03  7.886089E-03  7.933406E-03
  7.981006E-03  8.028892E-03  8.077066E-03  8.125528E-03  8.174281E-03  8.223327E-03  8.272667E-03  8.322303E-03
  8.372237E-03  8.422470E-03  8.473005E-03  8.523843E-03  8.574986E-03  8.626436E-03  8.678195E-03  8.730264E-03
  8.782645E-03  8.835341E-03  8.888353E-03  8.941683E-03  8.995333E-03  9.049305E-03  9.103601E-03  9.158223E-03
  9.213172E-03  9.268451E-03  9.324062E-03  9.380006E-03  9.436286E-03  9.492904E-03  9.549862E-03  9.607161E-03
  9.664804E-03  9.722793E-03  9.781129E-03  9.839816E-03  9.898855E-03  9.958248E-03  1.001800E-02  1.007811E-02
  1.013857E-02  1.019941E-02  1.026060E-02  1.032217E-02  1.038410E-02  1.044640E-02  1.050908E-02  1.057214E-02
  1.063557E-02  1.069938E-02  1.076358E-02  1.082816E-02  1.089313E-02  1.095849E-02  1.102424E-02  1.109038E-02
  1.115693E-02  1.122387E-02  1.129121E-02  1.135896E-02  1.142711E-02  1.149568E-02  1.156465E-02  1.163404E-02
  1.170384E-02  1.177406E-02  1.184471E-02  1.191578E-02  1.198727E-02  1.205920E-02  1.213155E-02  1.220434E-02
  1.227757E-02  1.235123E-02  1.242534E-02  1.249989E-02  1.257489E-02  1.265034E-02  1.272624E-02  1.280260E-02
  1.287941E-02  1.295669E-02  1.303443E-02  1.311264E-02  1.319131E-02  1.327046E-02  1.335008E-02  1.343018E-02
  1.351077E-02  1.359183E-02  1.367338E-02  1.375542E-02  1.383795E-02  1.392098E-02  1.400451E-02  1.408853E-02
  1.417307E-02  1.425810E-02  1.434365E-02  1.442971E-02  1.451629E-02  1.460339E-02  1.469101E-02  1.477916E-02
  1.486783E-02  1.495704E-02  1.504678E-02  1.513706E-02  1.522788E-02  1.531925E-02  1.541117E-02  1.550363E-02
  1.559666E-02  1.569024E-02  1.578438E-02  1.587908E-02  1.597436E-02  1.607020E-02  1.616663E-02  1.626363E-02
  1.636121E-02  1.645937E-02  1.655813E-02  1.665748E-02  1.675742E-02  1.685797E-02  1.695912E-02  1.706087E-02
  1.716324E-02  1.726622E-02  1.736981E-02  1.747403E-02  1.757888E-02  1.768435E-02  1.779046E-02  1.789720E-02
  1.800458E-02  1.811261E-02  1.822128E-02  1.833061E-02  1.844060E-02  1.855124E-02  1.866255E-02  1.877452E-02
  1.888717E-02  1.900049E-02  1.911450E-02  1.922918E-02  1.934456E-02  1.946062E-02  1.957739E-02  1.969485E-02
  1.981302E-02  1.993190E-02  2.005149E-02  2.017180E-02  2.029283E-02  2.041459E-02  2.053708E-02  2.066030E-02
  2.078426E-02  2.090897E-02  2.103442E-02  2.116063E-02  2.128759E-02  2.141532E-02  2.154381E-02  2.167307E-02
  2.180311E-02  2.193393E-02  2.206553E-02  2.219792E-02  2.233111E-02  2.246510E-02  2.259989E-02  2.273549E-02
  2.287190E-02  2.300913E-02  2.314719E-02  2.328607E-02  2.342579E-02  2.356634E-02  2.370774E-02  2.384999E-02
  2.399309E-02  2.413704E-02  2.428187E-02  2.442756E-02  2.457412E-02  2.472157E-02  2.486990E-02  2.501912E-02
  2.516923E-02  2.532025E-02  2.547217E-02  2.562500E-02  2.577875E-02  2.593342E-02  2.608902E-02  2.624556E-02
  2.640303E-02  2.656145E-02  2.672082E-02  2.688114E-02  2.704243E-02  2.720469E-02  2.736791E-02  2.753212E-02
  2.769731E-02  2.786350E-02  2.803068E-02  2.819886E-02  2.836806E-02  2.853826E-02  2.870949E-02  2.888175E-02
  2.905504E-02  2.922937E-02  2.940475E-02  2.958118E-02  2.975866E-02  2.993721E-02  3.011684E-02  3.029754E-02
  3.047932E-02  3.066220E-02  3.084617E-02  3.103125E-02  3.121744E-02  3.140474E-02  3.159317E-02  3.178273E-02
  3.197343E-02  3.216527E-02  3.235826E-02  3.255241E-02  3.274772E-02  3.294421E-02  3.314187E-02  3.334073E-02
  3.354077E-02  3.374201E-02  3.394447E-02  3.414813E-02  3.435302E-02  3.455914E-02  3.476650E-02  3.497509E-02
  3.518494E-02  3.539605E-02  3.560843E-02  3.582208E-02  3.603701E-02  3.625324E-02  3.647076E-02  3.668958E-02
  3.690972E-02  3.713118E-02  3.735396E-02  3.757809E-02  3.780355E-02  3.803038E-02  3.825856E-02  3.848811E-02
  3.871904E-02  3.895135E-02  3.918506E-02  3.942017E-02  3.965669E-02  3.989463E-02  4.013400E-02  4.037480E-02
  4.061705E-02  4.086076E-02  4.110592E-02  4.135256E-02  4.160067E-02  4.185027E-02  4.210138E-02  4.235398E-02
  4.260811E-02  4.286376E-02  4.312094E-02  4.337967E-02  4.363994E-02  4.390178E-02  4.416519E-02  4.443018E-02
  4.469677E-02  4.496495E-02  4.523474E-02  4.550614E-02  4.577918E-02  4.605386E-02  4.633018E-02  4.660816E-02
  4.688781E-02  4.716914E-02  4.745215E-02  4.773686E-02  4.802329E-02  4.831143E-02  4.860129E-02  4.889290E-02
  4.918626E-02  4.948138E-02  4.977826E-02  5.007693E-02  5.037740E-02  5.067966E-02  5.098374E-02  5.128964E-02
  5.159738E-02  5.190696E-02  5.221840E-02  5.253172E-02  5.284691E-02  5.316399E-02  5.348297E-02  5.380387E-02
  5.412669E-02  5.445145E-02  5.477816E-02  5.510683E-02  5.543747E-02  5.577010E-02  5.610472E-02  5.644134E-02
  5.677999E-02  5.712067E-02  5.746340E-02  5.780818E-02  5.815503E-02  5.850396E-02  5.885498E-02  5.920811E-02
  5.956336E-02  5.992074E-02  6.028026E-02  6.064194E-02  6.100580E-02  6.137183E-02  6.174006E-02  6.211050E-02
  6.248317E-02  6.285806E-02  6.323521E-02  6.361462E-02  6.399631E-02  6.438029E-02  6.476657E-02  6.515517E-02
  6.554610E-02  6.593938E-02  6.633501E-02  6.673302E-02  6.713342E-02  6.753622E-02  6.794144E-02  6.834909E-02
  6.875918E-02  6.917174E-02  6.958677E-02  7.000429E-02  7.042432E-02  7.084686E-02  7.127194E-02  7.169957E-02
  7.212977E-02  7.256255E-02  7.299793E-02  7.343591E-02  7.387653E-02  7.431979E-02  7.476571E-02  7.521430E-02
  7.566559E-02  7.611958E-02  7.657630E-02  7.703576E-02  7.749797E-02  7.796296E-02  7.843074E-02  7.890132E-02
  7.937473E-02  7.985098E-02  8.033008E-02  8.081206E-02  8.129694E-02  8.178472E-02  8.227543E-02  8.276908E-02
  8.326569E-02  8.376529E-02  8.426788E-02  8.477349E-02  8.528213E-02  8.579382E-02  8.630858E-02  8.682643E-02
  8.734739E-02  8.787148E-02  8.839871E-02  8.892910E-02  8.946267E-02  8.999945E-02  9.053944E-02  9.108268E-02
  9.162918E-02  9.217895E-02  9.273203E-02  9.328842E-02  9.384815E-02  9.441124E-02  9.497771E-02  9.554757E-02
  9.612086E-02  9.669758E-02  9.727777E-02  9.786143E-02  9.844860E-02  9.903929E-02  9.963353E-02  1.002313E-01
  1.008327E-01  1.014377E-01  1.020463E-01  1.026586E-01  1.032746E-01  1.038942E-01  1.045176E-01  1.051447E-01
  1.057756E-01  1.064102E-01  1.070487E-01  1.076910E-01  1.083371E-01  1.089871E-01  1.096411E-01  1.102989E-01
  1.109607E-01  1.116265E-01  1.122962E-01  1.129700E-01  1.136478E-01  1.143297E-01  1.150157E-01  1.157058E-01
  1.164000E-01  1.170984E-01  1.178010E-01  1.185078E-01  1.192189E-01  1.199342E-01  1.206538E-01  1.213777E-01
  1.221060E-01  1.228386E-01  1.235756E-01  1.243171E-01  1.250630E-01  1.258134E-01  1.265682E-01  1.273277E-01
  1.280916E-01  1.288602E-01  1.296333E-01  1.304111E-01  1.311936E-01  1.319808E-01  1.327726E-01  1.335693E-01
  1.343707E-01  1.351769E-01  1.359880E-01  1.368039E-01  1.376247E-01  1.384505E-01  1.392812E-01  1.401169E-01
  1.409576E-01  1.418033E-01  1.426541E-01  1.435101E-01  1.443711E-01  1.452373E-01  1.461088E-01  1.469854E-01
  1.478673E-01  1.487545E-01  1.496471E-01  1.505449E-01  1.514482E-01  1.523569E-01  1.532710E-01  1.541907E-01
  1.551158E-01  1.560465E-01  1.569828E-01  1.579247E-01  1.588722E-01  1.598255E-01  1.607844E-01  1.617491E-01
  1.627196E-01  1.636959E-01  1.646781E-01  1.656662E-01  1.666602E-01  1.676601E-01  1.686661E-01  1.696781E-01
  1.706962E-01  1.717203E-01  1.727507E-01  1.737872E-01  1.748299E-01  1.758789E-01  1.769342E-01  1.779958E-01
  1.790637E-01  1.801381E-01  1.812189E-01  1.823063E-01  1.834001E-01  1.845005E-01  1.856075E-01  1.867211E-01
  1.878415E-01  1.889685E-01  1.901023E-01  1.912429E-01  1.923904E-01  1.935447E-01  1.947060E-01  1.958742E-01
  1.970495E-01  1.982318E-01  1.994212E-01  2.006177E-01  2.018214E-01  2.030323E-01  2.042505E-01  2.054760E-01
  2.067089E-01  2.079491E-01  2.091968E-01  2.104520E-01  2.117147E-01  2.129850E-01  2.142629E-01  2.155485E-01
  2.168418E-01  2.181429E-01  2.194517E-01  2.207684E-01  2.220930E-01  2.234256E-01  2.247661E-01  2.261147E-01
  2.274714E-01  2.288363E-01  2.302093E-01  2.315905E-01  2.329801E-01  2.343780E-01  2.357842E-01  2.371989E-01
  2.386221E-01  2.400539E-01  2.414942E-01  2.429431E-01  2.444008E-01  2.458672E-01  2.473424E-01  2.488265E-01
  2.503194E-01  2.518213E-01  2.533323E-01  2.548523E-01  2.563814E-01  2.579197E-01  2.594672E-01  2.610240E-01
  2.625901E-01  2.641657E-01  2.657507E-01  2.673452E-01  2.689492E-01  2.705629E-01  2.721863E-01  2.738194E-01
  2.754623E-01  2.771151E-01  2.787778E-01  2.804505E-01  2.821332E-01  2.838260E-01  2.855289E-01  2.872421E-01
  2.889656E-01  2.906994E-01  2.924436E-01  2.941982E-01  2.959634E-01  2.977392E-01  2.995256E-01  3.013228E-01
  3.031307E-01  3.049495E-01  3.067792E-01  3.086199E-01  3.104716E-01  3.123344E-01  3.142084E-01  3.160937E-01
  3.179902E-01  3.198982E-01  3.218176E-01  3.237485E-01  3.256910E-01  3.276451E-01  3.296110E-01  3.315886E-01
  3.335782E-01  3.355796E-01  3.375931E-01  3.396187E-01  3.416564E-01  3.437063E-01  3.457686E-01  3.478432E-01
  3.499302E-01  3.520298E-01  3.541420E-01  3.562668E-01  3.584044E-01  3.605549E-01  3.627182E-01  3.648945E-01
  3.670839E-01  3.692864E-01  3.715021E-01  3.737311E-01  3.759735E-01  3.782293E-01  3.804987E-01  3.827817E-01
  3.850784E-01  3.873889E-01  3.897132E-01  3.920515E-01  3.944038E-01  3.967702E-01  3.991508E-01  4.015457E-01
  4.039550E-01  4.063787E-01  4.088170E-01  4.112699E-01  4.137375E-01  4.162200E-01  4.187173E-01  4.212296E-01
  4.237570E-01  4.262995E-01  4.288573E-01  4.314305E-01  4.340190E-01  4.366231E-01  4.392429E-01  4.418783E-01
  4.445296E-01  4.471968E-01  4.498800E-01  4.525793E-01  4.552947E-01  4.580265E-01  4.607747E-01  4.635393E-01
  4.663205E-01  4.691185E-01  4.719332E-01  4.747648E-01  4.776134E-01  4.804790E-01  4.833619E-01  4.862621E-01
  4.891797E-01  4.921147E-01  4.950674E-01  4.980378E-01  5.010261E-01  5.040322E-01  5.070564E-01  5.100987E-01
  5.131593E-01  5.162383E-01  5.193357E-01  5.224517E-01  5.255864E-01  5.287400E-01  5.319124E-01  5.351039E-01
  5.383145E-01  5.415444E-01  5.447937E-01  5.480624E-01  5.513508E-01  5.546589E-01  5.579869E-01  5.613348E-01
  5.647028E-01  5.680910E-01  5.714995E-01  5.749285E-01  5.783781E-01  5.818484E-01  5.853395E-01  5.888515E-01
  5.923846E-01  5.959389E-01  5.995146E-01  6.031116E-01  6.067303E-01  6.103707E-01  6.140329E-01  6.177171E-01
  6.214234E-01  6.251520E-01  6.289029E-01  6.326763E-01  6.364724E-01  6.402912E-01  6.441329E-01  6.479977E-01
  6.518857E-01  6.557970E-01  6.597318E-01  6.636902E-01  6.676723E-01  6.716784E-01  6.757084E-01  6.797627E-01
  6.838413E-01  6.879443E-01  6.920720E-01  6.962244E-01  7.004018E-01  7.046042E-01  7.088318E-01  7.130848E-01
  7.173633E-01  7.216675E-01  7.259975E-01  7.303535E-01  7.347356E-01  7.391440E-01  7.435789E-01  7.480403E-01
  7.525286E-01  7.570438E-01  7.615860E-01  7.661555E-01  7.707525E-01  7.753770E-01  7.800292E-01  7.847094E-01
  7.894177E-01  7.941542E-01  7.989191E-01  8.037126E-01  8.085349E-01  8.133861E-01  8.182664E-01  8.231760E-01
  8.281151E-01  8.330838E-01  8.380823E-01  8.431108E-01  8.481694E-01  8.532584E-01  8.583780E-01  8.635283E-01
  8.687094E-01  8.739217E-01  8.791652E-01  8.844402E-01  8.897469E-01  8.950853E-01  9.004558E-01  9.058586E-01
  9.112937E-01  9.167615E-01  9.222621E-01  9.277956E-01  9.333624E-01  9.389626E-01  9.445964E-01  9.502639E-01
  9.559655E-01  9.617013E-01  9.674715E-01  9.732764E-01  9.791160E-01  9.849907E-01  9.909007E-01  9.968461E-01
  1.002827E+00  1.008844E+00  1.014897E+00  1.020987E+00  1.027112E+00  1.033275E+00  1.039475E+00  1.045712E+00
  1.051986E+00  1.058298E+00  1.064648E+00  1.071035E+00  1.077462E+00  1.083926E+00  1.090430E+00  1.096973E+00
  1.103554E+00  1.110176E+00  1.116837E+00  1.123538E+00  1.130279E+00  1.137061E+00  1.143883E+00  1.150746E+00
  1.157651E+00  1.164597E+00  1.171584E+00  1.178614E+00  1.185686E+00  1.192800E+00  1.199956E+00  1.207156E+00
  1.214399E+00  1.221686E+00  1.229016E+00  1.236390E+00  1.243808E+00  1.251271E+00  1.258779E+00  1.266331E+00
  1.273929E+00  1.281573E+00  1.289262E+00  1.296998E+00  1.304780E+00  1.312608E+00  1.320484E+00  1.328407E+00
  1.336377E+00  1.344396E+00  1.352462E+00  1.360577E+00  1.368740E+00  1.376953E+00  1.385215E+00  1.393526E+00
  1.401887E+00  1.410298E+00  1.418760E+00  1.427273E+00  1.435836E+00  1.444451E+00  1.453118E+00  1.461837E+00
  1.470608E+00  1.479431E+00  1.488308E+00  1.497238E+00  1.506221E+00  1.515259E+00  1.524350E+00  1.533496E+00
  1.542697E+00  1.551953E+00  1.561265E+00  1.570633E+00  1.580056E+00  1.589537E+00  1.599074E+00  1.608668E+00
  1.618320E+00  1.628030E+00  1.637799E+00  1.647625E+00  1.657511E+00  1.667456E+00  1.677461E+00  1.687526E+00
  1.697651E+00  1.707837E+00  1.718084E+00  1.728392E+00  1.738763E+00  1.749195E+00  1.759690E+00  1.770249E+00
  1.780870E+00  1.791555E+00  1.802305E+00  1.813118E+00  1.823997E+00  1.834941E+00  1.845951E+00  1.857026E+00
  1.868169E+00  1.879378E+00  1.890654E+00  1.901998E+00  1.913410E+00  1.924890E+00  1.936440E+00  1.948058E+00
  1.959747E+00  1.971505E+00  1.983334E+00  1.995234E+00  2.007206E+00  2.019249E+00  2.031364E+00  2.043552E+00
  2.055814E+00  2.068149E+00  2.080558E+00  2.093041E+00  2.105599E+00  2.118233E+00  2.130942E+00  2.143728E+00
  2.156590E+00  2.169530E+00  2.182547E+00  2.195642E+00  2.208816E+00  2.222069E+00  2.235401E+00  2.248814E+00
  2.262307E+00  2.275880E+00  2.289536E+00  2.303273E+00  2.317093E+00  2.330995E+00  2.344981E+00  2.359051E+00
  2.373205E+00  2.387444E+00  2.401769E+00  2.416180E+00  2.430677E+00  2.445261E+00  2.459932E+00  2.474692E+00
  2.489540E+00  2.504477E+00  2.519504E+00  2.534621E+00  2.549829E+00  2.565128E+00  2.580519E+00  2.596002E+00
  2.611578E+00  2.627247E+00  2.643011E+00  2.658869E+00  2.674822E+00  2.690871E+00  2.707016E+00  2.723258E+00
  2.739598E+00  2.756036E+00  2.772572E+00  2.789207E+00  2.805942E+00  2.822778E+00  2.839715E+00  2.856753E+00
  2.873894E+00  2.891137E+00  2.908484E+00  2.925935E+00  2.943490E+00  2.961151E+00  2.978918E+00  2.996792E+00
  3.014772E+00  3.032861E+00  3.051058E+00  3.069365E+00  3.087781E+00  3.106307E+00  3.124945E+00  3.143695E+00
  3.162557E+00  3.181532E+00  3.200622E+00  3.219825E+00  3.239144E+00  3.258579E+00  3.278131E+00  3.297799E+00
  3.317586E+00  3.337492E+00  3.357517E+00  3.377662E+00  3.397928E+00  3.418315E+00  3.438825E+00  3.459458E+00
  3.480215E+00  3.501096E+00  3.522103E+00  3.543235E+00  3.564495E+00  3.585882E+00  3.607397E+00  3.629041E+00
  3.650816E+00  3.672721E+00  3.694757E+00  3.716925E+00  3.739227E+00  3.761662E+00  3.784232E+00  3.806938E+00
  3.829779E+00  3.852758E+00  3.875875E+00  3.899130E+00  3.922525E+00  3.946060E+00  3.969736E+00  3.993555E+00
  4.017516E+00  4.041621E+00  4.065871E+00  4.090266E+00  4.114808E+00  4.139496E+00  4.164333E+00  4.189319E+00
  4.214455E+00  4.239742E+00  4.265180E+00  4.290772E+00  4.316516E+00  4.342415E+00  4.368470E+00  4.394681E+00
  4.421049E+00  4.447575E+00  4.474260E+00  4.501106E+00  4.528113E+00  4.555281E+00  4.582613E+00  4.610109E+00
  4.637769E+00  4.665596E+00  4.693589E+00  4.721751E+00  4.750082E+00  4.778582E+00  4.807254E+00  4.836097E+00
  4.865114E+00  4.894304E+00  4.923670E+00  4.953212E+00  4.982931E+00  5.012829E+00  5.042906E+00  5.073163E+00
  5.103602E+00  5.134224E+00  5.165029E+00  5.196020E+00  5.227196E+00  5.258559E+00  5.290110E+00  5.321851E+00
  5.353782E+00  5.385905E+00  5.418220E+00  5.450729E+00  5.483434E+00  5.516334E+00  5.549432E+00  5.582729E+00
  5.616225E+00  5.649923E+00  5.683822E+00  5.717925E+00  5.752233E+00  5.786746E+00  5.821467E+00  5.856395E+00
  5.891534E+00  5.926883E+00  5.962444E+00  5.998219E+00  6.034208E+00  6.070413E+00  6.106836E+00  6.143477E+00
  6.180338E+00  6.217420E+00  6.254724E+00  6.292253E+00  6.330006E+00  6.367986E+00  6.406194E+00  6.444631E+00
  6.483299E+00  6.522199E+00  6.561332E+00  6.600700E+00  6.640304E+00  6.680146E+00  6.720227E+00  6.760548E+00
  6.801112E+00  6.841918E+00  6.882970E+00  6.924268E+00  6.965813E+00  7.007608E+00  7.049654E+00  7.091952E+00
  7.134503E+00  7.177310E+00  7.220374E+00  7.263697E+00  7.307279E+00  7.351122E+00  7.395229E+00  7.439601E+00
  7.484238E+00  7.529144E+00  7.574318E+00  7.619764E+00  7.665483E+00  7.711476E+00  7.757745E+00  7.804291E+00
  7.851117E+00  7.898224E+00  7.945613E+00  7.993287E+00  8.041246E+00  8.089494E+00  8.138031E+00  8.186859E+00
  8.235980E+00  8.285396E+00  8.335108E+00  8.385119E+00  8.435430E+00  8.486042E+00  8.536959E+00  8.588180E+00
  8.639709E+00  8.691548E+00  8.743697E+00  8.796159E+00  8.848936E+00  8.902030E+00  8.955442E+00  9.009175E+00
  9.063230E+00  9.117609E+00  9.172315E+00  9.227349E+00  9.282713E+00  9.338409E+00  9.394439E+00  9.450806E+00
  9.507511E+00  9.564556E+00  9.621943E+00  9.679675E+00  9.737753E+00  9.796179E+00  9.854956E+00  9.914086E+00
  9.973571E+00  1.003341E+01  1.009361E+01  1.015417E+01  1.021510E+01  1.027639E+01  1.033805E+01  1.040008E+01
  1.046248E+01  1.052525E+01  1.058840E+01  1.065193E+01  1.071585E+01  1.078014E+01  1.084482E+01  1.090989E+01
  1.097535E+01  1.104120E+01  1.110745E+01  1.117409E+01  1.124114E+01  1.130859E+01  1.137644E+01  1.144470E+01
  1.151336E+01  1.158244E+01  1.165194E+01  1.172185E+01  1.179218E+01  1.186293E+01  1.193411E+01  1.200572E+01
  1.207775E+01  1.215022E+01  1.222312E+01  1.229646E+01  1.237024E+01  1.244446E+01  1.251912E+01  1.259424E+01
  1.266980E+01  1.274582E+01  1.282230E+01  1.289923E+01  1.297663E+01  1.305449E+01  1.313281E+01  1.321161E+01
  1.329088E+01  1.337063E+01  1.345085E+01  1.353155E+01  1.361274E+01  1.369442E+01  1.377659E+01  1.385925E+01
  1.394240E+01  1.402606E+01  1.411021E+01  1.419487E+01  1.428004E+01  1.436572E+01  1.445192E+01  1.453863E+01
  1.462586E+01  1.471362E+01  1.480190E+01  1.489071E+01  1.498005E+01  1.506993E+01  1.516035E+01  1.525132E+01
  1.534282E+01  1.543488E+01  1.552749E+01  1.562065E+01  1.571438E+01  1.580866E+01  1.590352E+01  1.599894E+01
  1.609493E+01  1.619150E+01  1.628865E+01  1.638638E+01  1.648470E+01  1.658361E+01  1.668311E+01  1.678321E+01
  1.688391E+01  1.698521E+01  1.708712E+01  1.718965E+01  1.729278E+01  1.739654E+01  1.750092E+01  1.760592E+01
  1.771156E+01  1.781783E+01  1.792474E+01  1.803229E+01  1.814048E+01  1.824932E+01  1.835882E+01  1.846897E+01
  1.857978E+01  1.869126E+01  1.880341E+01  1.891623E+01  1.902973E+01  1.914391E+01  1.925877E+01  1.937432E+01
  1.949057E+01  1.960751E+01  1.972516E+01  1.984351E+01  1.996257E+01  2.008234E+01  2.020284E+01  2.032406E+01
  2.044600E+01  2.056868E+01  2.069209E+01  2.081624E+01  2.094114E+01  2.106678E+01  2.119319E+01  2.132034E+01
  2.144827E+01  2.157696E+01  2.170642E+01  2.183666E+01  2.196768E+01  2.209948E+01  2.223208E+01  2.236547E+01
  2.249966E+01  2.263466E+01  2.277047E+01  2.290709E+01  2.304454E+01  2.318280E+01  2.332190E+01  2.346183E+01
  2.360260E+01  2.374422E+01  2.388668E+01  2.403000E+01  2.417418E+01  2.431923E+01  2.446514E+01  2.461194E+01
  2.475961E+01  2.490816E+01  2.505761E+01  2.520796E+01  2.535921E+01  2.551136E+01  2.566443E+01  2.581842E+01
  2.597333E+01  2.612917E+01  2.628594E+01  2.644366E+01  2.660232E+01  2.676193E+01  2.692251E+01  2.708404E+01
  2.724654E+01  2.741002E+01  2.757448E+01  2.773993E+01  2.790637E+01  2.807381E+01  2.824225E+01  2.841171E+01
  2.858218E+01  2.875367E+01  2.892619E+01  2.909975E+01  2.927435E+01  2.944999E+01  2.962669E+01  2.980445E+01
  2.998328E+01  3.016318E+01  3.034416E+01  3.052622E+01  3.070938E+01  3.089364E+01  3.107900E+01  3.126547E+01
  3.145306E+01  3.164178E+01  3.183163E+01  3.202262E+01  3.221476E+01  3.240805E+01  3.260250E+01  3.279811E+01
  3.299490E+01  3.319287E+01  3.339203E+01  3.359238E+01  3.379393E+01  3.399670E+01  3.420068E+01  3.440588E+01
  3.461232E+01  3.481999E+01  3.502891E+01  3.523908E+01  3.545052E+01  3.566322E+01  3.587720E+01  3.609246E+01
  3.630902E+01  3.652687E+01  3.674603E+01  3.696651E+01  3.718831E+01  3.741144E+01  3.763591E+01  3.786172E+01
  3.808889E+01  3.831743E+01  3.854733E+01  3.877862E+01  3.901129E+01  3.924535E+01  3.948083E+01  3.971771E+01
  3.995602E+01  4.019575E+01  4.043693E+01  4.067955E+01  4.092363E+01  4.116917E+01  4.141618E+01  4.166468E+01
  4.191467E+01  4.216616E+01  4.241915E+01  4.267367E+01  4.292971E+01  4.318729E+01  4.344641E+01  4.370709E+01
  4.396933E+01  4.423315E+01  4.449855E+01
   </PP_R>
   <PP_RAB type="real"  size="  2291" columns="8">
  2.991036E-07  3.008982E-07  3.027036E-07  3.045198E-07  3.063469E-07  3.081850E-07  3.100341E-07  3.118943E-07
  3.137657E-07  3.156483E-07  3.175422E-07  3.194474E-07  3.213641E-07  3.232923E-07  3.252321E-07  3.271835E-07
  3.291466E-07  3.311214E-07  3.331082E-07  3.351068E-07  3.371174E-07  3.391402E-07  3.411750E-07  3.432220E-07
  3.452814E-07  3.473531E-07  3.494372E-07  3.515338E-07  3.536430E-07  3.557649E-07  3.578995E-07  3.600469E-07
  3.622071E-07  3.643804E-07  3.665667E-07  3.687661E-07  3.709787E-07  3.732045E-07  3.754438E-07  3.776964E-07
  3.799626E-07  3.822424E-07  3.845358E-07  3.868430E-07  3.891641E-07  3.914991E-07  3.938481E-07  3.962112E-07
  3.985884E-07  4.009800E-07  4.033858E-07  4.058062E-07  4.082410E-07  4.106904E-07  4.131546E-07  4.156335E-07
  4.181273E-07  4.206361E-07  4.231599E-07  4.256989E-07  4.282530E-07  4.308226E-07  4.334075E-07  4.360079E-07
  4.386240E-07  4.412557E-07  4.439033E-07  4.465667E-07  4.492461E-07  4.519416E-07  4.546532E-07  4.573811E-07
  4.601254E-07  4.628862E-07  4.656635E-07  4.684575E-07  4.712682E-07  4.740958E-07  4.769404E-07  4.798020E-07
  4.826809E-07  4.855769E-07  4.884904E-07  4.914213E-07  4.943699E-07  4.973361E-07  5.003201E-07  5.033220E-07
  5.063420E-07  5.093800E-07  5.124363E-07  5.155109E-07  5.186040E-07  5.217156E-07  5.248459E-07  5.279950E-07
  5.311629E-07  5.343499E-07  5.375560E-07  5.407814E-07  5.440260E-07  5.472902E-07  5.505739E-07  5.538774E-07
  5.572006E-07  5.605439E-07  5.639071E-07  5.672906E-07  5.706943E-07  5.741185E-07  5.775632E-07  5.810286E-07
  5.845147E-07  5.880218E-07  5.915499E-07  5.950992E-07  5.986698E-07  6.022619E-07  6.058754E-07  6.095107E-07
  6.131677E-07  6.168468E-07  6.205478E-07  6.242711E-07  6.280167E-07  6.317848E-07  6.355756E-07  6.393890E-07
  6.432253E-07  6.470847E-07  6.509672E-07  6.548730E-07  6.588022E-07  6.627551E-07  6.667316E-07  6.707320E-07
  6.747564E-07  6.788049E-07  6.828777E-07  6.869750E-07  6.910969E-07  6.952434E-07  6.994149E-07  7.036114E-07
  7.078331E-07  7.120801E-07  7.163525E-07  7.206506E-07  7.249746E-07  7.293244E-07  7.337003E-07  7.381025E-07
  7.425312E-07  7.469864E-07  7.514683E-07  7.559771E-07  7.605129E-07  7.650760E-07  7.696665E-07  7.742845E-07
  7.789302E-07  7.836038E-07  7.883054E-07  7.930352E-07  7.977934E-07  8.025802E-07  8.073957E-07  8.122400E-07
  8.171135E-07  8.220162E-07  8.269483E-07  8.319100E-07  8.369014E-07  8.419228E-07  8.469744E-07  8.520562E-07
  8.571685E-07  8.623116E-07  8.674854E-07  8.726903E-07  8.779265E-07  8.831940E-07  8.884932E-07  8.938242E-07
  8.991871E-07  9.045822E-07  9.100097E-07  9.154698E-07  9.209626E-07  9.264884E-07  9.320473E-07  9.376396E-07
  9.432654E-07  9.489250E-07  9.546186E-07  9.603463E-07  9.661084E-07  9.719050E-07  9.777364E-07  9.836029E-07
  9.895045E-07  9.954415E-07  1.001414E-06  1.007423E-06  1.013467E-06  1.019548E-06  1.025665E-06  1.031819E-06
  1.038010E-06  1.044238E-06  1.050504E-06  1.056807E-06  1.063148E-06  1.069526E-06  1.075944E-06  1.082399E-06
  1.088894E-06  1.095427E-06  1.102000E-06  1.108612E-06  1.115263E-06  1.121955E-06  1.128687E-06  1.135459E-06
  1.142271E-06  1.149125E-06  1.156020E-06  1.162956E-06  1.169934E-06  1.176953E-06  1.184015E-06  1.191119E-06
  1.198266E-06  1.205455E-06  1.212688E-06  1.219964E-06  1.227284E-06  1.234648E-06  1.242056E-06  1.249508E-06
  1.257005E-06  1.264547E-06  1.272134E-06  1.279767E-06  1.287446E-06  1.295170E-06  1.302941E-06  1.310759E-06
  1.318624E-06  1.326535E-06  1.334495E-06  1.342501E-06  1.350557E-06  1.358660E-06  1.366812E-06  1.375013E-06
  1.383263E-06  1.391562E-06  1.399912E-06  1.408311E-06  1.416761E-06  1.425262E-06  1.433813E-06  1.442416E-06
  1.451071E-06  1.459777E-06  1.468536E-06  1.477347E-06  1.486211E-06  1.495128E-06  1.504099E-06  1.513124E-06
  1.522202E-06  1.531336E-06  1.540524E-06  1.549767E-06  1.559065E-06  1.568420E-06  1.577830E-06  1.587297E-06
  1.596821E-06  1.606402E-06  1.616040E-06  1.625737E-06  1.635491E-06  1.645304E-06  1.655176E-06  1.665107E-06
  1.675097E-06  1.685148E-06  1.695259E-06  1.705430E-06  1.715663E-06  1.725957E-06  1.736313E-06  1.746731E-06
  1.757211E-06  1.767754E-06  1.778361E-06  1.789031E-06  1.799765E-06  1.810564E-06  1.821427E-06  1.832356E-06
  1.843350E-06  1.854410E-06  1.865536E-06  1.876730E-06  1.887990E-06  1.899318E-06  1.910714E-06  1.922178E-06
  1.933711E-06  1.945313E-06  1.956985E-06  1.968727E-06  1.980540E-06  1.992423E-06  2.004377E-06  2.016404E-06
  2.028502E-06  2.040673E-06  2.052917E-06  2.065235E-06  2.077626E-06  2.090092E-06  2.102632E-06  2.115248E-06
  2.127940E-06  2.140707E-06  2.153551E-06  2.166473E-06  2.179472E-06  2.192548E-06  2.205704E-06  2.218938E-06
  2.232252E-06  2.245645E-06  2.259119E-06  2.272674E-06  2.286310E-06  2.300028E-06  2.313828E-06  2.327711E-06
  2.341677E-06  2.355727E-06  2.369861E-06  2.384081E-06  2.398385E-06  2.412775E-06  2.427252E-06  2.441816E-06
  2.456466E-06  2.471205E-06  2.486032E-06  2.500949E-06  2.515954E-06  2.531050E-06  2.546236E-06  2.561514E-06
  2.576883E-06  2.592344E-06  2.607898E-06  2.623546E-06  2.639287E-06  2.655123E-06  2.671053E-06  2.687080E-06
  2.703202E-06  2.719421E-06  2.735738E-06  2.752152E-06  2.768665E-06  2.785277E-06  2.801989E-06  2.818801E-06
  2.835714E-06  2.852728E-06  2.869844E-06  2.887063E-06  2.904386E-06  2.921812E-06  2.939343E-06  2.956979E-06
  2.974721E-06  2.992569E-06  3.010525E-06  3.028588E-06  3.046759E-06  3.065040E-06  3.083430E-06  3.101931E-06
  3.120542E-06  3.139265E-06  3.158101E-06  3.177050E-06  3.196112E-06  3.215289E-06  3.234580E-06  3.253988E-06
  3.273512E-06  3.293153E-06  3.312912E-06  3.332789E-06  3.352786E-06  3.372903E-06  3.393140E-06  3.413499E-06
  3.433980E-06  3.454584E-06  3.475311E-06  3.496163E-06  3.517140E-06  3.538243E-06  3.559472E-06  3.580829E-06
  3.602314E-06  3.623928E-06  3.645672E-06  3.667546E-06  3.689551E-06  3.711688E-06  3.733958E-06  3.756362E-06
  3.778900E-06  3.801574E-06  3.824383E-06  3.847330E-06  3.870413E-06  3.893636E-06  3.916998E-06  3.940500E-06
  3.964143E-06  3.987928E-06  4.011855E-06  4.035926E-06  4.060142E-06  4.084503E-06  4.109010E-06  4.133664E-06
  4.158466E-06  4.183417E-06  4.208517E-06  4.233768E-06  4.259171E-06  4.284726E-06  4.310434E-06  4.336297E-06
  4.362315E-06  4.388488E-06  4.414819E-06  4.441308E-06  4.467956E-06  4.494764E-06  4.521732E-06  4.548863E-06
  4.576156E-06  4.603613E-06  4.631235E-06  4.659022E-06  4.686976E-06  4.715098E-06  4.743389E-06  4.771849E-06
  4.800480E-06  4.829283E-06  4.858259E-06  4.887408E-06  4.916733E-06  4.946233E-06  4.975910E-06  5.005766E-06
  5.035800E-06  5.066015E-06  5.096411E-06  5.126990E-06  5.157752E-06  5.188698E-06  5.219831E-06  5.251149E-06
  5.282656E-06  5.314352E-06  5.346238E-06  5.378316E-06  5.410586E-06  5.443049E-06  5.475708E-06  5.508562E-06
  5.541613E-06  5.574863E-06  5.608312E-06  5.641962E-06  5.675814E-06  5.709869E-06  5.744128E-06  5.778593E-06
  5.813264E-06  5.848144E-06  5.883233E-06  5.918532E-06  5.954043E-06  5.989767E-06  6.025706E-06  6.061860E-06
  6.098231E-06  6.134821E-06  6.171630E-06  6.208659E-06  6.245911E-06  6.283387E-06  6.321087E-06  6.359014E-06
  6.397168E-06  6.435551E-06  6.474164E-06  6.513009E-06  6.552087E-06  6.591400E-06  6.630948E-06  6.670734E-06
  6.710758E-06  6.751023E-06  6.791529E-06  6.832278E-06  6.873272E-06  6.914511E-06  6.955998E-06  6.997734E-06
  7.039721E-06  7.081959E-06  7.124451E-06  7.167198E-06  7.210201E-06  7.253462E-06  7.296983E-06  7.340765E-06
  7.384809E-06  7.429118E-06  7.473693E-06  7.518535E-06  7.563646E-06  7.609028E-06  7.654682E-06  7.700610E-06
  7.746814E-06  7.793295E-06  7.840055E-06  7.887095E-06  7.934418E-06  7.982024E-06  8.029916E-06  8.078096E-06
  8.126564E-06  8.175324E-06  8.224376E-06  8.273722E-06  8.323364E-06  8.373304E-06  8.423544E-06  8.474085E-06
  8.524930E-06  8.576080E-06  8.627536E-06  8.679301E-06  8.731377E-06  8.783765E-06  8.836468E-06  8.889487E-06
  8.942824E-06  8.996481E-06  9.050459E-06  9.104762E-06  9.159391E-06  9.214347E-06  9.269633E-06  9.325251E-06
  9.381203E-06  9.437490E-06  9.494115E-06  9.551079E-06  9.608386E-06  9.666036E-06  9.724032E-06  9.782377E-06
  9.841071E-06  9.900117E-06  9.959518E-06  1.001928E-05  1.007939E-05  1.013987E-05  1.020071E-05  1.026191E-05
  1.032348E-05  1.038542E-05  1.044774E-05  1.051042E-05  1.057348E-05  1.063693E-05  1.070075E-05  1.076495E-05
  1.082954E-05  1.089452E-05  1.095989E-05  1.102564E-05  1.109180E-05  1.115835E-05  1.122530E-05  1.129265E-05
  1.136041E-05  1.142857E-05  1.149714E-05  1.156612E-05  1.163552E-05  1.170533E-05  1.177557E-05  1.184622E-05
  1.191730E-05  1.198880E-05  1.206073E-05  1.213310E-05  1.220590E-05  1.227913E-05  1.235281E-05  1.242692E-05
  1.250148E-05  1.257649E-05  1.265195E-05  1.272786E-05  1.280423E-05  1.288106E-05  1.295834E-05  1.303609E-05
  1.311431E-05  1.319300E-05  1.327215E-05  1.335179E-05  1.343190E-05  1.351249E-05  1.359356E-05  1.367512E-05
  1.375718E-05  1.383972E-05  1.392276E-05  1.400629E-05  1.409033E-05  1.417487E-05  1.425992E-05  1.434548E-05
  1.443155E-05  1.451814E-05  1.460525E-05  1.469288E-05  1.478104E-05  1.486973E-05  1.495895E-05  1.504870E-05
  1.513899E-05  1.522983E-05  1.532121E-05  1.541313E-05  1.550561E-05  1.559864E-05  1.569224E-05  1.578639E-05
  1.588111E-05  1.597640E-05  1.607225E-05  1.616869E-05  1.626570E-05  1.636329E-05  1.646147E-05  1.656024E-05
  1.665960E-05  1.675956E-05  1.686012E-05  1.696128E-05  1.706305E-05  1.716543E-05  1.726842E-05  1.737203E-05
  1.747626E-05  1.758112E-05  1.768660E-05  1.779272E-05  1.789948E-05  1.800688E-05  1.811492E-05  1.822361E-05
  1.833295E-05  1.844295E-05  1.855361E-05  1.866493E-05  1.877692E-05  1.888958E-05  1.900292E-05  1.911693E-05
  1.923163E-05  1.934702E-05  1.946311E-05  1.957989E-05  1.969736E-05  1.981555E-05  1.993444E-05  2.005405E-05
  2.017437E-05  2.029542E-05  2.041719E-05  2.053969E-05  2.066293E-05  2.078691E-05  2.091163E-05  2.103710E-05
  2.116332E-05  2.129030E-05  2.141805E-05  2.154655E-05  2.167583E-05  2.180589E-05  2.193672E-05  2.206834E-05
  2.220075E-05  2.233396E-05  2.246796E-05  2.260277E-05  2.273839E-05  2.287482E-05  2.301207E-05  2.315014E-05
  2.328904E-05  2.342877E-05  2.356935E-05  2.371076E-05  2.385303E-05  2.399615E-05  2.414012E-05  2.428496E-05
  2.443067E-05  2.457726E-05  2.472472E-05  2.487307E-05  2.502231E-05  2.517244E-05  2.532348E-05  2.547542E-05
  2.562827E-05  2.578204E-05  2.593673E-05  2.609235E-05  2.624891E-05  2.640640E-05  2.656484E-05  2.672423E-05
  2.688457E-05  2.704588E-05  2.720815E-05  2.737140E-05  2.753563E-05  2.770085E-05  2.786705E-05  2.803425E-05
  2.820246E-05  2.837167E-05  2.854190E-05  2.871315E-05  2.888543E-05  2.905875E-05  2.923310E-05  2.940850E-05
  2.958495E-05  2.976246E-05  2.994103E-05  3.012068E-05  3.030140E-05  3.048321E-05  3.066611E-05  3.085011E-05
  3.103521E-05  3.122142E-05  3.140875E-05  3.159720E-05  3.178678E-05  3.197750E-05  3.216937E-05  3.236239E-05
  3.255656E-05  3.275190E-05  3.294841E-05  3.314610E-05  3.334498E-05  3.354505E-05  3.374632E-05  3.394880E-05
  3.415249E-05  3.435740E-05  3.456355E-05  3.477093E-05  3.497955E-05  3.518943E-05  3.540057E-05  3.561297E-05
  3.582665E-05  3.604161E-05  3.625786E-05  3.647541E-05  3.669426E-05  3.691442E-05  3.713591E-05  3.735873E-05
  3.758288E-05  3.780838E-05  3.803523E-05  3.826344E-05  3.849302E-05  3.872398E-05  3.895632E-05  3.919006E-05
  3.942520E-05  3.966175E-05  3.989972E-05  4.013912E-05  4.037995E-05  4.062223E-05  4.086597E-05  4.111116E-05
  4.135783E-05  4.160598E-05  4.185561E-05  4.210675E-05  4.235939E-05  4.261354E-05  4.286922E-05  4.312644E-05
  4.338520E-05  4.364551E-05  4.390738E-05  4.417083E-05  4.443585E-05  4.470247E-05  4.497068E-05  4.524050E-05
  4.551195E-05  4.578502E-05  4.605973E-05  4.633609E-05  4.661410E-05  4.689379E-05  4.717515E-05  4.745820E-05
  4.774295E-05  4.802941E-05  4.831759E-05  4.860749E-05  4.889914E-05  4.919253E-05  4.948769E-05  4.978461E-05
  5.008332E-05  5.038382E-05  5.068612E-05  5.099024E-05  5.129618E-05  5.160396E-05  5.191358E-05  5.222506E-05
  5.253841E-05  5.285364E-05  5.317077E-05  5.348979E-05  5.381073E-05  5.413359E-05  5.445840E-05  5.478515E-05
  5.511386E-05  5.544454E-05  5.577721E-05  5.611187E-05  5.644854E-05  5.678723E-05  5.712796E-05  5.747072E-05
  5.781555E-05  5.816244E-05  5.851142E-05  5.886248E-05  5.921566E-05  5.957095E-05  5.992838E-05  6.028795E-05
  6.064968E-05  6.101358E-05  6.137966E-05  6.174793E-05  6.211842E-05  6.249113E-05  6.286608E-05  6.324328E-05
  6.362274E-05  6.400447E-05  6.438850E-05  6.477483E-05  6.516348E-05  6.555446E-05  6.594779E-05  6.634347E-05
  6.674153E-05  6.714198E-05  6.754484E-05  6.795010E-05  6.835781E-05  6.876795E-05  6.918056E-05  6.959564E-05
  7.001322E-05  7.043330E-05  7.085590E-05  7.128103E-05  7.170872E-05  7.213897E-05  7.257180E-05  7.300723E-05
  7.344528E-05  7.388595E-05  7.432927E-05  7.477524E-05  7.522389E-05  7.567524E-05  7.612929E-05  7.658606E-05
  7.704558E-05  7.750785E-05  7.797290E-05  7.844074E-05  7.891138E-05  7.938485E-05  7.986116E-05  8.034033E-05
  8.082237E-05  8.130730E-05  8.179515E-05  8.228592E-05  8.277963E-05  8.327631E-05  8.377597E-05  8.427862E-05
  8.478430E-05  8.529300E-05  8.580476E-05  8.631959E-05  8.683751E-05  8.735853E-05  8.788268E-05  8.840998E-05
  8.894044E-05  8.947408E-05  9.001092E-05  9.055099E-05  9.109430E-05  9.164086E-05  9.219071E-05  9.274385E-05
  9.330031E-05  9.386012E-05  9.442328E-05  9.498982E-05  9.555976E-05  9.613311E-05  9.670991E-05  9.729017E-05
  9.787391E-05  9.846116E-05  9.905192E-05  9.964624E-05  1.002441E-04  1.008456E-04  1.014507E-04  1.020594E-04
  1.026717E-04  1.032877E-04  1.039075E-04  1.045309E-04  1.051581E-04  1.057890E-04  1.064238E-04  1.070623E-04
  1.077047E-04  1.083509E-04  1.090010E-04  1.096550E-04  1.103130E-04  1.109748E-04  1.116407E-04  1.123105E-04
  1.129844E-04  1.136623E-04  1.143443E-04  1.150303E-04  1.157205E-04  1.164149E-04  1.171133E-04  1.178160E-04
  1.185229E-04  1.192341E-04  1.199495E-04  1.206692E-04  1.213932E-04  1.221215E-04  1.228543E-04  1.235914E-04
  1.243329E-04  1.250789E-04  1.258294E-04  1.265844E-04  1.273439E-04  1.281080E-04  1.288766E-04  1.296499E-04
  1.304278E-04  1.312103E-04  1.319976E-04  1.327896E-04  1.335863E-04  1.343878E-04  1.351942E-04  1.360053E-04
  1.368214E-04  1.376423E-04  1.384681E-04  1.392989E-04  1.401347E-04  1.409755E-04  1.418214E-04  1.426723E-04
  1.435284E-04  1.443895E-04  1.452559E-04  1.461274E-04  1.470042E-04  1.478862E-04  1.487735E-04  1.496661E-04
  1.505641E-04  1.514675E-04  1.523763E-04  1.532906E-04  1.542103E-04  1.551356E-04  1.560664E-04  1.570028E-04
  1.579448E-04  1.588925E-04  1.598459E-04  1.608049E-04  1.617698E-04  1.627404E-04  1.637168E-04  1.646991E-04
  1.656873E-04  1.666814E-04  1.676815E-04  1.686876E-04  1.696997E-04  1.707179E-04  1.717422E-04  1.727727E-04
  1.738093E-04  1.748522E-04  1.759013E-04  1.769567E-04  1.780185E-04  1.790866E-04  1.801611E-04  1.812421E-04
  1.823295E-04  1.834235E-04  1.845240E-04  1.856312E-04  1.867450E-04  1.878654E-04  1.889926E-04  1.901266E-04
  1.912673E-04  1.924149E-04  1.935694E-04  1.947308E-04  1.958992E-04  1.970746E-04  1.982571E-04  1.994466E-04
  2.006433E-04  2.018471E-04  2.030582E-04  2.042766E-04  2.055022E-04  2.067353E-04  2.079757E-04  2.092235E-04
  2.104789E-04  2.117417E-04  2.130122E-04  2.142903E-04  2.155760E-04  2.168695E-04  2.181707E-04  2.194797E-04
  2.207966E-04  2.221214E-04  2.234541E-04  2.247948E-04  2.261436E-04  2.275004E-04  2.288654E-04  2.302386E-04
  2.316201E-04  2.330098E-04  2.344078E-04  2.358143E-04  2.372292E-04  2.386526E-04  2.400845E-04  2.415250E-04
  2.429741E-04  2.444320E-04  2.458986E-04  2.473740E-04  2.488582E-04  2.503513E-04  2.518535E-04  2.533646E-04
  2.548848E-04  2.564141E-04  2.579526E-04  2.595003E-04  2.610573E-04  2.626236E-04  2.641994E-04  2.657846E-04
  2.673793E-04  2.689835E-04  2.705974E-04  2.722210E-04  2.738543E-04  2.754975E-04  2.771505E-04  2.788134E-04
  2.804862E-04  2.821692E-04  2.838622E-04  2.855653E-04  2.872787E-04  2.890024E-04  2.907364E-04  2.924808E-04
  2.942357E-04  2.960011E-04  2.977771E-04  2.995638E-04  3.013612E-04  3.031694E-04  3.049884E-04  3.068183E-04
  3.086592E-04  3.105112E-04  3.123742E-04  3.142485E-04  3.161340E-04  3.180308E-04  3.199390E-04  3.218586E-04
  3.237898E-04  3.257325E-04  3.276869E-04  3.296530E-04  3.316309E-04  3.336207E-04  3.356224E-04  3.376362E-04
  3.396620E-04  3.417000E-04  3.437502E-04  3.458127E-04  3.478875E-04  3.499749E-04  3.520747E-04  3.541872E-04
  3.563123E-04  3.584502E-04  3.606009E-04  3.627645E-04  3.649410E-04  3.671307E-04  3.693335E-04  3.715495E-04
  3.737788E-04  3.760214E-04  3.782776E-04  3.805472E-04  3.828305E-04  3.851275E-04  3.874383E-04  3.897629E-04
  3.921015E-04  3.944541E-04  3.968208E-04  3.992017E-04  4.015969E-04  4.040065E-04  4.064306E-04  4.088692E-04
  4.113224E-04  4.137903E-04  4.162730E-04  4.187707E-04  4.212833E-04  4.238110E-04  4.263539E-04  4.289120E-04
  4.314855E-04  4.340744E-04  4.366788E-04  4.392989E-04  4.419347E-04  4.445863E-04  4.472538E-04  4.499373E-04
  4.526370E-04  4.553528E-04  4.580849E-04  4.608334E-04  4.635984E-04  4.663800E-04  4.691783E-04  4.719934E-04
  4.748253E-04  4.776743E-04  4.805403E-04  4.834236E-04  4.863241E-04  4.892420E-04  4.921775E-04  4.951306E-04
  4.981013E-04  5.010899E-04  5.040965E-04  5.071211E-04  5.101638E-04  5.132248E-04  5.163041E-04  5.194019E-04
  5.225184E-04  5.256535E-04  5.288074E-04  5.319802E-04  5.351721E-04  5.383831E-04  5.416134E-04  5.448631E-04
  5.481323E-04  5.514211E-04  5.547296E-04  5.580580E-04  5.614064E-04  5.647748E-04  5.681634E-04  5.715724E-04
  5.750019E-04  5.784519E-04  5.819226E-04  5.854141E-04  5.889266E-04  5.924602E-04  5.960149E-04  5.995910E-04
  6.031886E-04  6.068077E-04  6.104485E-04  6.141112E-04  6.177959E-04  6.215027E-04  6.252317E-04  6.289831E-04
  6.327570E-04  6.365535E-04  6.403728E-04  6.442151E-04  6.480804E-04  6.519688E-04  6.558807E-04  6.598159E-04
  6.637748E-04  6.677575E-04  6.717640E-04  6.757946E-04  6.798494E-04  6.839285E-04  6.880320E-04  6.921602E-04
  6.963132E-04  7.004911E-04  7.046940E-04  7.089222E-04  7.131757E-04  7.174548E-04  7.217595E-04  7.260901E-04
  7.304466E-04  7.348293E-04  7.392383E-04  7.436737E-04  7.481357E-04  7.526245E-04  7.571403E-04  7.616831E-04
  7.662532E-04  7.708508E-04  7.754759E-04  7.801287E-04  7.848095E-04  7.895183E-04  7.942555E-04  7.990210E-04
  8.038151E-04  8.086380E-04  8.134898E-04  8.183708E-04  8.232810E-04  8.282207E-04  8.331900E-04  8.381891E-04
  8.432183E-04  8.482776E-04  8.533673E-04  8.584875E-04  8.636384E-04  8.688202E-04  8.740331E-04  8.792773E-04
  8.845530E-04  8.898603E-04  8.951995E-04  9.005707E-04  9.059741E-04  9.114099E-04  9.168784E-04  9.223797E-04
  9.279140E-04  9.334814E-04  9.390823E-04  9.447168E-04  9.503851E-04  9.560874E-04  9.618240E-04  9.675949E-04
  9.734005E-04  9.792409E-04  9.851163E-04  9.910270E-04  9.969732E-04  1.002955E-03  1.008973E-03  1.015027E-03
  1.021117E-03  1.027243E-03  1.033407E-03  1.039607E-03  1.045845E-03  1.052120E-03  1.058433E-03  1.064783E-03
  1.071172E-03  1.077599E-03  1.084065E-03  1.090569E-03  1.097113E-03  1.103695E-03  1.110317E-03  1.116979E-03
  1.123681E-03  1.130423E-03  1.137206E-03  1.144029E-03  1.150893E-03  1.157799E-03  1.164745E-03  1.171734E-03
  1.178764E-03  1.185837E-03  1.192952E-03  1.200110E-03  1.207310E-03  1.214554E-03  1.221841E-03  1.229172E-03
  1.236547E-03  1.243967E-03  1.251431E-03  1.258939E-03  1.266493E-03  1.274092E-03  1.281736E-03  1.289427E-03
  1.297163E-03  1.304946E-03  1.312776E-03  1.320653E-03  1.328576E-03  1.336548E-03  1.344567E-03  1.352635E-03
  1.360750E-03  1.368915E-03  1.377128E-03  1.385391E-03  1.393704E-03  1.402066E-03  1.410478E-03  1.418941E-03
  1.427455E-03  1.436019E-03  1.444635E-03  1.453303E-03  1.462023E-03  1.470795E-03  1.479620E-03  1.488498E-03
  1.497429E-03  1.506413E-03  1.515452E-03  1.524544E-03  1.533692E-03  1.542894E-03  1.552151E-03  1.561464E-03
  1.570833E-03  1.580258E-03  1.589740E-03  1.599278E-03  1.608874E-03  1.618527E-03  1.628238E-03  1.638007E-03
  1.647835E-03  1.657723E-03  1.667669E-03  1.677675E-03  1.687741E-03  1.697867E-03  1.708055E-03  1.718303E-03
  1.728613E-03  1.738984E-03  1.749418E-03  1.759915E-03  1.770474E-03  1.781097E-03  1.791784E-03  1.802534E-03
  1.813350E-03  1.824230E-03  1.835175E-03  1.846186E-03  1.857263E-03  1.868407E-03  1.879617E-03  1.890895E-03
  1.902240E-03  1.913654E-03  1.925136E-03  1.936687E-03  1.948307E-03  1.959996E-03  1.971756E-03  1.983587E-03
  1.995489E-03  2.007461E-03  2.019506E-03  2.031623E-03  2.043813E-03  2.056076E-03  2.068412E-03  2.080823E-03
  2.093308E-03  2.105868E-03  2.118503E-03  2.131214E-03  2.144001E-03  2.156865E-03  2.169806E-03  2.182825E-03
  2.195922E-03  2.209098E-03  2.222352E-03  2.235686E-03  2.249100E-03  2.262595E-03  2.276171E-03  2.289828E-03
  2.303567E-03  2.317388E-03  2.331292E-03  2.345280E-03  2.359352E-03  2.373508E-03  2.387749E-03  2.402075E-03
  2.416488E-03  2.430987E-03  2.445573E-03  2.460246E-03  2.475008E-03  2.489858E-03  2.504797E-03  2.519826E-03
  2.534945E-03  2.550154E-03  2.565455E-03  2.580848E-03  2.596333E-03  2.611911E-03  2.627582E-03  2.643348E-03
  2.659208E-03  2.675163E-03  2.691214E-03  2.707362E-03  2.723606E-03  2.739947E-03  2.756387E-03  2.772925E-03
  2.789563E-03  2.806300E-03  2.823138E-03  2.840077E-03  2.857117E-03  2.874260E-03  2.891506E-03  2.908855E-03
  2.926308E-03  2.943866E-03  2.961529E-03  2.979298E-03  2.997174E-03  3.015157E-03  3.033248E-03  3.051447E-03
  3.069756E-03  3.088174E-03  3.106704E-03  3.125344E-03  3.144096E-03  3.162960E-03  3.181938E-03  3.201030E-03
  3.220236E-03  3.239557E-03  3.258995E-03  3.278549E-03  3.298220E-03  3.318009E-03  3.337917E-03  3.357945E-03
  3.378093E-03  3.398361E-03  3.418751E-03  3.439264E-03  3.459899E-03  3.480659E-03  3.501543E-03  3.522552E-03
  3.543687E-03  3.564949E-03  3.586339E-03  3.607857E-03  3.629504E-03  3.651281E-03  3.673189E-03  3.695228E-03
  3.717399E-03  3.739704E-03  3.762142E-03  3.784715E-03  3.807423E-03  3.830268E-03  3.853249E-03  3.876369E-03
  3.899627E-03  3.923025E-03  3.946563E-03  3.970242E-03  3.994064E-03  4.018028E-03  4.042136E-03  4.066389E-03
  4.090788E-03  4.115332E-03  4.140024E-03  4.164864E-03  4.189854E-03  4.214993E-03  4.240283E-03  4.265724E-03
  4.291319E-03  4.317067E-03  4.342969E-03  4.369027E-03  4.395241E-03  4.421612E-03  4.448142E-03  4.474831E-03
  4.501680E-03  4.528690E-03  4.555862E-03  4.583197E-03  4.610697E-03  4.638361E-03  4.666191E-03  4.694188E-03
  4.722353E-03  4.750687E-03  4.779191E-03  4.807867E-03  4.836714E-03  4.865734E-03  4.894928E-03  4.924298E-03
  4.953844E-03  4.983567E-03  5.013468E-03  5.043549E-03  5.073810E-03  5.104253E-03  5.134879E-03  5.165688E-03
  5.196682E-03  5.227862E-03  5.259229E-03  5.290785E-03  5.322529E-03  5.354465E-03  5.386591E-03  5.418911E-03
  5.451424E-03  5.484133E-03  5.517038E-03  5.550140E-03  5.583441E-03  5.616942E-03  5.650643E-03  5.684547E-03
  5.718654E-03  5.752966E-03  5.787484E-03  5.822209E-03  5.857142E-03  5.892285E-03  5.927639E-03  5.963205E-03
  5.998984E-03  6.034978E-03  6.071188E-03  6.107615E-03  6.144260E-03  6.181126E-03  6.218213E-03  6.255522E-03
  6.293055E-03  6.330813E-03  6.368798E-03  6.407011E-03  6.445453E-03  6.484126E-03  6.523031E-03  6.562169E-03
  6.601542E-03  6.641151E-03  6.680998E-03  6.721084E-03  6.761410E-03  6.801979E-03  6.842791E-03  6.883848E-03
  6.925151E-03  6.966702E-03  7.008502E-03  7.050553E-03  7.092856E-03  7.135413E-03  7.178226E-03  7.221295E-03
  7.264623E-03  7.308211E-03  7.352060E-03  7.396172E-03  7.440549E-03  7.485193E-03  7.530104E-03  7.575284E-03
  7.620736E-03  7.666460E-03  7.712459E-03  7.758734E-03  7.805286E-03  7.852118E-03  7.899231E-03  7.946626E-03
  7.994306E-03  8.042272E-03  8.090525E-03  8.139069E-03  8.187903E-03  8.237030E-03  8.286453E-03  8.336171E-03
  8.386188E-03  8.436505E-03  8.487124E-03  8.538047E-03  8.589275E-03  8.640811E-03  8.692656E-03  8.744812E-03
  8.797281E-03  8.850064E-03  8.903165E-03  8.956584E-03  9.010323E-03  9.064385E-03  9.118772E-03  9.173484E-03
  9.228525E-03  9.283896E-03  9.339600E-03  9.395637E-03  9.452011E-03  9.508723E-03  9.565776E-03  9.623170E-03
  9.680909E-03  9.738995E-03  9.797429E-03  9.856213E-03  9.915350E-03  9.974843E-03  1.003469E-02  1.009490E-02
  1.015547E-02  1.021640E-02  1.027770E-02  1.033937E-02  1.040140E-02  1.046381E-02  1.052659E-02  1.058975E-02
  1.065329E-02  1.071721E-02  1.078152E-02  1.084620E-02  1.091128E-02  1.097675E-02  1.104261E-02  1.110887E-02
  1.117552E-02  1.124257E-02  1.131003E-02  1.137789E-02  1.144615E-02  1.151483E-02  1.158392E-02  1.165342E-02
  1.172334E-02  1.179368E-02  1.186445E-02  1.193563E-02  1.200725E-02  1.207929E-02  1.215177E-02  1.222468E-02
  1.229803E-02  1.237181E-02  1.244604E-02  1.252072E-02  1.259584E-02  1.267142E-02  1.274745E-02  1.282393E-02
  1.290088E-02  1.297828E-02  1.305615E-02  1.313449E-02  1.321330E-02  1.329258E-02  1.337233E-02  1.345256E-02
  1.353328E-02  1.361448E-02  1.369617E-02  1.377834E-02  1.386101E-02  1.394418E-02  1.402784E-02  1.411201E-02
  1.419668E-02  1.428186E-02  1.436756E-02  1.445376E-02  1.454048E-02  1.462773E-02  1.471549E-02  1.480379E-02
  1.489261E-02  1.498196E-02  1.507186E-02  1.516229E-02  1.525326E-02  1.534478E-02  1.543685E-02  1.552947E-02
  1.562265E-02  1.571638E-02  1.581068E-02  1.590554E-02  1.600098E-02  1.609698E-02  1.619357E-02  1.629073E-02
  1.638847E-02  1.648680E-02  1.658572E-02  1.668524E-02  1.678535E-02  1.688606E-02  1.698738E-02  1.708930E-02
  1.719184E-02  1.729499E-02  1.739876E-02  1.750315E-02  1.760817E-02  1.771382E-02  1.782010E-02  1.792702E-02
  1.803458E-02  1.814279E-02  1.825165E-02  1.836116E-02  1.847133E-02  1.858215E-02  1.869365E-02  1.880581E-02
  1.891864E-02  1.903216E-02  1.914635E-02  1.926123E-02  1.937679E-02  1.949305E-02  1.961001E-02  1.972767E-02
  1.984604E-02  1.996511E-02  2.008491E-02  2.020542E-02  2.032665E-02  2.044861E-02  2.057130E-02  2.069473E-02
  2.081890E-02  2.094381E-02  2.106947E-02  2.119589E-02  2.132306E-02  2.145100E-02  2.157971E-02  2.170919E-02
  2.183944E-02  2.197048E-02  2.210230E-02  2.223491E-02  2.236832E-02  2.250253E-02  2.263755E-02  2.277337E-02
  2.291001E-02  2.304747E-02  2.318576E-02  2.332487E-02  2.346482E-02  2.360561E-02  2.374725E-02  2.388973E-02
  2.403307E-02  2.417727E-02  2.432233E-02  2.446826E-02  2.461507E-02  2.476276E-02  2.491134E-02  2.506081E-02
  2.521117E-02  2.536244E-02  2.551462E-02  2.566770E-02  2.582171E-02  2.597664E-02  2.613250E-02  2.628929E-02
  2.644703E-02  2.660571E-02  2.676535E-02  2.692594E-02  2.708749E-02  2.725002E-02  2.741352E-02  2.757800E-02
  2.774347E-02  2.790993E-02  2.807739E-02  2.824585E-02  2.841533E-02  2.858582E-02  2.875734E-02  2.892988E-02
  2.910346E-02  2.927808E-02  2.945375E-02  2.963047E-02  2.980825E-02  2.998710E-02  3.016703E-02  3.034803E-02
  3.053012E-02  3.071330E-02  3.089758E-02  3.108296E-02  3.126946E-02  3.145708E-02  3.164582E-02  3.183569E-02
  3.202671E-02  3.221887E-02  3.241218E-02  3.260665E-02  3.280229E-02  3.299911E-02  3.319710E-02  3.339628E-02
  3.359666E-02  3.379824E-02  3.400103E-02  3.420504E-02  3.441027E-02  3.461673E-02  3.482443E-02  3.503338E-02
  3.524358E-02  3.545504E-02  3.566777E-02  3.588178E-02  3.609707E-02  3.631365E-02  3.653153E-02  3.675072E-02
  3.697122E-02  3.719305E-02  3.741621E-02  3.764071E-02  3.786655E-02  3.809375E-02  3.832231E-02  3.855225E-02
  3.878356E-02  3.901626E-02  3.925036E-02  3.948586E-02  3.972278E-02  3.996111E-02  4.020088E-02  4.044209E-02
  4.068474E-02  4.092885E-02  4.117442E-02  4.142147E-02  4.166999E-02  4.192001E-02  4.217153E-02  4.242456E-02
  4.267911E-02  4.293519E-02  4.319280E-02  4.345195E-02  4.371267E-02  4.397494E-02  4.423879E-02  4.450422E-02
  4.477125E-02  4.503988E-02  4.531012E-02  4.558198E-02  4.585547E-02  4.613060E-02  4.640738E-02  4.668583E-02
  4.696594E-02  4.724774E-02  4.753123E-02  4.781641E-02  4.810331E-02  4.839193E-02  4.868228E-02  4.897438E-02
  4.926822E-02  4.956383E-02  4.986122E-02  5.016038E-02  5.046135E-02  5.076411E-02  5.106870E-02  5.137511E-02
  5.168336E-02  5.199346E-02  5.230542E-02  5.261925E-02  5.293497E-02  5.325258E-02  5.357210E-02  5.389353E-02
  5.421689E-02  5.454219E-02  5.486944E-02  5.519866E-02  5.552985E-02  5.586303E-02  5.619821E-02  5.653540E-02
  5.687461E-02  5.721586E-02  5.755915E-02  5.790451E-02  5.825194E-02  5.860145E-02  5.895306E-02  5.930677E-02
  5.966262E-02  6.002059E-02  6.038071E-02  6.074300E-02  6.110746E-02  6.147410E-02  6.184295E-02  6.221400E-02
  6.258729E-02  6.296281E-02  6.334059E-02  6.372063E-02  6.410296E-02  6.448757E-02  6.487450E-02  6.526375E-02
  6.565533E-02  6.604926E-02  6.644556E-02  6.684423E-02  6.724529E-02  6.764877E-02  6.805466E-02  6.846299E-02
  6.887376E-02  6.928701E-02  6.970273E-02  7.012095E-02  7.054167E-02  7.096492E-02  7.139071E-02  7.181906E-02
  7.224997E-02  7.268347E-02  7.311957E-02  7.355829E-02  7.399964E-02  7.444364E-02  7.489030E-02  7.533964E-02
  7.579168E-02  7.624643E-02  7.670391E-02  7.716413E-02  7.762711E-02  7.809288E-02  7.856143E-02  7.903280E-02
  7.950700E-02  7.998404E-02  8.046394E-02  8.094673E-02  8.143241E-02  8.192100E-02  8.241253E-02  8.290700E-02
  8.340445E-02  8.390487E-02  8.440830E-02  8.491475E-02  8.542424E-02  8.593679E-02  8.645241E-02  8.697112E-02
  8.749295E-02  8.801791E-02  8.854601E-02  8.907729E-02  8.961175E-02  9.014942E-02  9.069032E-02  9.123446E-02
  9.178187E-02  9.233256E-02  9.288656E-02  9.344387E-02  9.400454E-02  9.456857E-02  9.513598E-02  9.570679E-02
  9.628103E-02  9.685872E-02  9.743987E-02  9.802451E-02  9.861266E-02  9.920433E-02  9.979956E-02  1.003984E-01
  1.010007E-01  1.016068E-01  1.022164E-01  1.028297E-01  1.034467E-01  1.040673E-01  1.046918E-01  1.053199E-01
  1.059518E-01  1.065875E-01  1.072271E-01  1.078704E-01  1.085176E-01  1.091688E-01  1.098238E-01  1.104827E-01
  1.111456E-01  1.118125E-01  1.124833E-01  1.131583E-01  1.138372E-01  1.145202E-01  1.152073E-01  1.158986E-01
  1.165940E-01  1.172935E-01  1.179973E-01  1.187053E-01  1.194175E-01  1.201340E-01  1.208548E-01  1.215800E-01
  1.223094E-01  1.230433E-01  1.237816E-01  1.245242E-01  1.252714E-01  1.260230E-01  1.267792E-01  1.275398E-01
  1.283051E-01  1.290749E-01  1.298493E-01  1.306284E-01  1.314122E-01  1.322007E-01  1.329939E-01  1.337919E-01
  1.345946E-01  1.354022E-01  1.362146E-01  1.370319E-01  1.378541E-01  1.386812E-01  1.395133E-01  1.403504E-01
  1.411925E-01  1.420396E-01  1.428919E-01  1.437492E-01  1.446117E-01  1.454794E-01  1.463522E-01  1.472304E-01
  1.481137E-01  1.490024E-01  1.498964E-01  1.507958E-01  1.517006E-01  1.526108E-01  1.535265E-01  1.544476E-01
  1.553743E-01  1.563066E-01  1.572444E-01  1.581879E-01  1.591370E-01  1.600918E-01  1.610524E-01  1.620187E-01
  1.629908E-01  1.639687E-01  1.649525E-01  1.659423E-01  1.669379E-01  1.679395E-01  1.689472E-01  1.699609E-01
  1.709806E-01  1.720065E-01  1.730385E-01  1.740768E-01  1.751212E-01  1.761720E-01  1.772290E-01  1.782924E-01
  1.793621E-01  1.804383E-01  1.815209E-01  1.826101E-01  1.837057E-01  1.848079E-01  1.859168E-01  1.870323E-01
  1.881545E-01  1.892834E-01  1.904191E-01  1.915616E-01  1.927110E-01  1.938673E-01  1.950305E-01  1.962007E-01
  1.973779E-01  1.985621E-01  1.997535E-01  2.009520E-01  2.021577E-01  2.033707E-01  2.045909E-01  2.058184E-01
  2.070534E-01  2.082957E-01  2.095455E-01  2.108027E-01  2.120675E-01  2.133399E-01  2.146200E-01  2.159077E-01
  2.172032E-01  2.185064E-01  2.198174E-01  2.211363E-01  2.224631E-01  2.237979E-01  2.251407E-01  2.264915E-01
  2.278505E-01  2.292176E-01  2.305929E-01  2.319765E-01  2.333683E-01  2.347685E-01  2.361771E-01  2.375942E-01
  2.390198E-01  2.404539E-01  2.418966E-01  2.433480E-01  2.448081E-01  2.462769E-01  2.477546E-01  2.492411E-01
  2.507366E-01  2.522410E-01  2.537544E-01  2.552769E-01  2.568086E-01  2.583495E-01  2.598996E-01  2.614590E-01
  2.630277E-01  2.646059E-01  2.661935E-01
   </PP_RAB>
 </PP_MESH>
  <PP_LOCAL type="real"  size="  2291" columns="4">
   -1.9495315968E+01   -1.9495315967E+01   -1.9495315966E+01   -1.9495315966E+01
   -1.9495315965E+01   -1.9495315964E+01   -1.9495315963E+01   -1.9495315962E+01
   -1.9495315961E+01   -1.9495315960E+01   -1.9495315959E+01   -1.9495315958E+01
   -1.9495315957E+01   -1.9495315956E+01   -1.9495315955E+01   -1.9495315953E+01
   -1.9495315952E+01   -1.9495315951E+01   -1.9495315950E+01   -1.9495315949E+01
   -1.9495315947E+01   -1.9495315946E+01   -1.9495315945E+01   -1.9495315943E+01
   -1.9495315942E+01   -1.9495315940E+01   -1.9495315939E+01   -1.9495315937E+01
   -1.9495315936E+01   -1.9495315934E+01   -1.9495315933E+01   -1.9495315931E+01
   -1.9495315930E+01   -1.9495315928E+01   -1.9495315926E+01   -1.9495315925E+01
   -1.9495315923E+01   -1.9495315921E+01   -1.9495315919E+01   -1.9495315917E+01
   -1.9495315916E+01   -1.9495315914E+01   -1.9495315912E+01   -1.9495315910E+01
   -1.9495315908E+01   -1.9495315906E+01   -1.9495315904E+01   -1.9495315902E+01
   -1.9495315900E+01   -1.9495315897E+01   -1.9495315895E+01   -1.9495315893E+01
   -1.9495315891E+01   -1.9495315888E+01   -1.9495315886E+01   -1.9495315884E+01
   -1.9495315881E+01   -1.9495315879E+01   -1.9495315876E+01   -1.9495315874E+01
   -1.9495315871E+01   -1.9495315869E+01   -1.9495315866E+01   -1.9495315863E+01
   -1.9495315861E+01   -1.9495315858E+01   -1.9495315855E+01   -1.9495315852E+01
   -1.9495315849E+01   -1.9495315846E+01   -1.9495315844E+01   -1.9495315841E+01
   -1.9495315837E+01   -1.9495315834E+01   -1.9495315831E+01   -1.9495315828E+01
   -1.9495315825E+01   -1.9495315822E+01   -1.9495315818E+01   -1.9495315815E+01
   -1.9495315811E+01   -1.9495315808E+01   -1.9495315805E+01   -1.9495315801E+01
   -1.9495315797E+01   -1.9495315794E+01   -1.9495315790E+01   -1.9495315786E+01
   -1.9495315782E+01   -1.9495315779E+01   -1.9495315775E+01   -1.9495315771E+01
   -1.9495315767E+01   -1.9495315763E+01   -1.9495315759E+01   -1.9495315754E+01
   -1.9495315750E+01   -1.9495315746E+01   -1.9495315742E+01   -1.9495315737E+01
   -1.9495315733E+01   -1.9495315728E+01   -1.9495315724E+01   -1.9495315719E+01
   -1.9495315714E+01   -1.9495315709E+01   -1.9495315705E+01   -1.9495315700E+01
   -1.9495315695E+01   -1.9495315690E+01   -1.9495315685E+01   -1.9495315679E+01
   -1.9495315674E+01   -1.9495315669E+01   -1.9495315664E+01   -1.9495315658E+01
   -1.9495315653E+01   -1.9495315647E+01   -1.9495315641E+01   -1.9495315636E+01
   -1.9495315630E+01   -1.9495315624E+01   -1.9495315618E+01   -1.9495315612E+01
   -1.9495315606E+01   -1.9495315600E+01   -1.9495315594E+01   -1.9495315587E+01
   -1.9495315581E+01   -1.9495315574E+01   -1.9495315568E+01   -1.9495315561E+01
   -1.9495315554E+01   -1.9495315547E+01   -1.9495315541E+01   -1.9495315534E+01
   -1.9495315526E+01   -1.9495315519E+01   -1.9495315512E+01   -1.9495315505E+01
   -1.9495315497E+01   -1.9495315490E+01   -1.9495315482E+01   -1.9495315474E+01
   -1.9495315466E+01   -1.9495315458E+01   -1.9495315450E+01   -1.9495315442E+01
   -1.9495315434E+01   -1.9495315425E+01   -1.9495315417E+01   -1.9495315408E+01
   -1.9495315400E+01   -1.9495315391E+01   -1.9495315382E+01   -1.9495315373E+01
   -1.9495315364E+01   -1.9495315355E+01   -1.9495315345E+01   -1.9495315336E+01
   -1.9495315326E+01   -1.9495315317E+01   -1.9495315307E+01   -1.9495315297E+01
   -1.9495315287E+01   -1.9495315277E+01   -1.9495315266E+01   -1.9495315256E+01
   -1.9495315245E+01   -1.9495315234E+01   -1.9495315224E+01   -1.9495315213E+01
   -1.9495315202E+01   -1.9495315190E+01   -1.9495315179E+01   -1.9495315167E+01
   -1.9495315156E+01   -1.9495315144E+01   -1.9495315132E+01   -1.9495315120E+01
   -1.9495315108E+01   -1.9495315095E+01   -1.9495315083E+01   -1.9495315070E+01
   -1.9495315057E+01   -1.9495315044E+01   -1.9495315031E+01   -1.9495315017E+01
   -1.9495315004E+01   -1.9495314990E+01   -1.9495314976E+01   -1.9495314962E+01
   -1.9495314948E+01   -1.9495314934E+01   -1.9495314919E+01   -1.9495314904E+01
   -1.9495314889E+01   -1.9495314874E+01   -1.9495314859E+01   -1.9495314844E+01
   -1.9495314828E+01   -1.9495314812E+01   -1.9495314796E+01   -1.9495314780E+01
   -1.9495314763E+01   -1.9495314747E+01   -1.9495314730E+01   -1.9495314713E+01
   -1.9495314696E+01   -1.9495314678E+01   -1.9495314661E+01   -1.9495314643E+01
   -1.9495314625E+01   -1.9495314606E+01   -1.9495314588E+01   -1.9495314569E+01
   -1.9495314550E+01   -1.9495314531E+01   -1.9495314511E+01   -1.9495314491E+01
   -1.9495314471E+01   -1.9495314451E+01   -1.9495314431E+01   -1.9495314410E+01
   -1.9495314389E+01   -1.9495314368E+01   -1.9495314347E+01   -1.9495314325E+01
   -1.9495314303E+01   -1.9495314281E+01   -1.9495314258E+01   -1.9495314235E+01
   -1.9495314212E+01   -1.9495314189E+01   -1.9495314165E+01   -1.9495314141E+01
   -1.9495314117E+01   -1.9495314093E+01   -1.9495314068E+01   -1.9495314043E+01
   -1.9495314017E+01   -1.9495313992E+01   -1.9495313966E+01   -1.9495313939E+01
   -1.9495313913E+01   -1.9495313886E+01   -1.9495313858E+01   -1.9495313831E+01
   -1.9495313803E+01   -1.9495313774E+01   -1.9495313746E+01   -1.9495313717E+01
   -1.9495313687E+01   -1.9495313658E+01   -1.9495313627E+01   -1.9495313597E+01
   -1.9495313566E+01   -1.9495313535E+01   -1.9495313503E+01   -1.9495313471E+01
   -1.9495313439E+01   -1.9495313406E+01   -1.9495313373E+01   -1.9495313340E+01
   -1.9495313306E+01   -1.9495313272E+01   -1.9495313237E+01   -1.9495313202E+01
   -1.9495313166E+01   -1.9495313130E+01   -1.9495313094E+01   -1.9495313057E+01
   -1.9495313019E+01   -1.9495312981E+01   -1.9495312943E+01   -1.9495312904E+01
   -1.9495312865E+01   -1.9495312826E+01   -1.9495312785E+01   -1.9495312745E+01
   -1.9495312704E+01   -1.9495312662E+01   -1.9495312620E+01   -1.9495312577E+01
   -1.9495312534E+01   -1.9495312491E+01   -1.9495312446E+01   -1.9495312402E+01
   -1.9495312356E+01   -1.9495312311E+01   -1.9495312264E+01   -1.9495312217E+01
   -1.9495312170E+01   -1.9495312122E+01   -1.9495312073E+01   -1.9495312024E+01
   -1.9495311974E+01   -1.9495311924E+01   -1.9495311873E+01   -1.9495311821E+01
   -1.9495311769E+01   -1.9495311716E+01   -1.9495311662E+01   -1.9495311608E+01
   -1.9495311553E+01   -1.9495311498E+01   -1.9495311441E+01   -1.9495311385E+01
   -1.9495311327E+01   -1.9495311269E+01   -1.9495311210E+01   -1.9495311150E+01
   -1.9495311090E+01   -1.9495311029E+01   -1.9495310967E+01   -1.9495310904E+01
   -1.9495310841E+01   -1.9495310777E+01   -1.9495310712E+01   -1.9495310646E+01
   -1.9495310580E+01   -1.9495310513E+01   -1.9495310445E+01   -1.9495310376E+01
   -1.9495310306E+01   -1.9495310235E+01   -1.9495310164E+01   -1.9495310092E+01
   -1.9495310019E+01   -1.9495309945E+01   -1.9495309870E+01   -1.9495309794E+01
   -1.9495309717E+01   -1.9495309640E+01   -1.9495309561E+01   -1.9495309481E+01
   -1.9495309401E+01   -1.9495309319E+01   -1.9495309237E+01   -1.9495309154E+01
   -1.9495309069E+01   -1.9495308984E+01   -1.9495308897E+01   -1.9495308810E+01
   -1.9495308721E+01   -1.9495308631E+01   -1.9495308541E+01   -1.9495308449E+01
   -1.9495308356E+01   -1.9495308262E+01   -1.9495308167E+01   -1.9495308070E+01
   -1.9495307973E+01   -1.9495307874E+01   -1.9495307774E+01   -1.9495307673E+01
   -1.9495307571E+01   -1.9495307467E+01   -1.9495307363E+01   -1.9495307257E+01
   -1.9495307149E+01   -1.9495307041E+01   -1.9495306931E+01   -1.9495306820E+01
   -1.9495306707E+01   -1.9495306593E+01   -1.9495306478E+01   -1.9495306361E+01
   -1.9495306243E+01   -1.9495306123E+01   -1.9495306003E+01   -1.9495305880E+01
   -1.9495305756E+01   -1.9495305631E+01   -1.9495305504E+01   -1.9495305376E+01
   -1.9495305246E+01   -1.9495305114E+01   -1.9495304981E+01   -1.9495304846E+01
   -1.9495304710E+01   -1.9495304572E+01   -1.9495304432E+01   -1.9495304291E+01
   -1.9495304148E+01   -1.9495304003E+01   -1.9495303857E+01   -1.9495303708E+01
   -1.9495303558E+01   -1.9495303407E+01   -1.9495303253E+01   -1.9495303097E+01
   -1.9495302940E+01   -1.9495302781E+01   -1.9495302619E+01   -1.9495302456E+01
   -1.9495302291E+01   -1.9495302124E+01   -1.9495301955E+01   -1.9495301784E+01
   -1.9495301611E+01   -1.9495301435E+01   -1.9495301258E+01   -1.9495301078E+01
   -1.9495300897E+01   -1.9495300713E+01   -1.9495300527E+01   -1.9495300338E+01
   -1.9495300148E+01   -1.9495299955E+01   -1.9495299759E+01   -1.9495299562E+01
   -1.9495299362E+01   -1.9495299160E+01   -1.9495298955E+01   -1.9495298747E+01
   -1.9495298538E+01   -1.9495298325E+01   -1.9495298110E+01   -1.9495297893E+01
   -1.9495297673E+01   -1.9495297450E+01   -1.9495297225E+01   -1.9495296997E+01
   -1.9495296766E+01   -1.9495296532E+01   -1.9495296296E+01   -1.9495296056E+01
   -1.9495295814E+01   -1.9495295569E+01   -1.9495295321E+01   -1.9495295070E+01
   -1.9495294816E+01   -1.9495294559E+01   -1.9495294299E+01   -1.9495294035E+01
   -1.9495293769E+01   -1.9495293499E+01   -1.9495293226E+01   -1.9495292950E+01
   -1.9495292670E+01   -1.9495292388E+01   -1.9495292101E+01   -1.9495291811E+01
   -1.9495291518E+01   -1.9495291221E+01   -1.9495290921E+01   -1.9495290617E+01
   -1.9495290309E+01   -1.9495289998E+01   -1.9495289683E+01   -1.9495289364E+01
   -1.9495289041E+01   -1.9495288714E+01   -1.9495288384E+01   -1.9495288049E+01
   -1.9495287711E+01   -1.9495287368E+01   -1.9495287021E+01   -1.9495286670E+01
   -1.9495286315E+01   -1.9495285956E+01   -1.9495285592E+01   -1.9495285224E+01
   -1.9495284851E+01   -1.9495284474E+01   -1.9495284093E+01   -1.9495283706E+01
   -1.9495283316E+01   -1.9495282920E+01   -1.9495282520E+01   -1.9495282115E+01
   -1.9495281705E+01   -1.9495281290E+01   -1.9495280870E+01   -1.9495280445E+01
   -1.9495280015E+01   -1.9495279579E+01   -1.9495279139E+01   -1.9495278693E+01
   -1.9495278242E+01   -1.9495277785E+01   -1.9495277323E+01   -1.9495276855E+01
   -1.9495276382E+01   -1.9495275903E+01   -1.9495275418E+01   -1.9495274927E+01
   -1.9495274431E+01   -1.9495273928E+01   -1.9495273420E+01   -1.9495272905E+01
   -1.9495272384E+01   -1.9495271857E+01   -1.9495271324E+01   -1.9495270784E+01
   -1.9495270237E+01   -1.9495269684E+01   -1.9495269125E+01   -1.9495268558E+01
   -1.9495267985E+01   -1.9495267405E+01   -1.9495266818E+01   -1.9495266224E+01
   -1.9495265623E+01   -1.9495265014E+01   -1.9495264398E+01   -1.9495263775E+01
   -1.9495263144E+01   -1.9495262506E+01   -1.9495261860E+01   -1.9495261206E+01
   -1.9495260544E+01   -1.9495259875E+01   -1.9495259197E+01   -1.9495258511E+01
   -1.9495257817E+01   -1.9495257114E+01   -1.9495256404E+01   -1.9495255684E+01
   -1.9495254956E+01   -1.9495254219E+01   -1.9495253473E+01   -1.9495252718E+01
   -1.9495251955E+01   -1.9495251181E+01   -1.9495250399E+01   -1.9495249607E+01
   -1.9495248806E+01   -1.9495247995E+01   -1.9495247174E+01   -1.9495246344E+01
   -1.9495245503E+01   -1.9495244653E+01   -1.9495243792E+01   -1.9495242920E+01
   -1.9495242039E+01   -1.9495241146E+01   -1.9495240243E+01   -1.9495239329E+01
   -1.9495238404E+01   -1.9495237468E+01   -1.9495236520E+01   -1.9495235562E+01
   -1.9495234591E+01   -1.9495233609E+01   -1.9495232615E+01   -1.9495231610E+01
   -1.9495230592E+01   -1.9495229561E+01   -1.9495228519E+01   -1.9495227464E+01
   -1.9495226396E+01   -1.9495225315E+01   -1.9495224222E+01   -1.9495223115E+01
   -1.9495221994E+01   -1.9495220861E+01   -1.9495219714E+01   -1.9495218552E+01
   -1.9495217377E+01   -1.9495216188E+01   -1.9495214985E+01   -1.9495213767E+01
   -1.9495212534E+01   -1.9495211286E+01   -1.9495210024E+01   -1.9495208746E+01
   -1.9495207453E+01   -1.9495206144E+01   -1.9495204820E+01   -1.9495203479E+01
   -1.9495202123E+01   -1.9495200750E+01   -1.9495199361E+01   -1.9495197955E+01
   -1.9495196532E+01   -1.9495195091E+01   -1.9495193634E+01   -1.9495192159E+01
   -1.9495190666E+01   -1.9495189156E+01   -1.9495187627E+01   -1.9495186079E+01
   -1.9495184513E+01   -1.9495182929E+01   -1.9495181325E+01   -1.9495179702E+01
   -1.9495178059E+01   -1.9495176396E+01   -1.9495174714E+01   -1.9495173011E+01
   -1.9495171288E+01   -1.9495169544E+01   -1.9495167779E+01   -1.9495165993E+01
   -1.9495164185E+01   -1.9495162356E+01   -1.9495160504E+01   -1.9495158630E+01
   -1.9495156734E+01   -1.9495154815E+01   -1.9495152873E+01   -1.9495150907E+01
   -1.9495148918E+01   -1.9495146905E+01   -1.9495144867E+01   -1.9495142805E+01
   -1.9495140718E+01   -1.9495138607E+01   -1.9495136469E+01   -1.9495134306E+01
   -1.9495132117E+01   -1.9495129902E+01   -1.9495127660E+01   -1.9495125390E+01
   -1.9495123094E+01   -1.9495120770E+01   -1.9495118418E+01   -1.9495116038E+01
   -1.9495113629E+01   -1.9495111191E+01   -1.9495108724E+01   -1.9495106227E+01
   -1.9495103699E+01   -1.9495101142E+01   -1.9495098554E+01   -1.9495095934E+01
   -1.9495093283E+01   -1.9495090601E+01   -1.9495087886E+01   -1.9495085138E+01
   -1.9495082357E+01   -1.9495079543E+01   -1.9495076694E+01   -1.9495073812E+01
   -1.9495070895E+01   -1.9495067942E+01   -1.9495064955E+01   -1.9495061931E+01
   -1.9495058871E+01   -1.9495055774E+01   -1.9495052639E+01   -1.9495049467E+01
   -1.9495046257E+01   -1.9495043008E+01   -1.9495039720E+01   -1.9495036393E+01
   -1.9495033025E+01   -1.9495029617E+01   -1.9495026168E+01   -1.9495022677E+01
   -1.9495019145E+01   -1.9495015570E+01   -1.9495011951E+01   -1.9495008290E+01
   -1.9495004584E+01   -1.9495000833E+01   -1.9494997038E+01   -1.9494993197E+01
   -1.9494989309E+01   -1.9494985375E+01   -1.9494981393E+01   -1.9494977364E+01
   -1.9494973286E+01   -1.9494969159E+01   -1.9494964982E+01   -1.9494960755E+01
   -1.9494956477E+01   -1.9494952148E+01   -1.9494947766E+01   -1.9494943332E+01
   -1.9494938844E+01   -1.9494934303E+01   -1.9494929706E+01   -1.9494925055E+01
   -1.9494920347E+01   -1.9494915583E+01   -1.9494910761E+01   -1.9494905882E+01
   -1.9494900943E+01   -1.9494895946E+01   -1.9494890888E+01   -1.9494885769E+01
   -1.9494880588E+01   -1.9494875346E+01   -1.9494870040E+01   -1.9494864670E+01
   -1.9494859236E+01   -1.9494853736E+01   -1.9494848170E+01   -1.9494842537E+01
   -1.9494836836E+01   -1.9494831067E+01   -1.9494825228E+01   -1.9494819319E+01
   -1.9494813339E+01   -1.9494807287E+01   -1.9494801162E+01   -1.9494794963E+01
   -1.9494788689E+01   -1.9494782341E+01   -1.9494775915E+01   -1.9494769413E+01
   -1.9494762832E+01   -1.9494756172E+01   -1.9494749432E+01   -1.9494742610E+01
   -1.9494735707E+01   -1.9494728720E+01   -1.9494721650E+01   -1.9494714494E+01
   -1.9494707252E+01   -1.9494699923E+01   -1.9494692506E+01   -1.9494685000E+01
   -1.9494677403E+01   -1.9494669715E+01   -1.9494661934E+01   -1.9494654060E+01
   -1.9494646090E+01   -1.9494638025E+01   -1.9494629863E+01   -1.9494621603E+01
   -1.9494613243E+01   -1.9494604782E+01   -1.9494596220E+01   -1.9494587555E+01
   -1.9494578785E+01   -1.9494569910E+01   -1.9494560928E+01   -1.9494551838E+01
   -1.9494542639E+01   -1.9494533329E+01   -1.9494523906E+01   -1.9494514371E+01
   -1.9494504720E+01   -1.9494494954E+01   -1.9494485070E+01   -1.9494475067E+01
   -1.9494464943E+01   -1.9494454698E+01   -1.9494444329E+01   -1.9494433836E+01
   -1.9494423216E+01   -1.9494412469E+01   -1.9494401592E+01   -1.9494390584E+01
   -1.9494379444E+01   -1.9494368170E+01   -1.9494356760E+01   -1.9494345213E+01
   -1.9494333526E+01   -1.9494321700E+01   -1.9494309730E+01   -1.9494297617E+01
   -1.9494285358E+01   -1.9494272951E+01   -1.9494260395E+01   -1.9494247688E+01
   -1.9494234828E+01   -1.9494221814E+01   -1.9494208642E+01   -1.9494195312E+01
   -1.9494181822E+01   -1.9494168169E+01   -1.9494154352E+01   -1.9494140369E+01
   -1.9494126218E+01   -1.9494111896E+01   -1.9494097401E+01   -1.9494082733E+01
   -1.9494067888E+01   -1.9494052864E+01   -1.9494037659E+01   -1.9494022271E+01
   -1.9494006698E+01   -1.9493990938E+01   -1.9493974988E+01   -1.9493958846E+01
   -1.9493942510E+01   -1.9493925977E+01   -1.9493909246E+01   -1.9493892313E+01
   -1.9493875176E+01   -1.9493857832E+01   -1.9493840281E+01   -1.9493822518E+01
   -1.9493804541E+01   -1.9493786347E+01   -1.9493767935E+01   -1.9493749302E+01
   -1.9493730444E+01   -1.9493711359E+01   -1.9493692044E+01   -1.9493672497E+01
   -1.9493652715E+01   -1.9493632694E+01   -1.9493612433E+01   -1.9493591928E+01
   -1.9493571176E+01   -1.9493550174E+01   -1.9493528920E+01   -1.9493507409E+01
   -1.9493485640E+01   -1.9493463609E+01   -1.9493441313E+01   -1.9493418749E+01
   -1.9493395913E+01   -1.9493372802E+01   -1.9493349413E+01   -1.9493325742E+01
   -1.9493301787E+01   -1.9493277543E+01   -1.9493253008E+01   -1.9493228177E+01
   -1.9493203048E+01   -1.9493177616E+01   -1.9493151878E+01   -1.9493125830E+01
   -1.9493099469E+01   -1.9493072791E+01   -1.9493045792E+01   -1.9493018467E+01
   -1.9492990814E+01   -1.9492962828E+01   -1.9492934506E+01   -1.9492905842E+01
   -1.9492876834E+01   -1.9492847476E+01   -1.9492817765E+01   -1.9492787697E+01
   -1.9492757267E+01   -1.9492726470E+01   -1.9492695303E+01   -1.9492663761E+01
   -1.9492631840E+01   -1.9492599534E+01   -1.9492566839E+01   -1.9492533751E+01
   -1.9492500265E+01   -1.9492466376E+01   -1.9492432079E+01   -1.9492397370E+01
   -1.9492362242E+01   -1.9492326692E+01   -1.9492290715E+01   -1.9492254304E+01
   -1.9492217455E+01   -1.9492180163E+01   -1.9492142422E+01   -1.9492104226E+01
   -1.9492065572E+01   -1.9492026452E+01   -1.9491986861E+01   -1.9491946794E+01
   -1.9491906245E+01   -1.9491865208E+01   -1.9491823677E+01   -1.9491781646E+01
   -1.9491739110E+01   -1.9491696061E+01   -1.9491652495E+01   -1.9491608404E+01
   -1.9491563783E+01   -1.9491518625E+01   -1.9491472924E+01   -1.9491426673E+01
   -1.9491379865E+01   -1.9491332494E+01   -1.9491284553E+01   -1.9491236035E+01
   -1.9491186933E+01   -1.9491137241E+01   -1.9491086950E+01   -1.9491036055E+01
   -1.9490984547E+01   -1.9490932419E+01   -1.9490879664E+01   -1.9490826275E+01
   -1.9490772243E+01   -1.9490717561E+01   -1.9490662220E+01   -1.9490606214E+01
   -1.9490549535E+01   -1.9490492173E+01   -1.9490434121E+01   -1.9490375370E+01
   -1.9490315913E+01   -1.9490255740E+01   -1.9490194844E+01   -1.9490133214E+01
   -1.9490070843E+01   -1.9490007722E+01   -1.9489943841E+01   -1.9489879192E+01
   -1.9489813765E+01   -1.9489747550E+01   -1.9489680539E+01   -1.9489612722E+01
   -1.9489544089E+01   -1.9489474630E+01   -1.9489404336E+01   -1.9489333195E+01
   -1.9489261199E+01   -1.9489188337E+01   -1.9489114598E+01   -1.9489039972E+01
   -1.9488964448E+01   -1.9488888016E+01   -1.9488810664E+01   -1.9488732381E+01
   -1.9488653157E+01   -1.9488572979E+01   -1.9488491837E+01   -1.9488409719E+01
   -1.9488326613E+01   -1.9488242507E+01   -1.9488157390E+01   -1.9488071248E+01
   -1.9487984070E+01   -1.9487895844E+01   -1.9487806556E+01   -1.9487716194E+01
   -1.9487624745E+01   -1.9487532195E+01   -1.9487438533E+01   -1.9487343744E+01
   -1.9487247814E+01   -1.9487150731E+01   -1.9487052480E+01   -1.9486953047E+01
   -1.9486852417E+01   -1.9486750578E+01   -1.9486647513E+01   -1.9486543209E+01
   -1.9486437650E+01   -1.9486330821E+01   -1.9486222708E+01   -1.9486113293E+01
   -1.9486002563E+01   -1.9485890501E+01   -1.9485777091E+01   -1.9485662317E+01
   -1.9485546163E+01   -1.9485428611E+01   -1.9485309646E+01   -1.9485189249E+01
   -1.9485067405E+01   -1.9484944095E+01   -1.9484819302E+01   -1.9484693008E+01
   -1.9484565196E+01   -1.9484435846E+01   -1.9484304940E+01   -1.9484172460E+01
   -1.9484038387E+01   -1.9483902701E+01   -1.9483765383E+01   -1.9483626414E+01
   -1.9483485774E+01   -1.9483343443E+01   -1.9483199399E+01   -1.9483053624E+01
   -1.9482906095E+01   -1.9482756793E+01   -1.9482605695E+01   -1.9482452780E+01
   -1.9482298026E+01   -1.9482141411E+01   -1.9481982913E+01   -1.9481822509E+01
   -1.9481660176E+01   -1.9481495891E+01   -1.9481329631E+01   -1.9481161372E+01
   -1.9480991089E+01   -1.9480818759E+01   -1.9480644357E+01   -1.9480467858E+01
   -1.9480289237E+01   -1.9480108468E+01   -1.9479925526E+01   -1.9479740385E+01
   -1.9479553017E+01   -1.9479363397E+01   -1.9479171497E+01   -1.9478977290E+01
   -1.9478780748E+01   -1.9478581843E+01   -1.9478380547E+01   -1.9478176831E+01
   -1.9477970667E+01   -1.9477762023E+01   -1.9477550872E+01   -1.9477337182E+01
   -1.9477120924E+01   -1.9476902066E+01   -1.9476680577E+01   -1.9476456426E+01
   -1.9476229581E+01   -1.9476000009E+01   -1.9475767677E+01   -1.9475532553E+01
   -1.9475294603E+01   -1.9475053793E+01   -1.9474810089E+01   -1.9474563456E+01
   -1.9474313858E+01   -1.9474061261E+01   -1.9473805628E+01   -1.9473546923E+01
   -1.9473285109E+01   -1.9473020149E+01   -1.9472752004E+01   -1.9472480637E+01
   -1.9472206010E+01   -1.9471928082E+01   -1.9471646814E+01   -1.9471362167E+01
   -1.9471074100E+01   -1.9470782571E+01   -1.9470487539E+01   -1.9470188963E+01
   -1.9469886799E+01   -1.9469581005E+01   -1.9469271537E+01   -1.9468958351E+01
   -1.9468641402E+01   -1.9468320646E+01   -1.9467996036E+01   -1.9467667527E+01
   -1.9467335072E+01   -1.9466998623E+01   -1.9466658132E+01   -1.9466313552E+01
   -1.9465964833E+01   -1.9465611925E+01   -1.9465254778E+01   -1.9464893342E+01
   -1.9464527565E+01   -1.9464157395E+01   -1.9463782779E+01   -1.9463403664E+01
   -1.9463019996E+01   -1.9462631721E+01   -1.9462238784E+01   -1.9461841128E+01
   -1.9461438697E+01   -1.9461031434E+01   -1.9460619280E+01   -1.9460202178E+01
   -1.9459780069E+01   -1.9459352891E+01   -1.9458920585E+01   -1.9458483089E+01
   -1.9458040340E+01   -1.9457592277E+01   -1.9457138835E+01   -1.9456679950E+01
   -1.9456215557E+01   -1.9455745590E+01   -1.9455269982E+01   -1.9454788665E+01
   -1.9454301572E+01   -1.9453808633E+01   -1.9453309778E+01   -1.9452804937E+01
   -1.9452294037E+01   -1.9451777007E+01   -1.9451253773E+01   -1.9450724260E+01
   -1.9450188394E+01   -1.9449646099E+01   -1.9449097298E+01   -1.9448541913E+01
   -1.9447979865E+01   -1.9447411075E+01   -1.9446835461E+01   -1.9446252943E+01
   -1.9445663438E+01   -1.9445066863E+01   -1.9444463132E+01   -1.9443852161E+01
   -1.9443233862E+01   -1.9442608149E+01   -1.9441974933E+01   -1.9441334123E+01
   -1.9440685630E+01   -1.9440029362E+01   -1.9439365225E+01   -1.9438693126E+01
   -1.9438012970E+01   -1.9437324660E+01   -1.9436628100E+01   -1.9435923190E+01
   -1.9435209831E+01   -1.9434487922E+01   -1.9433757362E+01   -1.9433018046E+01
   -1.9432269871E+01   -1.9431512730E+01   -1.9430746517E+01   -1.9429971124E+01
   -1.9429186441E+01   -1.9428392357E+01   -1.9427588761E+01   -1.9426775538E+01
   -1.9425952574E+01   -1.9425119754E+01   -1.9424276958E+01   -1.9423424070E+01
   -1.9422560967E+01   -1.9421687529E+01   -1.9420803633E+01   -1.9419909154E+01
   -1.9419003966E+01   -1.9418087941E+01   -1.9417160950E+01   -1.9416222864E+01
   -1.9415273549E+01   -1.9414312872E+01   -1.9413340698E+01   -1.9412356891E+01
   -1.9411361311E+01   -1.9410353818E+01   -1.9409334272E+01   -1.9408302528E+01
   -1.9407258443E+01   -1.9406201868E+01   -1.9405132655E+01   -1.9404050655E+01
   -1.9402955715E+01   -1.9401847682E+01   -1.9400726400E+01   -1.9399591711E+01
   -1.9398443457E+01   -1.9397281477E+01   -1.9396105607E+01   -1.9394915683E+01
   -1.9393711537E+01   -1.9392493002E+01   -1.9391259906E+01   -1.9390012077E+01
   -1.9388749340E+01   -1.9387471518E+01   -1.9386178433E+01   -1.9384869903E+01
   -1.9383545745E+01   -1.9382205775E+01   -1.9380849805E+01   -1.9379477646E+01
   -1.9378089105E+01   -1.9376683989E+01   -1.9375262102E+01   -1.9373823246E+01
   -1.9372367218E+01   -1.9370893817E+01   -1.9369402837E+01   -1.9367894070E+01
   -1.9366367306E+01   -1.9364822332E+01   -1.9363258933E+01   -1.9361676891E+01
   -1.9360075986E+01   -1.9358455995E+01   -1.9356816694E+01   -1.9355157853E+01
   -1.9353479243E+01   -1.9351780630E+01   -1.9350061779E+01   -1.9348322450E+01
   -1.9346562403E+01   -1.9344781393E+01   -1.9342979173E+01   -1.9341155494E+01
   -1.9339310102E+01   -1.9337442742E+01   -1.9335553156E+01   -1.9333641081E+01
   -1.9331706254E+01   -1.9329748407E+01   -1.9327767269E+01   -1.9325762567E+01
   -1.9323734023E+01   -1.9321681358E+01   -1.9319604288E+01   -1.9317502527E+01
   -1.9315375785E+01   -1.9313223769E+01   -1.9311046182E+01   -1.9308842725E+01
   -1.9306613095E+01   -1.9304356984E+01   -1.9302074083E+01   -1.9299764078E+01
   -1.9297426651E+01   -1.9295061483E+01   -1.9292668248E+01   -1.9290246617E+01
   -1.9287796260E+01   -1.9285316841E+01   -1.9282808019E+01   -1.9280269452E+01
   -1.9277700793E+01   -1.9275101690E+01   -1.9272471788E+01   -1.9269810729E+01
   -1.9267118148E+01   -1.9264393680E+01   -1.9261636952E+01   -1.9258847590E+01
   -1.9256025212E+01   -1.9253169436E+01   -1.9250279873E+01   -1.9247356131E+01
   -1.9244397812E+01   -1.9241404515E+01   -1.9238375833E+01   -1.9235311358E+01
   -1.9232210673E+01   -1.9229073359E+01   -1.9225898991E+01   -1.9222687141E+01
   -1.9219437374E+01   -1.9216149253E+01   -1.9212822333E+01   -1.9209456166E+01
   -1.9206050300E+01   -1.9202604275E+01   -1.9199117628E+01   -1.9195589891E+01
   -1.9192020590E+01   -1.9188409246E+01   -1.9184755375E+01   -1.9181058488E+01
   -1.9177318090E+01   -1.9173533681E+01   -1.9169704755E+01   -1.9165830802E+01
   -1.9161911303E+01   -1.9157945738E+01   -1.9153933578E+01   -1.9149874289E+01
   -1.9145767332E+01   -1.9141612161E+01   -1.9137408226E+01   -1.9133154968E+01
   -1.9128851826E+01   -1.9124498229E+01   -1.9120093603E+01   -1.9115637365E+01
   -1.9111128928E+01   -1.9106567699E+01   -1.9101953076E+01   -1.9097284453E+01
   -1.9092561216E+01   -1.9087782747E+01   -1.9082948417E+01   -1.9078057596E+01
   -1.9073109643E+01   -1.9068103911E+01   -1.9063039748E+01   -1.9057916493E+01
   -1.9052733480E+01   -1.9047490035E+01   -1.9042185476E+01   -1.9036819115E+01
   -1.9031390257E+01   -1.9025898201E+01   -1.9020342235E+01   -1.9014721643E+01
   -1.9009035700E+01   -1.9003283675E+01   -1.8997464828E+01   -1.8991578411E+01
   -1.8985623670E+01   -1.8979599843E+01   -1.8973506159E+01   -1.8967341840E+01
   -1.8961106101E+01   -1.8954798147E+01   -1.8948417176E+01   -1.8941962379E+01
   -1.8935432937E+01   -1.8928828024E+01   -1.8922146806E+01   -1.8915388439E+01
   -1.8908552072E+01   -1.8901636846E+01   -1.8894641892E+01   -1.8887566333E+01
   -1.8880409285E+01   -1.8873169853E+01   -1.8865847134E+01   -1.8858440216E+01
   -1.8850948180E+01   -1.8843370095E+01   -1.8835705024E+01   -1.8827952020E+01
   -1.8820110124E+01   -1.8812178373E+01   -1.8804155791E+01   -1.8796041395E+01
   -1.8787834190E+01   -1.8779533174E+01   -1.8771137336E+01   -1.8762645653E+01
   -1.8754057095E+01   -1.8745370620E+01   -1.8736585179E+01   -1.8727699711E+01
   -1.8718713148E+01   -1.8709624408E+01   -1.8700432404E+01   -1.8691136037E+01
   -1.8681734196E+01   -1.8672225763E+01   -1.8662609609E+01   -1.8652884596E+01
   -1.8643049574E+01   -1.8633103383E+01   -1.8623044855E+01   -1.8612872811E+01
   -1.8602586059E+01   -1.8592183401E+01   -1.8581663626E+01   -1.8571025514E+01
   -1.8560267833E+01   -1.8549389342E+01   -1.8538388789E+01   -1.8527264913E+01
   -1.8516016441E+01   -1.8504642089E+01   -1.8493140564E+01   -1.8481510562E+01
   -1.8469750768E+01   -1.8457859857E+01   -1.8445836495E+01   -1.8433679333E+01
   -1.8421387017E+01   -1.8408958178E+01   -1.8396391438E+01   -1.8383685410E+01
   -1.8370838694E+01   -1.8357849881E+01   -1.8344717551E+01   -1.8331440274E+01
   -1.8318016608E+01   -1.8304445103E+01   -1.8290724296E+01   -1.8276852716E+01
   -1.8262828880E+01   -1.8248651294E+01   -1.8234318457E+01   -1.8219828853E+01
   -1.8205180961E+01   -1.8190373245E+01   -1.8175404162E+01   -1.8160272158E+01
   -1.8144975670E+01   -1.8129513123E+01   -1.8113882935E+01   -1.8098083511E+01
   -1.8082113248E+01   -1.8065970535E+01   -1.8049653749E+01   -1.8033161258E+01
   -1.8016491423E+01   -1.7999642593E+01   -1.7982613110E+01   -1.7965401305E+01
   -1.7948005503E+01   -1.7930424017E+01   -1.7912655155E+01   -1.7894697215E+01
   -1.7876548485E+01   -1.7858207249E+01   -1.7839671780E+01   -1.7820940343E+01
   -1.7802011198E+01   -1.7782882597E+01   -1.7763552783E+01   -1.7744019994E+01
   -1.7724282461E+01   -1.7704338407E+01   -1.7684186052E+01   -1.7663823606E+01
   -1.7643249277E+01   -1.7622461266E+01   -1.7601457767E+01   -1.7580236973E+01
   -1.7558797069E+01   -1.7537136237E+01   -1.7515252655E+01   -1.7493144497E+01
   -1.7470809935E+01   -1.7448247136E+01   -1.7425454265E+01   -1.7402429485E+01
   -1.7379170958E+01   -1.7355676844E+01   -1.7331945300E+01   -1.7307974484E+01
   -1.7283762555E+01   -1.7259307670E+01   -1.7234607988E+01   -1.7209661668E+01
   -1.7184466871E+01   -1.7159021761E+01   -1.7133324504E+01   -1.7107373269E+01
   -1.7081166229E+01   -1.7054701560E+01   -1.7027977446E+01   -1.7000992074E+01
   -1.6973743636E+01   -1.6946230334E+01   -1.6918450374E+01   -1.6890401973E+01
   -1.6862083353E+01   -1.6833492750E+01   -1.6804628406E+01   -1.6775488576E+01
   -1.6746071525E+01   -1.6716375533E+01   -1.6686398890E+01   -1.6656139902E+01
   -1.6625596889E+01   -1.6594768187E+01   -1.6563652147E+01   -1.6532247141E+01
   -1.6500551555E+01   -1.6468563797E+01   -1.6436282295E+01   -1.6403705498E+01
   -1.6370831875E+01   -1.6337659923E+01   -1.6304188158E+01   -1.6270415125E+01
   -1.6236339395E+01   -1.6201959565E+01   -1.6167274263E+01   -1.6132282145E+01
   -1.6096981899E+01   -1.6061372247E+01   -1.6025451941E+01   -1.5989219772E+01
   -1.5952674564E+01   -1.5915815180E+01   -1.5878640524E+01   -1.5841149536E+01
   -1.5803341201E+01   -1.5765214547E+01   -1.5726768646E+01   -1.5688002617E+01
   -1.5648915625E+01   -1.5609506886E+01   -1.5569775668E+01   -1.5529721289E+01
   -1.5489343122E+01   -1.5448640597E+01   -1.5407613202E+01   -1.5366260482E+01
   -1.5324582046E+01   -1.5282577563E+01   -1.5240246770E+01   -1.5197589468E+01
   -1.5154605527E+01   -1.5111294890E+01   -1.5067657570E+01   -1.5023693654E+01
   -1.4979403307E+01   -1.4934786773E+01   -1.4889844373E+01   -1.4844576515E+01
   -1.4798983690E+01   -1.4753066474E+01   -1.4706825535E+01   -1.4660261630E+01
   -1.4613375612E+01   -1.4566168427E+01   -1.4518641121E+01   -1.4470794838E+01
   -1.4422630828E+01   -1.4374150443E+01   -1.4325355143E+01   -1.4276246499E+01
   -1.4226826192E+01   -1.4177096019E+01   -1.4127057893E+01   -1.4076713845E+01
   -1.4026066032E+01   -1.3975116730E+01   -1.3923868344E+01   -1.3872323409E+01
   -1.3820484589E+01   -1.3768354684E+01   -1.3715936629E+01   -1.3663233498E+01
   -1.3610248507E+01   -1.3556985015E+01   -1.3503446526E+01   -1.3449636694E+01
   -1.3395559322E+01   -1.3341218368E+01   -1.3286617944E+01   -1.3231762319E+01
   -1.3176655922E+01   -1.3121303346E+01   -1.3065709343E+01   -1.3009878837E+01
   -1.2953816915E+01   -1.2897528836E+01   -1.2841020030E+01   -1.2784296102E+01
   -1.2727362830E+01   -1.2670226168E+01   -1.2612892251E+01   -1.2555367390E+01
   -1.2497658078E+01   -1.2439770989E+01   -1.2381712981E+01   -1.2323491091E+01
   -1.2265112545E+01   -1.2206584749E+01   -1.2147915295E+01   -1.2089111958E+01
   -1.2030182699E+01   -1.1971135661E+01   -1.1911979169E+01   -1.1852721732E+01
   -1.1793372039E+01   -1.1733938956E+01   -1.1674431528E+01   -1.1614858975E+01
   -1.1555230689E+01   -1.1495556231E+01   -1.1435845328E+01   -1.1376107870E+01
   -1.1316353905E+01   -1.1256593633E+01   -1.1196837404E+01   -1.1137095710E+01
   -1.1077379179E+01   -1.1017698569E+01   -1.0958064759E+01   -1.0898488743E+01
   -1.0838981620E+01   -1.0779554584E+01   -1.0720218916E+01   -1.0660985970E+01
   -1.0601867162E+01   -1.0542873960E+01   -1.0484017867E+01   -1.0425310407E+01
   -1.0366763112E+01   -1.0308387501E+01   -1.0250195065E+01   -1.0192197249E+01
   -1.0134405429E+01   -1.0076830891E+01   -1.0019484812E+01   -9.9623782293E+00
   -9.9055220207E+00   -9.8489268738E+00   -9.7926032586E+00   -9.7365613965E+00
   -9.6808112282E+00   -9.6253623794E+00   -9.5702241250E+00   -9.5154053510E+00
   -9.4609145142E+00   -9.4067596004E+00   -9.3529480795E+00   -9.2994868587E+00
   -9.2463822336E+00   -9.1936398356E+00   -9.1412645783E+00   -9.0892605995E+00
   -9.0376312019E+00   -8.9863787894E+00   -8.9355048017E+00   -8.8850096446E+00
   -8.8348926179E+00   -8.7851518883E+00   -8.7357849581E+00   -8.6867891739E+00
   -8.6381617665E+00   -8.5898998448E+00   -8.5420003884E+00   -8.4944602408E+00
   -8.4472761030E+00   -8.4004445268E+00   -8.3539619083E+00   -8.3078244825E+00
   -8.2620283169E+00   -8.2165693072E+00   -8.1714431718E+00   -8.1266454482E+00
   -8.0821714894E+00   -8.0380164612E+00   -7.9941753405E+00   -7.9506429141E+00
   -7.9074137791E+00   -7.8644823438E+00   -7.8218428299E+00   -7.7794892764E+00
   -7.7374155442E+00   -7.6956153225E+00   -7.6540821362E+00   -7.6128093553E+00
   -7.5717902058E+00   -7.5310177816E+00   -7.4904850584E+00   -7.4501849093E+00
   -7.4101101219E+00   -7.3702534165E+00   -7.3306074668E+00   -7.2911649206E+00
   -7.2519184234E+00   -7.2128606422E+00   -7.1739842909E+00   -7.1352821566E+00
   -7.0967471269E+00   -7.0583722175E+00   -7.0201506007E+00   -6.9820756343E+00
   -6.9441408898E+00   -6.9063401816E+00   -6.8686675947E+00   -6.8311175125E+00
   -6.7936846433E+00   -6.7563640462E+00   -6.7191511547E+00   -6.6820417993E+00
   -6.6450322284E+00   -6.6081191265E+00   -6.5712996300E+00   -6.5345713416E+00
   -6.4979323401E+00   -6.4613811893E+00   -6.4249169421E+00   -6.3885391429E+00
   -6.3522478258E+00   -6.3160435099E+00   -6.2799271916E+00   -6.2439003330E+00
   -6.2079648476E+00   -6.1721230826E+00   -6.1363777984E+00   -6.1007321449E+00
   -6.0651896356E+00   -6.0297541185E+00   -5.9944297454E+00   -5.9592209389E+00
   -5.9241323578E+00   -5.8891688610E+00   -5.8543354704E+00   -5.8196373326E+00
   -5.7850796812E+00   -5.7506677975E+00   -5.7164069730E+00   -5.6823024711E+00
   -5.6483594906E+00   -5.6145831301E+00   -5.5809783538E+00   -5.5475499595E+00
   -5.5143025478E+00   -5.4812404949E+00   -5.4483679265E+00   -5.4156886956E+00
   -5.3832063627E+00   -5.3509241786E+00   -5.3188450713E+00   -5.2869716353E+00
   -5.2553061245E+00   -5.2238504485E+00   -5.1926061721E+00   -5.1615745180E+00
   -5.1307563730E+00   -5.1001522971E+00   -5.0697625360E+00   -5.0395870364E+00
   -5.0096254639E+00   -4.9798772242E+00   -4.9503414865E+00   -4.9210172087E+00
   -4.8919031658E+00   -4.8629979792E+00   -4.8343001479E+00   -4.8058080814E+00
   -4.7775201325E+00   -4.7494346317E+00   -4.7215499212E+00   -4.6938643881E+00
   -4.6663764973E+00   -4.6390848221E+00   -4.6119880728E+00   -4.5850851220E+00
   -4.5583750251E+00   -4.5318570364E+00   -4.5055306183E+00   -4.4793954427E+00
   -4.4534513838E+00   -4.4276985007E+00   -4.4021370072E+00   -4.3767672304E+00
   -4.3515895530E+00   -4.3266043414E+00   -4.3018118579E+00   -4.2772121554E+00
   -4.2528049567E+00   -4.2285895187E+00   -4.2045644823E+00   -4.1807277126E+00
   -4.1570761324E+00   -4.1336055544E+00   -4.1103105206E+00   -4.0871841553E+00
   -4.0642180439E+00   -4.0414021494E+00   -4.0187247783E+00   -3.9961726133E+00
   -3.9737308272E+00   -3.9513832943E+00   -3.9291129164E+00   -3.9069020778E+00
   -3.8847332414E+00   -3.8625896862E+00   -3.8404564087E+00   -3.8183212314E+00
   -3.7961760048E+00   -3.7740178365E+00   -3.7518504960E+00   -3.7296857826E+00
   -3.7075446061E+00   -3.6854604737E+00   -3.6634796695E+00   -3.6416319948E+00
   -3.6199144582E+00   -3.5983263678E+00   -3.5768669073E+00   -3.5555352510E+00
   -3.5343305689E+00   -3.5132520365E+00   -3.4922988363E+00   -3.4714701613E+00
   -3.4507652194E+00   -3.4301832372E+00   -3.4097234645E+00   -3.3893851774E+00
   -3.3691676806E+00   -3.3490703081E+00   -3.3290924221E+00   -3.3092334089E+00
   -3.2894926741E+00   -3.2698696347E+00   -3.2503637114E+00   -3.2309743198E+00
   -3.2117008632E+00   -3.1925427272E+00   -3.1734992762E+00   -3.1545698526E+00
   -3.1357537788E+00   -3.1170503604E+00   -3.0984588911E+00   -3.0799786574E+00
   -3.0616089437E+00   -3.0433490367E+00   -3.0251982286E+00   -3.0071558199E+00
   -2.9892211203E+00   -2.9713934502E+00   -2.9536721403E+00   -2.9360565316E+00
   -2.9185459746E+00   -2.9011398288E+00   -2.8838374616E+00   -2.8666382475E+00
   -2.8495415679E+00   -2.8325468095E+00   -2.8156533648E+00   -2.7988606306E+00
   -2.7821680085E+00   -2.7655749039E+00   -2.7490807262E+00   -2.7326848884E+00
   -2.7163868069E+00   -2.7001859018E+00   -2.6840815962E+00   -2.6680733168E+00
   -2.6521604931E+00   -2.6363425583E+00   -2.6206189483E+00   -2.6049891026E+00
   -2.5894524636E+00   -2.5740084769E+00   -2.5586565913E+00   -2.5433962587E+00
   -2.5282269342E+00   -2.5131480758E+00   -2.4981591450E+00   -2.4832596061E+00
   -2.4684489266E+00   -2.4537265772E+00   -2.4390920316E+00   -2.4245447666E+00
   -2.4100842620E+00   -2.3957100008E+00   -2.3814214688E+00   -2.3672181551E+00
   -2.3530995516E+00   -2.3390651533E+00   -2.3251144583E+00   -2.3112469674E+00
   -2.2974621845E+00   -2.2837596165E+00   -2.2701387732E+00   -2.2565991672E+00
   -2.2431403140E+00   -2.2297617322E+00   -2.2164629430E+00   -2.2032434705E+00
   -2.1901028418E+00   -2.1770405867E+00   -2.1640562376E+00   -2.1511493300E+00
   -2.1383194021E+00   -2.1255659947E+00   -2.1128886515E+00   -2.1002869187E+00
   -2.0877603454E+00   -2.0753084834E+00   -2.0629308871E+00   -2.0506271134E+00
   -2.0383967222E+00   -2.0262392758E+00   -2.0141543390E+00   -2.0021414794E+00
   -1.9902002671E+00   -1.9783302747E+00   -1.9665310776E+00   -1.9548022535E+00
   -1.9431433825E+00   -1.9315540476E+00   -1.9200338339E+00   -1.9085823292E+00
   -1.8971991237E+00   -1.8858838100E+00   -1.8746359833E+00   -1.8634552410E+00
   -1.8523411829E+00   -1.8412934114E+00   -1.8303115312E+00   -1.8193951491E+00
   -1.8085438746E+00   -1.7977573194E+00   -1.7870350975E+00   -1.7763768251E+00
   -1.7657821209E+00   -1.7552506057E+00   -1.7447819027E+00   -1.7343756372E+00
   -1.7240314369E+00   -1.7137489316E+00   -1.7035277533E+00   -1.6933675363E+00
   -1.6832679169E+00   -1.6732285339E+00   -1.6632490279E+00   -1.6533290419E+00
   -1.6434682208E+00   -1.6336662118E+00   -1.6239226641E+00   -1.6142372291E+00
   -1.6046095602E+00   -1.5950393129E+00   -1.5855261447E+00   -1.5760697153E+00
   -1.5666696861E+00   -1.5573257209E+00   -1.5480374852E+00   -1.5388046468E+00
   -1.5296268753E+00   -1.5205038421E+00   -1.5114352209E+00   -1.5024206872E+00
   -1.4934599183E+00   -1.4845525937E+00   -1.4756983945E+00   -1.4668970040E+00
   -1.4581481073E+00   -1.4494513911E+00   -1.4408065444E+00   -1.4322132577E+00
   -1.4236712236E+00   -1.4151801364E+00   -1.4067396922E+00   -1.3983495890E+00
   -1.3900095266E+00   -1.3817192065E+00   -1.3734783320E+00   -1.3652866083E+00
   -1.3571437422E+00   -1.3490494422E+00   -1.3410034188E+00   -1.3330053839E+00
   -1.3250550515E+00   -1.3171521368E+00   -1.3092963573E+00   -1.3014874316E+00
   -1.2937250804E+00   -1.2860090259E+00   -1.2783389919E+00   -1.2707147039E+00
   -1.2631358892E+00   -1.2556022764E+00   -1.2481135959E+00   -1.2406695799E+00
   -1.2332699618E+00   -1.2259144768E+00   -1.2186028618E+00   -1.2113348551E+00
   -1.2041101964E+00   -1.1969286275E+00   -1.1897898910E+00   -1.1826937317E+00
   -1.1756398956E+00   -1.1686281301E+00   -1.1616581845E+00   -1.1547298092E+00
   -1.1478427564E+00   -1.1409967795E+00   -1.1341916335E+00   -1.1274270749E+00
   -1.1207028617E+00   -1.1140187531E+00   -1.1073745101E+00   -1.1007698947E+00
   -1.0942046706E+00   -1.0876786030E+00   -1.0811914582E+00   -1.0747430041E+00
   -1.0683330100E+00   -1.0619612463E+00   -1.0556274852E+00   -1.0493315000E+00
   -1.0430730652E+00   -1.0368519571E+00   -1.0306679529E+00   -1.0245208313E+00
   -1.0184103724E+00   -1.0123363575E+00   -1.0062985692E+00   -1.0002967915E+00
   -9.9433080951E-01   -9.8840040984E-01   -9.8250538022E-01   -9.7664550970E-01
   -9.7082058858E-01   -9.6503040842E-01   -9.5927476199E-01   -9.5355344335E-01
   -9.4786624774E-01   -9.4221297166E-01   -9.3659341279E-01   -9.3100737003E-01
   -9.2545464350E-01   -9.1993503448E-01   -9.1444834546E-01   -9.0899438010E-01
   -9.0357294321E-01   -8.9818384081E-01   -8.9282688004E-01   -8.8750186920E-01
   -8.8220861774E-01   -8.7694693625E-01   -8.7171663643E-01   -8.6651753112E-01
   -8.6134943427E-01   -8.5621216095E-01   -8.5110552733E-01   -8.4602935066E-01
   -8.4098344929E-01   -8.3596764267E-01   -8.3098175131E-01   -8.2602559819E-01
   -8.2109898055E-01   -8.1620181384E-01   -8.1133378399E-01   -8.0649481556E-01
   -8.0168470608E-01   -7.9690328507E-01   -7.9215038143E-01   -7.8742582508E-01
   -7.8272944696E-01   -7.7806107901E-01   -7.7342055418E-01   -7.6880770642E-01
   -7.6422237066E-01   -7.5966438281E-01   -7.5513357978E-01   -7.5062979944E-01
   -7.4615288061E-01   -7.4170266311E-01   -7.3727898767E-01   -7.3288169600E-01
   -7.2851063075E-01   -7.2416563551E-01   -7.1984655478E-01   -7.1555323402E-01
   -7.1128551959E-01   -7.0704325876E-01   -7.0282629974E-01   -6.9863449162E-01
   -6.9446768439E-01   -6.9032572896E-01   -6.8620847709E-01   -6.8211578145E-01
   -6.7804749559E-01   -6.7400347393E-01   -6.6998357174E-01   -6.6598764517E-01
   -6.6201555123E-01   -6.5806714777E-01   -6.5414229351E-01   -6.5024084798E-01
   -6.4636267157E-01   -6.4250762551E-01   -6.3867557183E-01   -6.3486637340E-01
   -6.3107989391E-01   -6.2731599786E-01   -6.2357455055E-01   -6.1985541810E-01
   -6.1615846740E-01   -6.1248356617E-01   -6.0883058288E-01   -6.0519938683E-01
   -6.0158984806E-01   -5.9800183741E-01   -5.9443522646E-01   -5.9088988759E-01
   -5.8736569393E-01   -5.8386251936E-01   -5.8038023851E-01   -5.7691872677E-01
   -5.7347786026E-01   -5.7005751585E-01   -5.6665757115E-01   -5.6327790447E-01
   -5.5991839488E-01   -5.5657892215E-01   -5.5325936678E-01   -5.4995960997E-01
   -5.4667953364E-01   -5.4341902041E-01   -5.4017795359E-01   -5.3695621722E-01
   -5.3375369598E-01   -5.3057027528E-01   -5.2740584120E-01   -5.2426028049E-01
   -5.2113348059E-01   -5.1802532960E-01   -5.1493571630E-01   -5.1186453012E-01
   -5.0881166115E-01   -5.0577700016E-01   -5.0276043854E-01   -4.9976186834E-01
   -4.9678118225E-01   -4.9381827361E-01   -4.9087303640E-01   -4.8794536521E-01
   -4.8503515527E-01   -4.8214230245E-01   -4.7926670322E-01   -4.7640825467E-01
   -4.7356685451E-01   -4.7074240107E-01   -4.6793479327E-01   -4.6514393063E-01
   -4.6236971329E-01   -4.5961204197E-01   -4.5687081798E-01   -4.5414594323E-01
   -4.5143732020E-01   -4.4874485198E-01   -4.4606844220E-01   -4.4340799509E-01
   -4.4076341545E-01   -4.3813460863E-01   -4.3552148058E-01   -4.3292393776E-01
   -4.3034188724E-01   -4.2777523660E-01   -4.2522389401E-01   -4.2268776817E-01
   -4.2016676830E-01   -4.1766080421E-01   -4.1516978621E-01   -4.1269362517E-01
   -4.1023223247E-01   -4.0778552003E-01   -4.0535340029E-01   -4.0293578623E-01
   -4.0053259132E-01   -3.9814372957E-01   -3.9576911549E-01   -3.9340866410E-01
   -3.9106229095E-01   -3.8872991205E-01   -3.8641144394E-01   -3.8410680367E-01
   -3.8181590875E-01   -3.7953867721E-01   -3.7727502756E-01   -3.7502487879E-01
   -3.7278815037E-01   -3.7056476227E-01   -3.6835463493E-01   -3.6615768924E-01
   -3.6397384660E-01   -3.6180302886E-01   -3.5964515833E-01   -3.5750015779E-01
   -3.5536795048E-01   -3.5324846010E-01   -3.5114161081E-01   -3.4904732722E-01
   -3.4696553436E-01   -3.4489615776E-01   -3.4283912336E-01   -3.4079435754E-01
   -3.3876178713E-01   -3.3674133940E-01   -3.3473294205E-01   -3.3273652320E-01
   -3.3075201141E-01   -3.2877933567E-01   -3.2681842538E-01   -3.2486921038E-01
   -3.2293162090E-01   -3.2100558762E-01   -3.1909104160E-01   -3.1718791434E-01
   -3.1529613773E-01   -3.1341564408E-01   -3.1154636609E-01   -3.0968823687E-01
   -3.0784118992E-01   -3.0600515915E-01   -3.0418007886E-01   -3.0236588373E-01
   -3.0056250884E-01   -2.9876988967E-01   -2.9698796205E-01   -2.9521666223E-01
   -2.9345592681E-01   -2.9170569280E-01   -2.8996589755E-01   -2.8823647881E-01
   -2.8651737469E-01   -2.8480852367E-01   -2.8310986460E-01   -2.8142133669E-01
   -2.7974287952E-01   -2.7807443303E-01   -2.7641593750E-01   -2.7476733360E-01
   -2.7312856232E-01   -2.7149956502E-01   -2.6988028340E-01   -2.6827065953E-01
   -2.6667063580E-01   -2.6508015494E-01   -2.6349916006E-01   -2.6192759456E-01
   -2.6036540222E-01   -2.5881252712E-01   -2.5726891370E-01   -2.5573450672E-01
   -2.5420925127E-01   -2.5269309277E-01   -2.5118597696E-01   -2.4968784991E-01
   -2.4819865801E-01   -2.4671834797E-01   -2.4524686681E-01   -2.4378416189E-01
   -2.4233018084E-01   -2.4088487165E-01   -2.3944818259E-01   -2.3802006226E-01
   -2.3660045953E-01   -2.3518932362E-01   -2.3378660403E-01   -2.3239225056E-01
   -2.3100621331E-01   -2.2962844268E-01   -2.2825888937E-01   -2.2689750436E-01
   -2.2554423895E-01   -2.2419904471E-01   -2.2286187349E-01   -2.2153267745E-01
   -2.2021140901E-01   -2.1889802090E-01   -2.1759246612E-01   -2.1629469795E-01
   -2.1500466995E-01   -2.1372233595E-01   -2.1244765006E-01   -2.1118056668E-01
   -2.0992104045E-01   -2.0866902630E-01   -2.0742447944E-01   -2.0618735532E-01
   -2.0495760967E-01   -2.0373519849E-01   -2.0252007803E-01   -2.0131220481E-01
   -2.0011153560E-01   -1.9891802745E-01   -1.9773163763E-01   -1.9655232369E-01
   -1.9538004344E-01   -1.9421475492E-01   -1.9305641642E-01   -1.9190498651E-01
   -1.9076042397E-01   -1.8962268785E-01   -1.8849173743E-01   -1.8736753224E-01
   -1.8625003205E-01   -1.8513919688E-01   -1.8403498696E-01   -1.8293736279E-01
   -1.8184628508E-01   -1.8076171479E-01   -1.7968361312E-01   -1.7861194147E-01
   -1.7754666151E-01   -1.7648773510E-01   -1.7543512435E-01   -1.7438879161E-01
   -1.7334869941E-01   -1.7231481055E-01   -1.7128708802E-01   -1.7026549506E-01
   -1.6924999509E-01   -1.6824055178E-01   -1.6723712901E-01   -1.6623969086E-01
   -1.6524820165E-01   -1.6426262590E-01   -1.6328292833E-01   -1.6230907389E-01
   -1.6134102772E-01   -1.6037875519E-01   -1.5942222186E-01   -1.5847139350E-01
   -1.5752623609E-01   -1.5658671579E-01   -1.5565279900E-01   -1.5472445229E-01
   -1.5380164244E-01   -1.5288433642E-01   -1.5197250141E-01   -1.5106610478E-01
   -1.5016511410E-01   -1.4926949711E-01   -1.4837922178E-01   -1.4749425625E-01
   -1.4661456883E-01   -1.4574012807E-01   -1.4487090265E-01   -1.4400686148E-01
   -1.4314797364E-01   -1.4229420839E-01   -1.4144553518E-01   -1.4060192364E-01
   -1.3976334357E-01   -1.3892976498E-01   -1.3810115804E-01   -1.3727749308E-01
   -1.3645874063E-01   -1.3564487141E-01   -1.3483585627E-01
  </PP_LOCAL>
 <PP_NONLOCAL>
   <PP_BETA.1
       type="real"
       size="  2291"
       columns="4"
       index="1"
       angular_momentum="0"
       cutoff_radius_index="  1742"
       cutoff_radius="    1.6674562108E+00" >
    1.2253414004E-04    1.2326934494E-04    1.2400896106E-04    1.2475301488E-04
    1.2550153302E-04    1.2625454227E-04    1.2701206958E-04    1.2777414206E-04
    1.2854078697E-04    1.2931203175E-04    1.3008790400E-04    1.3086843149E-04
    1.3165364214E-04    1.3244356405E-04    1.3323822550E-04    1.3403765492E-04
    1.3484188092E-04    1.3565093227E-04    1.3646483793E-04    1.3728362703E-04
    1.3810732887E-04    1.3893597291E-04    1.3976958883E-04    1.4060820644E-04
    1.4145185575E-04    1.4230056696E-04    1.4315437045E-04    1.4401329675E-04
    1.4487737661E-04    1.4574664096E-04    1.4662112089E-04    1.4750084770E-04
    1.4838585288E-04    1.4927616809E-04    1.5017182519E-04    1.5107285623E-04
    1.5197929347E-04    1.5289116933E-04    1.5380851644E-04    1.5473136764E-04
    1.5565975595E-04    1.5659371459E-04    1.5753327699E-04    1.5847847676E-04
    1.5942934773E-04    1.6038592393E-04    1.6134823959E-04    1.6231632914E-04
    1.6329022723E-04    1.6426996872E-04    1.6525558865E-04    1.6624712231E-04
    1.6724460517E-04    1.6824807294E-04    1.6925756151E-04    1.7027310701E-04
    1.7129474579E-04    1.7232251440E-04    1.7335644963E-04    1.7439658848E-04
    1.7544296815E-04    1.7649562611E-04    1.7755460002E-04    1.7861992778E-04
    1.7969164751E-04    1.8076979755E-04    1.8185441650E-04    1.8294554317E-04
    1.8404321660E-04    1.8514747607E-04    1.8625836110E-04    1.8737591145E-04
    1.8850016710E-04    1.8963116829E-04    1.9076895549E-04    1.9191356942E-04
    1.9306505103E-04    1.9422344154E-04    1.9538878239E-04    1.9656111529E-04
    1.9774048220E-04    1.9892692530E-04    2.0012048708E-04    2.0132121022E-04
    2.0252913771E-04    2.0374431277E-04    2.0496677888E-04    2.0619657979E-04
    2.0743375952E-04    2.0867836232E-04    2.0993043275E-04    2.1119001560E-04
    2.1245715596E-04    2.1373189916E-04    2.1501429083E-04    2.1630437685E-04
    2.1760220339E-04    2.1890781690E-04    2.2022126409E-04    2.2154259198E-04
    2.2287184783E-04    2.2420907923E-04    2.2555433401E-04    2.2690766034E-04
    2.2826910663E-04    2.2963872160E-04    2.3101655426E-04    2.3240265393E-04
    2.3379707021E-04    2.3519985298E-04    2.3661105246E-04    2.3803071915E-04
    2.3945890384E-04    2.4089565764E-04    2.4234103198E-04    2.4379507857E-04
    2.4525784944E-04    2.4672939695E-04    2.4820977375E-04    2.4969903282E-04
    2.5119722745E-04    2.5270441125E-04    2.5422063817E-04    2.5574596246E-04
    2.5728043870E-04    2.5882412180E-04    2.6037706702E-04    2.6193932991E-04
    2.6351096639E-04    2.6509203270E-04    2.6668258541E-04    2.6828268145E-04
    2.6989237808E-04    2.7151173290E-04    2.7314080385E-04    2.7477964924E-04
    2.7642832771E-04    2.7808689827E-04    2.7975542026E-04    2.8143395339E-04
    2.8312255773E-04    2.8482129371E-04    2.8653022211E-04    2.8824940410E-04
    2.8997890119E-04    2.9171877528E-04    2.9346908862E-04    2.9522990386E-04
    2.9700128400E-04    2.9878329243E-04    3.0057599293E-04    3.0237944964E-04
    3.0419372711E-04    3.0601889026E-04    3.0785500440E-04    3.0970213524E-04
    3.1156034887E-04    3.1342971181E-04    3.1531029094E-04    3.1720215356E-04
    3.1910536737E-04    3.2102000048E-04    3.2294612140E-04    3.2488379907E-04
    3.2683310282E-04    3.2879410240E-04    3.3076686801E-04    3.3275147022E-04
    3.3474798007E-04    3.3675646900E-04    3.3877700887E-04    3.4080967201E-04
    3.4285453115E-04    3.4491165945E-04    3.4698113055E-04    3.4906301850E-04
    3.5115739780E-04    3.5326434339E-04    3.5538393068E-04    3.5751623551E-04
    3.5966133420E-04    3.6181930350E-04    3.6399022064E-04    3.6617416330E-04
    3.6837120965E-04    3.7058143830E-04    3.7280492835E-04    3.7504175936E-04
    3.7729201139E-04    3.7955576495E-04    3.8183310106E-04    3.8412410122E-04
    3.8642884740E-04    3.8874742210E-04    3.9107990826E-04    3.9342638938E-04
    3.9578694941E-04    3.9816167283E-04    4.0055064463E-04    4.0295395029E-04
    4.0537167581E-04    4.0780390772E-04    4.1025073306E-04    4.1271223938E-04
    4.1518851477E-04    4.1767964785E-04    4.2018572777E-04    4.2270684420E-04
    4.2524308737E-04    4.2779454804E-04    4.3036131750E-04    4.3294348763E-04
    4.3554115081E-04    4.3815440002E-04    4.4078332876E-04    4.4342803112E-04
    4.4608860173E-04    4.4876513582E-04    4.5145772915E-04    4.5416647809E-04
    4.5689147956E-04    4.5963283110E-04    4.6239063079E-04    4.6516497733E-04
    4.6795596999E-04    4.7076370867E-04    4.7358829382E-04    4.7642982654E-04
    4.7928840851E-04    4.8216414203E-04    4.8505713001E-04    4.8796747596E-04
    4.9089528406E-04    4.9384065905E-04    4.9680370636E-04    4.9978453201E-04
    5.0278324268E-04    5.0579994568E-04    5.0883474896E-04    5.1188776112E-04
    5.1495909142E-04    5.1804884977E-04    5.2115714674E-04    5.2428409357E-04
    5.2742980214E-04    5.3059438504E-04    5.3377795551E-04    5.3698062748E-04
    5.4020251555E-04    5.4344373504E-04    5.4670440192E-04    5.4998463288E-04
    5.5328454531E-04    5.5660425730E-04    5.5994388764E-04    5.6330355586E-04
    5.6668338217E-04    5.7008348753E-04    5.7350399362E-04    5.7694502283E-04
    5.8040669832E-04    5.8388914395E-04    5.8739248436E-04    5.9091684491E-04
    5.9446235172E-04    5.9802913168E-04    6.0161731243E-04    6.0522702237E-04
    6.0885839068E-04    6.1251154730E-04    6.1618662299E-04    6.1988374924E-04
    6.2360305837E-04    6.2734468347E-04    6.3110875845E-04    6.3489541800E-04
    6.3870479764E-04    6.4253703368E-04    6.4639226327E-04    6.5027062437E-04
    6.5417225577E-04    6.5809729710E-04    6.6204588882E-04    6.6601817223E-04
    6.7001428949E-04    6.7403438361E-04    6.7807859844E-04    6.8214707871E-04
    6.8623997002E-04    6.9035741884E-04    6.9449957252E-04    6.9866657928E-04
    7.0285858825E-04    7.0707574945E-04    7.1131821379E-04    7.1558613310E-04
    7.1987966010E-04    7.2419894845E-04    7.2854415272E-04    7.3291542840E-04
    7.3731293194E-04    7.4173682069E-04    7.4618725298E-04    7.5066438807E-04
    7.5516838617E-04    7.5969940848E-04    7.6425761715E-04    7.6884317528E-04
    7.7345624699E-04    7.7809699735E-04    7.8276559246E-04    7.8746219937E-04
    7.9218698616E-04    7.9694012192E-04    8.0172177675E-04    8.0653212176E-04
    8.1137132910E-04    8.1623957195E-04    8.2113702453E-04    8.2606386209E-04
    8.3102026096E-04    8.3600639851E-04    8.4102245317E-04    8.4606860446E-04
    8.5114503295E-04    8.5625192032E-04    8.6138944932E-04    8.6655780382E-04
    8.7175716876E-04    8.7698773022E-04    8.8224967539E-04    8.8754319256E-04
    8.9286847119E-04    8.9822570184E-04    9.0361507623E-04    9.0903678723E-04
    9.1449102887E-04    9.1997799634E-04    9.2549788601E-04    9.3105089540E-04
    9.3663722324E-04    9.4225706947E-04    9.4791063518E-04    9.5359812271E-04
    9.5931973559E-04    9.6507567859E-04    9.7086615770E-04    9.7669138013E-04
    9.8255155435E-04    9.8844689009E-04    9.9437759833E-04    1.0003438913E-03
    1.0063459825E-03    1.0123840868E-03    1.0184584202E-03    1.0245692002E-03
    1.0307166453E-03    1.0369009757E-03    1.0431224126E-03    1.0493811787E-03
    1.0556774979E-03    1.0620115957E-03    1.0683836986E-03    1.0747940347E-03
    1.0812428335E-03    1.0877303257E-03    1.0942567435E-03    1.1008223205E-03
    1.1074272915E-03    1.1140718931E-03    1.1207563630E-03    1.1274809403E-03
    1.1342458659E-03    1.1410513817E-03    1.1478977314E-03    1.1547851599E-03
    1.1617139137E-03    1.1686842409E-03    1.1756963908E-03    1.1827506144E-03
    1.1898471641E-03    1.1969862940E-03    1.2041682596E-03    1.2113933177E-03
    1.2186617272E-03    1.2259737479E-03    1.2333296417E-03    1.2407296718E-03
    1.2481741030E-03    1.2556632018E-03    1.2631972361E-03    1.2707764757E-03
    1.2784011917E-03    1.2860716570E-03    1.2937881462E-03    1.3015509354E-03
    1.3093603024E-03    1.3172165267E-03    1.3251198895E-03    1.3330706737E-03
    1.3410691637E-03    1.3491156458E-03    1.3572104081E-03    1.3653537401E-03
    1.3735459335E-03    1.3817872812E-03    1.3900780784E-03    1.3984186217E-03
    1.4068092095E-03    1.4152501423E-03    1.4237417221E-03    1.4322842528E-03
    1.4408780402E-03    1.4495233917E-03    1.4582206169E-03    1.4669700269E-03
    1.4757719350E-03    1.4846266561E-03    1.4935345072E-03    1.5024958070E-03
    1.5115108763E-03    1.5205800377E-03    1.5297036158E-03    1.5388819372E-03
    1.5481153303E-03    1.5574041256E-03    1.5667486556E-03    1.5761492546E-03
    1.5856062592E-03    1.5951200077E-03    1.6046908408E-03    1.6143191009E-03
    1.6240051327E-03    1.6337492827E-03    1.6435518999E-03    1.6534133349E-03
    1.6633339408E-03    1.6733140726E-03    1.6833540875E-03    1.6934543448E-03
    1.7036152061E-03    1.7138370351E-03    1.7241201974E-03    1.7344650614E-03
    1.7448719970E-03    1.7553413769E-03    1.7658735758E-03    1.7764689706E-03
    1.7871279406E-03    1.7978508671E-03    1.8086381342E-03    1.8194901277E-03
    1.8304072362E-03    1.8413898504E-03    1.8524383634E-03    1.8635531706E-03
    1.8747346698E-03    1.8859832613E-03    1.8972993477E-03    1.9086833340E-03
    1.9201356276E-03    1.9316566385E-03    1.9432467791E-03    1.9549064641E-03
    1.9666361109E-03    1.9784361394E-03    1.9903069719E-03    2.0022490332E-03
    2.0142627510E-03    2.0263485550E-03    2.0385068781E-03    2.0507381552E-03
    2.0630428243E-03    2.0754213258E-03    2.0878741027E-03    2.1004016007E-03
    2.1130042684E-03    2.1256825567E-03    2.1384369195E-03    2.1512678133E-03
    2.1641756974E-03    2.1771610339E-03    2.1902242875E-03    2.2033659258E-03
    2.2165864192E-03    2.2298862410E-03    2.2432658672E-03    2.2567257767E-03
    2.2702664514E-03    2.2838883760E-03    2.2975920380E-03    2.3113779279E-03
    2.3252465394E-03    2.3391983687E-03    2.3532339153E-03    2.3673536817E-03
    2.3815581732E-03    2.3958478984E-03    2.4102233688E-03    2.4246850989E-03
    2.4392336064E-03    2.4538694122E-03    2.4685930401E-03    2.4834050173E-03
    2.4983058739E-03    2.5132961433E-03    2.5283763622E-03    2.5435470705E-03
    2.5588088111E-03    2.5741621305E-03    2.5896075783E-03    2.6051457074E-03
    2.6207770739E-03    2.6365022376E-03    2.6523217614E-03    2.6682362115E-03
    2.6842461578E-03    2.7003521733E-03    2.7165548346E-03    2.7328547218E-03
    2.7492524185E-03    2.7657485117E-03    2.7823435918E-03    2.7990382532E-03
    2.8158330933E-03    2.8327287136E-03    2.8497257188E-03    2.8668247176E-03
    2.8840263219E-03    2.9013311478E-03    2.9187398148E-03    2.9362529461E-03
    2.9538711687E-03    2.9715951133E-03    2.9894254147E-03    3.0073627111E-03
    3.0254076447E-03    3.0435608617E-03    3.0618230119E-03    3.0801947493E-03
    3.0986767315E-03    3.1172696204E-03    3.1359740816E-03    3.1547907848E-03
    3.1737204038E-03    3.1927636164E-03    3.2119211043E-03    3.2311935536E-03
    3.2505816543E-03    3.2700861006E-03    3.2897075909E-03    3.3094468278E-03
    3.3293045181E-03    3.3492813727E-03    3.3693781071E-03    3.3895954409E-03
    3.4099340979E-03    3.4303948065E-03    3.4509782994E-03    3.4716853136E-03
    3.4925165906E-03    3.5134728763E-03    3.5345549212E-03    3.5557634803E-03
    3.5770993130E-03    3.5985631834E-03    3.6201558600E-03    3.6418781162E-03
    3.6637307299E-03    3.6857144836E-03    3.7078301646E-03    3.7300785650E-03
    3.7524604815E-03    3.7749767156E-03    3.7976280738E-03    3.8204153672E-03
    3.8433394120E-03    3.8664010292E-03    3.8896010447E-03    3.9129402895E-03
    3.9364195994E-03    3.9600398154E-03    3.9838017834E-03    4.0077063545E-03
    4.0317543850E-03    4.0559467360E-03    4.0802842743E-03    4.1047678714E-03
    4.1293984043E-03    4.1541767553E-03    4.1791038119E-03    4.2041804670E-03
    4.2294076188E-03    4.2547861710E-03    4.2803170327E-03    4.3060011183E-03
    4.3318393480E-03    4.3578326474E-03    4.3839819475E-03    4.4102881851E-03
    4.4367523027E-03    4.4633752482E-03    4.4901579754E-03    4.5171014438E-03
    4.5442066186E-03    4.5714744710E-03    4.5989059778E-03    4.6265021218E-03
    4.6542638917E-03    4.6821922821E-03    4.7102882937E-03    4.7385529331E-03
    4.7669872131E-03    4.7955921524E-03    4.8243687759E-03    4.8533181148E-03
    4.8824412063E-03    4.9117390940E-03    4.9412128277E-03    4.9708634635E-03
    5.0006920640E-03    5.0306996980E-03    5.0608874408E-03    5.0912563743E-03
    5.1218075868E-03    5.1525421730E-03    5.1834612345E-03    5.2145658793E-03
    5.2458572222E-03    5.2773363847E-03    5.3090044948E-03    5.3408626878E-03
    5.3729121053E-03    5.4051538962E-03    5.4375892160E-03    5.4702192273E-03
    5.5030450997E-03    5.5360680099E-03    5.5692891415E-03    5.6027096855E-03
    5.6363308398E-03    5.6701538097E-03    5.7041798077E-03    5.7384100535E-03
    5.7728457744E-03    5.8074882049E-03    5.8423385869E-03    5.8773981700E-03
    5.9126682111E-03    5.9481499748E-03    5.9838447332E-03    6.0197537663E-03
    6.0558783616E-03    6.0922198144E-03    6.1287794279E-03    6.1655585130E-03
    6.2025583887E-03    6.2397803818E-03    6.2772258272E-03    6.3148960676E-03
    6.3527924542E-03    6.3909163461E-03    6.4292691105E-03    6.4678521231E-03
    6.5066667677E-03    6.5457144365E-03    6.5849965303E-03    6.6245144579E-03
    6.6642696370E-03    6.7042634938E-03    6.7444974628E-03    6.7849729876E-03
    6.8256915201E-03    6.8666545213E-03    6.9078634607E-03    6.9493198170E-03
    6.9910250776E-03    7.0329807388E-03    7.0751883063E-03    7.1176492944E-03
    7.1603652271E-03    7.2033376370E-03    7.2465680664E-03    7.2900580668E-03
    7.3338091989E-03    7.3778230332E-03    7.4221011492E-03    7.4666451363E-03
    7.5114565933E-03    7.5565371289E-03    7.6018883614E-03    7.6475119186E-03
    7.6934094386E-03    7.7395825691E-03    7.7860329679E-03    7.8327623027E-03
    7.8797722514E-03    7.9270645019E-03    7.9746407525E-03    8.0225027116E-03
    8.0706520980E-03    8.1190906410E-03    8.1678200801E-03    8.2168421655E-03
    8.2661586581E-03    8.3157713291E-03    8.3656819608E-03    8.4158923460E-03
    8.4664042886E-03    8.5172196031E-03    8.5683401154E-03    8.6197676620E-03
    8.6715040909E-03    8.7235512611E-03    8.7759110429E-03    8.8285853178E-03
    8.8815759789E-03    8.9348849307E-03    8.9885140892E-03    9.0424653820E-03
    9.0967407485E-03    9.1513421397E-03    9.2062715185E-03    9.2615308597E-03
    9.3171221501E-03    9.3730473884E-03    9.4293085857E-03    9.4859077650E-03
    9.5428469617E-03    9.6001282236E-03    9.6577536109E-03    9.7157251962E-03
    9.7740450648E-03    9.8327153146E-03    9.8917380564E-03    9.9511154134E-03
    1.0010849522E-02    1.0070942532E-02    1.0131396605E-02    1.0192213917E-02
    1.0253396657E-02    1.0314947027E-02    1.0376867242E-02    1.0439159530E-02
    1.0501826136E-02    1.0564869314E-02    1.0628291334E-02    1.0692094481E-02
    1.0756281051E-02    1.0820853356E-02    1.0885813722E-02    1.0951164488E-02
    1.1016908008E-02    1.1083046651E-02    1.1149582799E-02    1.1216518850E-02
    1.1283857215E-02    1.1351600321E-02    1.1419750608E-02    1.1488310535E-02
    1.1557282570E-02    1.1626669202E-02    1.1696472930E-02    1.1766696273E-02
    1.1837341761E-02    1.1908411942E-02    1.1979909380E-02    1.2051836652E-02
    1.2124196354E-02    1.2196991095E-02    1.2270223502E-02    1.2343896217E-02
    1.2418011899E-02    1.2492573221E-02    1.2567582875E-02    1.2643043569E-02
    1.2718958026E-02    1.2795328988E-02    1.2872159210E-02    1.2949451469E-02
    1.3027208555E-02    1.3105433276E-02    1.3184128459E-02    1.3263296945E-02
    1.3342941596E-02    1.3423065289E-02    1.3503670920E-02    1.3584761402E-02
    1.3666339666E-02    1.3748408662E-02    1.3830971356E-02    1.3914030733E-02
    1.3997589799E-02    1.4081651574E-02    1.4166219101E-02    1.4251295437E-02
    1.4336883662E-02    1.4422986873E-02    1.4509608185E-02    1.4596750735E-02
    1.4684417678E-02    1.4772612186E-02    1.4861337455E-02    1.4950596697E-02
    1.5040393146E-02    1.5130730054E-02    1.5221610696E-02    1.5313038364E-02
    1.5405016372E-02    1.5497548054E-02    1.5590636765E-02    1.5684285880E-02
    1.5778498796E-02    1.5873278930E-02    1.5968629721E-02    1.6064554627E-02
    1.6161057130E-02    1.6258140734E-02    1.6355808961E-02    1.6454065359E-02
    1.6552913495E-02    1.6652356960E-02    1.6752399366E-02    1.6853044348E-02
    1.6954295563E-02    1.7056156692E-02    1.7158631438E-02    1.7261723526E-02
    1.7365436707E-02    1.7469774752E-02    1.7574741457E-02    1.7680340642E-02
    1.7786576151E-02    1.7893451850E-02    1.8000971631E-02    1.8109139410E-02
    1.8217959127E-02    1.8327434746E-02    1.8437570257E-02    1.8548369674E-02
    1.8659837037E-02    1.8771976410E-02    1.8884791883E-02    1.8998287572E-02
    1.9112467618E-02    1.9227336189E-02    1.9342897478E-02    1.9459155705E-02
    1.9576115116E-02    1.9693779984E-02    1.9812154609E-02    1.9931243317E-02
    2.0051050462E-02    2.0171580426E-02    2.0292837617E-02    2.0414826472E-02
    2.0537551455E-02    2.0661017059E-02    2.0785227805E-02    2.0910188243E-02
    2.1035902951E-02    2.1162376535E-02    2.1289613633E-02    2.1417618909E-02
    2.1546397059E-02    2.1675952808E-02    2.1806290910E-02    2.1937416151E-02
    2.2069333345E-02    2.2202047338E-02    2.2335563007E-02    2.2469885260E-02
    2.2605019035E-02    2.2740969302E-02    2.2877741064E-02    2.3015339354E-02
    2.3153769237E-02    2.3293035813E-02    2.3433144211E-02    2.3574099595E-02
    2.3715907162E-02    2.3858572141E-02    2.4002099796E-02    2.4146495423E-02
    2.4291764353E-02    2.4437911952E-02    2.4584943619E-02    2.4732864788E-02
    2.4881680929E-02    2.5031397546E-02    2.5182020178E-02    2.5333554402E-02
    2.5486005829E-02    2.5639380107E-02    2.5793682920E-02    2.5948919989E-02
    2.6105097072E-02    2.6262219964E-02    2.6420294499E-02    2.6579326548E-02
    2.6739322019E-02    2.6900286859E-02    2.7062227056E-02    2.7225148633E-02
    2.7389057655E-02    2.7553960226E-02    2.7719862490E-02    2.7886770630E-02
    2.8054690871E-02    2.8223629479E-02    2.8393592758E-02    2.8564587057E-02
    2.8736618766E-02    2.8909694314E-02    2.9083820176E-02    2.9259002868E-02
    2.9435248949E-02    2.9612565022E-02    2.9790957732E-02    2.9970433769E-02
    3.0150999869E-02    3.0332662809E-02    3.0515429414E-02    3.0699306553E-02
    3.0884301140E-02    3.1070420138E-02    3.1257670552E-02    3.1446059438E-02
    3.1635593896E-02    3.1826281075E-02    3.2018128171E-02    3.2211142430E-02
    3.2405331145E-02    3.2600701657E-02    3.2797261360E-02    3.2995017693E-02
    3.3193978150E-02    3.3394150272E-02    3.3595541652E-02    3.3798159935E-02
    3.4002012818E-02    3.4207108048E-02    3.4413453429E-02    3.4621056812E-02
    3.4829926108E-02    3.5040069276E-02    3.5251494334E-02    3.5464209353E-02
    3.5678222457E-02    3.5893541831E-02    3.6110175710E-02    3.6328132391E-02
    3.6547420225E-02    3.6768047621E-02    3.6990023047E-02    3.7213355029E-02
    3.7438052153E-02    3.7664123061E-02    3.7891576460E-02    3.8120421114E-02
    3.8350665850E-02    3.8582319555E-02    3.8815391180E-02    3.9049889736E-02
    3.9285824300E-02    3.9523204010E-02    3.9762038071E-02    4.0002335750E-02
    4.0244106383E-02    4.0487359367E-02    4.0732104170E-02    4.0978350325E-02
    4.1226107433E-02    4.1475385163E-02    4.1726193252E-02    4.1978541510E-02
    4.2232439813E-02    4.2487898109E-02    4.2744926419E-02    4.3003534834E-02
    4.3263733518E-02    4.3525532709E-02    4.3788942718E-02    4.4053973931E-02
    4.4320636810E-02    4.4588941892E-02    4.4858899791E-02    4.5130521197E-02
    4.5403816881E-02    4.5678797691E-02    4.5955474553E-02    4.6233858476E-02
    4.6513960548E-02    4.6795791940E-02    4.7079363905E-02    4.7364687778E-02
    4.7651774981E-02    4.7940637017E-02    4.8231285478E-02    4.8523732041E-02
    4.8817988470E-02    4.9114066617E-02    4.9411978424E-02    4.9711735921E-02
    5.0013351231E-02    5.0316836566E-02    5.0622204231E-02    5.0929466627E-02
    5.1238636245E-02    5.1549725673E-02    5.1862747597E-02    5.2177714796E-02
    5.2494640150E-02    5.2813536636E-02    5.3134417332E-02    5.3457295418E-02
    5.3782184172E-02    5.4109096978E-02    5.4438047324E-02    5.4769048801E-02
    5.5102115107E-02    5.5437260048E-02    5.5774497536E-02    5.6113841594E-02
    5.6455306356E-02    5.6798906064E-02    5.7144655075E-02    5.7492567862E-02
    5.7842659008E-02    5.8194943215E-02    5.8549435304E-02    5.8906150210E-02
    5.9265102991E-02    5.9626308826E-02    5.9989783016E-02    6.0355540984E-02
    6.0723598279E-02    6.1093970577E-02    6.1466673680E-02    6.1841723520E-02
    6.2219136160E-02    6.2598927792E-02    6.2981114744E-02    6.3365713475E-02
    6.3752740585E-02    6.4142212807E-02    6.4534147014E-02    6.4928560220E-02
    6.5325469582E-02    6.5724892397E-02    6.6126846112E-02    6.6531348316E-02
    6.6938416749E-02    6.7348069300E-02    6.7760324010E-02    6.8175199073E-02
    6.8592712837E-02    6.9012883810E-02    6.9435730653E-02    6.9861272193E-02
    7.0289527415E-02    7.0720515470E-02    7.1154255673E-02    7.1590767509E-02
    7.2030070630E-02    7.2472184860E-02    7.2917130199E-02    7.3364926818E-02
    7.3815595069E-02    7.4269155483E-02    7.4725628770E-02    7.5185035826E-02
    7.5647397732E-02    7.6112735757E-02    7.6581071361E-02    7.7052426195E-02
    7.7526822104E-02    7.8004281132E-02    7.8484825522E-02    7.8968477716E-02
    7.9455260362E-02    7.9945196315E-02    8.0438308638E-02    8.0934620604E-02
    8.1434155701E-02    8.1936937635E-02    8.2442990327E-02    8.2952337925E-02
    8.3465004796E-02    8.3981015537E-02    8.4500394974E-02    8.5023168166E-02
    8.5549360407E-02    8.6078997230E-02    8.6612104407E-02    8.7148707957E-02
    8.7688834144E-02    8.8232509483E-02    8.8779760742E-02    8.9330614946E-02
    8.9885099378E-02    9.0443241586E-02    9.1005069382E-02    9.1570610848E-02
    9.2139894339E-02    9.2712948486E-02    9.3289802199E-02    9.3870484672E-02
    9.4455025385E-02    9.5043454107E-02    9.5635800903E-02    9.6232096135E-02
    9.6832370465E-02    9.7436654862E-02    9.8044980603E-02    9.8657379278E-02
    9.9273882794E-02    9.9894523379E-02    1.0051933359E-01    1.0114834630E-01
    1.0178159473E-01    1.0241911243E-01    1.0306093331E-01    1.0370709159E-01
    1.0435762188E-01    1.0501255913E-01    1.0567193863E-01    1.0633579607E-01
    1.0700416749E-01    1.0767708930E-01    1.0835459830E-01    1.0903673166E-01
    1.0972352697E-01    1.1041502219E-01    1.1111125566E-01    1.1181226617E-01
    1.1251809288E-01    1.1322877540E-01    1.1394435373E-01    1.1466486831E-01
    1.1539036001E-01    1.1612087013E-01    1.1685644044E-01    1.1759711312E-01
    1.1834293084E-01    1.1909393670E-01    1.1985017430E-01    1.2061168767E-01
    1.2137852137E-01    1.2215072041E-01    1.2292833030E-01    1.2371139705E-01
    1.2449996718E-01    1.2529408773E-01    1.2609380622E-01    1.2689917075E-01
    1.2771022990E-01    1.2852703284E-01    1.2934962925E-01    1.3017806937E-01
    1.3101240402E-01    1.3185268457E-01    1.3269896297E-01    1.3355129177E-01
    1.3440972409E-01    1.3527431366E-01    1.3614511482E-01    1.3702218252E-01
    1.3790557234E-01    1.3879534049E-01    1.3969154382E-01    1.4059423983E-01
    1.4150348669E-01    1.4241934321E-01    1.4334186890E-01    1.4427112394E-01
    1.4520716921E-01    1.4615006630E-01    1.4709987750E-01    1.4805666583E-01
    1.4902049504E-01    1.4999142961E-01    1.5096953479E-01    1.5195487658E-01
    1.5294752175E-01    1.5394753785E-01    1.5495499324E-01    1.5596995705E-01
    1.5699249925E-01    1.5802269062E-01    1.5906060278E-01    1.6010630819E-01
    1.6115988016E-01    1.6222139289E-01    1.6329092143E-01    1.6436854175E-01
    1.6545433070E-01    1.6654836604E-01    1.6765072648E-01    1.6876149164E-01
    1.6988074212E-01    1.7100855945E-01    1.7214502616E-01    1.7329022575E-01
    1.7444424272E-01    1.7560716261E-01    1.7677907194E-01    1.7796005832E-01
    1.7915021036E-01    1.8034961778E-01    1.8155837135E-01    1.8277656295E-01
    1.8400428556E-01    1.8524163328E-01    1.8648870134E-01    1.8774558612E-01
    1.8901238519E-01    1.9028919725E-01    1.9157612224E-01    1.9287326127E-01
    1.9418071669E-01    1.9549859209E-01    1.9682699231E-01    1.9816602345E-01
    1.9951579290E-01    2.0087640934E-01    2.0224798279E-01    2.0363062457E-01
    2.0502444737E-01    2.0642956522E-01    2.0784609354E-01    2.0927414915E-01
    2.1071385028E-01    2.1216531658E-01    2.1362866916E-01    2.1510403056E-01
    2.1659152484E-01    2.1809127752E-01    2.1960341565E-01    2.2112806781E-01
    2.2266536412E-01    2.2421543627E-01    2.2577841752E-01    2.2735444274E-01
    2.2894364841E-01    2.3054617265E-01    2.3216215523E-01    2.3379173759E-01
    2.3543506285E-01    2.3709227584E-01    2.3876352312E-01    2.4044895297E-01
    2.4214871546E-01    2.4386296240E-01    2.4559184742E-01    2.4733552596E-01
    2.4909415529E-01    2.5086789450E-01    2.5265690460E-01    2.5446134844E-01
    2.5628139078E-01    2.5811719831E-01    2.5996893966E-01    2.6183678540E-01
    2.6372090807E-01    2.6562148223E-01    2.6753868440E-01    2.6947269317E-01
    2.7142368915E-01    2.7339185499E-01    2.7537737545E-01    2.7738043736E-01
    2.7940122966E-01    2.8143994342E-01    2.8349677184E-01    2.8557191028E-01
    2.8766555627E-01    2.8977790952E-01    2.9190917196E-01    2.9405954771E-01
    2.9622924313E-01    2.9841846681E-01    3.0062742963E-01    3.0285634470E-01
    3.0510542743E-01    3.0737489551E-01    3.0966496896E-01    3.1197587009E-01
    3.1430782355E-01    3.1666105631E-01    3.1903579772E-01    3.2143227943E-01
    3.2385073551E-01    3.2629140235E-01    3.2875451875E-01    3.3124032588E-01
    3.3374906729E-01    3.3628098893E-01    3.3883633914E-01    3.4141536866E-01
    3.4401833063E-01    3.4664548059E-01    3.4929707646E-01    3.5197337858E-01
    3.5467464968E-01    3.5740115487E-01    3.6015316165E-01    3.6293093992E-01
    3.6573476192E-01    3.6856490227E-01    3.7142163795E-01    3.7430524826E-01
    3.7721601484E-01    3.8015422166E-01    3.8312015495E-01    3.8611410326E-01
    3.8913635736E-01    3.9218721029E-01    3.9526695729E-01    3.9837589578E-01
    4.0151432537E-01    4.0468254777E-01    4.0788086681E-01    4.1110958838E-01
    4.1436902041E-01    4.1765947280E-01    4.2098125742E-01    4.2433468806E-01
    4.2772008035E-01    4.3113775173E-01    4.3458802142E-01    4.3807121035E-01
    4.4158764108E-01    4.4513763778E-01    4.4872152614E-01    4.5233963330E-01
    4.5599228782E-01    4.5967981955E-01    4.6340255959E-01    4.6716084020E-01
    4.7095499472E-01    4.7478535746E-01    4.7865226366E-01    4.8255604933E-01
    4.8649705119E-01    4.9047560655E-01    4.9449205321E-01    4.9854672935E-01
    5.0263997339E-01    5.0677212389E-01    5.1094351940E-01    5.1515449837E-01
    5.1940539895E-01    5.2369655890E-01    5.2802831540E-01    5.3240100494E-01
    5.3681496310E-01    5.4127052446E-01    5.4576802236E-01    5.5030778874E-01
    5.5489015399E-01    5.5951544672E-01    5.6418399356E-01    5.6889611899E-01
    5.7365214510E-01    5.7845239138E-01    5.8329717448E-01    5.8818680801E-01
    5.9312160227E-01    5.9810186401E-01    6.0312789617E-01    6.0819999762E-01
    6.1331846288E-01    6.1848358186E-01    6.2369563954E-01    6.2895491568E-01
    6.3426168454E-01    6.3961621450E-01    6.4501876780E-01    6.5046960019E-01
    6.5596896054E-01    6.6151709053E-01    6.6711422427E-01    6.7276058794E-01
    6.7845639936E-01    6.8420186765E-01    6.8999719277E-01    6.9584256517E-01
    7.0173816526E-01    7.0768416308E-01    7.1368071778E-01    7.1972797715E-01
    7.2582607721E-01    7.3197514166E-01    7.3817528141E-01    7.4442659405E-01
    7.5072916335E-01    7.5708305873E-01    7.6348833468E-01    7.6994503021E-01
    7.7645316831E-01    7.8301275530E-01    7.8962378031E-01    7.9628621460E-01
    8.0300001096E-01    8.0976510307E-01    8.1658140488E-01    8.2344880987E-01
    8.3036719045E-01    8.3733639721E-01    8.4435625826E-01    8.5142657846E-01
    8.5854713874E-01    8.6571769532E-01    8.7293797896E-01    8.8020769417E-01
    8.8752651848E-01    8.9489410155E-01    9.0231006445E-01    9.0977399875E-01
    9.1728546575E-01    9.2484399559E-01    9.3244908640E-01    9.4010020340E-01
    9.4779677804E-01    9.5553820710E-01    9.6332385174E-01    9.7115303663E-01
    9.7902504894E-01    9.8693913749E-01    9.9489451171E-01    1.0028903407E+00
    1.0109257523E+00    1.0189998321E+00    1.0271116222E+00    1.0352601208E+00
    1.0434442804E+00    1.0516630075E+00    1.0599151611E+00    1.0681995520E+00
    1.0765149416E+00    1.0848600407E+00    1.0932335090E+00    1.1016339533E+00
    1.1100599271E+00    1.1185099294E+00    1.1269824036E+00    1.1354757361E+00
    1.1439882560E+00    1.1525182337E+00    1.1610638795E+00    1.1696233434E+00
    1.1781947133E+00    1.1867760145E+00    1.1953652085E+00    1.2039601921E+00
    1.2125587965E+00    1.2211587861E+00    1.2297578578E+00    1.2383536401E+00
    1.2469436922E+00    1.2555255028E+00    1.2640964899E+00    1.2726539994E+00
    1.2811953047E+00    1.2897176056E+00    1.2982180280E+00    1.3066936229E+00
    1.3151413659E+00    1.3235581565E+00    1.3319408176E+00    1.3402860951E+00
    1.3485906572E+00    1.3568510943E+00    1.3650639183E+00    1.3732255625E+00
    1.3813323813E+00    1.3893806501E+00    1.3973665651E+00    1.4052862433E+00
    1.4131357226E+00    1.4209109618E+00    1.4286078406E+00    1.4362221604E+00
    1.4437496442E+00    1.4511859371E+00    1.4585266070E+00    1.4657671452E+00
    1.4729029670E+00    1.4799294124E+00    1.4868417477E+00    1.4936351656E+00
    1.5003047872E+00    1.5068456627E+00    1.5132527731E+00    1.5195210316E+00
    1.5256452853E+00    1.5316203170E+00    1.5374408471E+00    1.5431015354E+00
    1.5485969839E+00    1.5539217385E+00    1.5590702916E+00    1.5640370853E+00
    1.5688165133E+00    1.5734029247E+00    1.5777906264E+00    1.5819738867E+00
    1.5859469389E+00    1.5897039846E+00    1.5932391974E+00    1.5965467271E+00
    1.5996207037E+00    1.6024552418E+00    1.6050444447E+00    1.6073824093E+00
    1.6094632311E+00    1.6112810088E+00    1.6128298495E+00    1.6141038745E+00
    1.6150972242E+00    1.6158040643E+00    1.6162185914E+00    1.6163350392E+00
    1.6161476844E+00    1.6156508537E+00    1.6148389298E+00    1.6137063584E+00
    1.6122476550E+00    1.6104574119E+00    1.6083303056E+00    1.6058611039E+00
    1.6030446736E+00    1.5998759879E+00    1.5963501343E+00    1.5924623225E+00
    1.5882078921E+00    1.5835823213E+00    1.5785812342E+00    1.5732004099E+00
    1.5674357903E+00    1.5612834888E+00    1.5547397986E+00    1.5478012011E+00
    1.5404643747E+00    1.5327262032E+00    1.5245837842E+00    1.5160344377E+00
    1.5070757145E+00    1.4977054048E+00    1.4879215462E+00    1.4777224321E+00
    1.4671066201E+00    1.4560729395E+00    1.4446204994E+00    1.4327486963E+00
    1.4204572217E+00    1.4077460691E+00    1.3946155409E+00    1.3810662555E+00
    1.3670991535E+00    1.3527155033E+00    1.3379169074E+00    1.3227053076E+00
    1.3070829895E+00    1.2910525871E+00    1.2746170868E+00    1.2577798304E+00
    1.2405445185E+00    1.2229152122E+00    1.2048963345E+00    1.1864926717E+00
    1.1677093730E+00    1.1485519503E+00    1.1290262760E+00    1.1091385813E+00
    1.0888954525E+00    1.0683038269E+00    1.0473709873E+00    1.0261045556E+00
    1.0045124852E+00    9.8260305219E-01    9.6038484519E-01    9.3786675382E-01
    9.1505795576E-01    8.9196789627E-01    8.6860620835E-01    8.4498263837E-01
    8.2110703471E-01    7.9698934306E-01    7.7263960211E-01    7.4806793986E-01
    7.2328457051E-01    6.9829979200E-01    6.7312398431E-01    6.4776760853E-01
    6.2224120676E-01    5.9655540293E-01    5.7072090458E-01    5.4474850563E-01
    5.1864909022E-01    4.9243363768E-01    4.6611322858E-01    4.3969905209E-01
    4.1320241440E-01    3.8663474856E-01    3.6000762542E-01    3.3333276598E-01
    3.0662205498E-01    2.7988755572E-01    2.5314152618E-01    2.2639643645E-01
    1.9966498717E-01    1.7296012932E-01    1.4629508494E-01    1.1968336897E-01
    9.3138811863E-02    6.6675583131E-02    4.0308215490E-02    1.4051629552E-02
   -1.2078841114E-02   -3.8067424732E-02   -6.3897886069E-02   -8.9553501426E-02
   -1.1501703407E-01   -1.4027071041E-01   -1.6529619713E-01   -1.9007457966E-01
   -2.1458634217E-01   -2.3881134959E-01   -2.6272883186E-01   -2.8631737078E-01
   -3.0955489002E-01   -3.3241864841E-01   -3.5488523715E-01   -3.7693058127E-01
   -3.9852994570E-01   -4.1965794650E-01   -4.4028856763E-01   -4.6039518366E-01
   -4.7995058892E-01   -4.9892703347E-01   -5.1729626625E-01   -5.3502958594E-01
   -5.5209789975E-01   -5.6847179058E-01   -5.8412159285E-01   -5.9901747724E-01
   -6.1312954458E-01   -6.2642792915E-01   -6.3888291132E-01   -6.5046503994E-01
   -6.6114526399E-01   -6.7089507395E-01   -6.7968665224E-01   -6.8749303285E-01
   -6.9428826952E-01   -7.0004761228E-01   -7.0474769162E-01   -7.0836670960E-01
   -7.1088463730E-01   -7.1228341751E-01   -7.1254717168E-01   -7.1166241002E-01
   -7.0961824337E-01   -7.0640659545E-01   -7.0202241398E-01   -6.9646387883E-01
   -6.8973260560E-01   -6.8183384248E-01   -6.7277665848E-01   -6.6257412081E-01
   -6.5124345924E-01   -6.3880621492E-01   -6.2528837148E-01   -6.1072046583E-01
   -5.9513767617E-01   -5.7857988477E-01   -5.6109171301E-01   -5.4272252623E-01
   -5.2352640605E-01   -5.0356208784E-01   -4.8289286127E-01   -4.6158643192E-01
   -4.3971474219E-01   -4.1735375006E-01   -3.9458316433E-01   -3.7148613561E-01
   -3.4814890238E-01   -3.2466039202E-01   -3.0111177713E-01   -2.7759598805E-01
   -2.5420718265E-01   -2.3104017558E-01   -2.0818982929E-01   -1.8575040998E-01
   -1.6381491227E-01   -1.4247435703E-01   -1.2181706746E-01   -1.0192792936E-01
   -8.2887641901E-02   -6.4771966281E-02   -4.7650980044E-02   -3.1588345518E-02
   -1.6640601468E-02   -2.8564875602E-03    9.7236883467E-03    2.1068629647E-02
    3.1156566496E-02    3.9975696577E-02    4.7524540279E-02    5.3812199630E-02
    5.8858510627E-02    6.2694079191E-02    6.5360191646E-02    6.6908591692E-02
    6.7401117077E-02    6.6909190692E-02    6.5513162712E-02    6.3301502561E-02
    6.0369841976E-02    5.6819873353E-02    5.2758110718E-02    4.8294524279E-02
    4.3541063332E-02    3.8610086523E-02    3.3612722856E-02    2.8657191387E-02
    2.3847112208E-02    1.9280088277E-02    1.5046501409E-02    1.1226187030E-02
    7.8882627694E-03    5.0901810094E-03    2.8768972138E-03    1.2803540948E-03
    3.1932759304E-04   -3.2644495267E-07    0.0000000000E+00    0.0000000000E+00
    0.0000000000E+00    0.0000000000E+00    0.0000000000E+00    0.0000000000E+00
    0.0000000000E+00    0.0000000000E+00    0.0000000000E+00    0.0000000000E+00
    0.0000000000E+00    0.0000000000E+00    0.0000000000E+00    0.0000000000E+00
    0.0000000000E+00    0.0000000000E+00    0.0000000000E+00    0.0000000000E+00
    0.0000000000E+00    0.0000000000E+00    0.0000000000E+00    0.0000000000E+00
    0.0000000000E+00    0.0000000000E+00    0.0000000000E+00    0.0000000000E+00
    0.0000000000E+00    0.0000000000E+00    0.0000000000E+00    0.0000000000E+00
    0.0000000000E+00    0.0000000000E+00    0.0000000000E+00    0.0000000000E+00
    0.0000000000E+00    0.0000000000E+00    0.0000000000E+00    0.0000000000E+00
    0.0000000000E+00    0.0000000000E+00    0.0000000000E+00    0.0000000000E+00
    0.0000000000E+00    0.0000000000E+00    0.0000000000E+00    0.0000000000E+00
    0.0000000000E+00    0.0000000000E+00    0.0000000000E+00    0.0000000000E+00
    0.0000000000E+00    0.0000000000E+00    0.0000000000E+00    0.0000000000E+00
    0.0000000000E+00    0.0000000000E+00    0.0000000000E+00    0.0000000000E+00
    0.0000000000E+00    0.0000000000E+00    0.0000000000E+00    0.0000000000E+00
    0.0000000000E+00    0.0000000000E+00    0.0000000000E+00    0.0000000000E+00
    0.0000000000E+00    0.0000000000E+00    0.0000000000E+00    0.0000000000E+00
    0.0000000000E+00    0.0000000000E+00    0.0000000000E+00    0.0000000000E+00
    0.0000000000E+00    0.0000000000E+00    0.0000000000E+00    0.0000000000E+00
    0.0000000000E+00    0.0000000000E+00    0.0000000000E+00    0.0000000000E+00
    0.0000000000E+00    0.0000000000E+00    0.0000000000E+00    0.0000000000E+00
    0.0000000000E+00    0.0000000000E+00    0.0000000000E+00    0.0000000000E+00
    0.0000000000E+00    0.0000000000E+00    0.0000000000E+00    0.0000000000E+00
    0.0000000000E+00    0.0000000000E+00    0.0000000000E+00    0.0000000000E+00
    0.0000000000E+00    0.0000000000E+00    0.0000000000E+00    0.0000000000E+00
    0.0000000000E+00    0.0000000000E+00    0.0000000000E+00    0.0000000000E+00
    0.0000000000E+00    0.0000000000E+00    0.0000000000E+00    0.0000000000E+00
    0.0000000000E+00    0.0000000000E+00    0.0000000000E+00    0.0000000000E+00
    0.0000000000E+00    0.0000000000E+00    0.0000000000E+00    0.0000000000E+00
    0.0000000000E+00    0.0000000000E+00    0.0000000000E+00    0.0000000000E+00
    0.0000000000E+00    0.0000000000E+00    0.0000000000E+00    0.0000000000E+00
    0.0000000000E+00    0.0000000000E+00    0.0000000000E+00    0.0000000000E+00
    0.0000000000E+00    0.0000000000E+00    0.0000000000E+00    0.0000000000E+00
    0.0000000000E+00    0.0000000000E+00    0.0000000000E+00    0.0000000000E+00
    0.0000000000E+00    0.0000000000E+00    0.0000000000E+00    0.0000000000E+00
    0.0000000000E+00    0.0000000000E+00    0.0000000000E+00    0.0000000000E+00
    0.0000000000E+00    0.0000000000E+00    0.0000000000E+00    0.0000000000E+00
    0.0000000000E+00    0.0000000000E+00    0.0000000000E+00    0.0000000000E+00
    0.0000000000E+00    0.0000000000E+00    0.0000000000E+00    0.0000000000E+00
    0.0000000000E+00    0.0000000000E+00    0.0000000000E+00    0.0000000000E+00
    0.0000000000E+00    0.0000000000E+00    0.0000000000E+00    0.0000000000E+00
    0.0000000000E+00    0.0000000000E+00    0.0000000000E+00    0.0000000000E+00
    0.0000000000E+00    0.0000000000E+00    0.0000000000E+00    0.0000000000E+00
    0.0000000000E+00    0.0000000000E+00    0.0000000000E+00    0.0000000000E+00
    0.0000000000E+00    0.0000000000E+00    0.0000000000E+00    0.0000000000E+00
    0.0000000000E+00    0.0000000000E+00    0.0000000000E+00    0.0000000000E+00
    0.0000000000E+00    0.0000000000E+00    0.0000000000E+00    0.0000000000E+00
    0.0000000000E+00    0.0000000000E+00    0.0000000000E+00    0.0000000000E+00
    0.0000000000E+00    0.0000000000E+00    0.0000000000E+00    0.0000000000E+00
    0.0000000000E+00    0.0000000000E+00    0.0000000000E+00    0.0000000000E+00
    0.0000000000E+00    0.0000000000E+00    0.0000000000E+00    0.0000000000E+00
    0.0000000000E+00    0.0000000000E+00    0.0000000000E+00    0.0000000000E+00
    0.0000000000E+00    0.0000000000E+00    0.0000000000E+00    0.0000000000E+00
    0.0000000000E+00    0.0000000000E+00    0.0000000000E+00    0.0000000000E+00
    0.0000000000E+00    0.0000000000E+00    0.0000000000E+00    0.0000000000E+00
    0.0000000000E+00    0.0000000000E+00    0.0000000000E+00    0.0000000000E+00
    0.0000000000E+00    0.0000000000E+00    0.0000000000E+00    0.0000000000E+00
    0.0000000000E+00    0.0000000000E+00    0.0000000000E+00    0.0000000000E+00
    0.0000000000E+00    0.0000000000E+00    0.0000000000E+00    0.0000000000E+00
    0.0000000000E+00    0.0000000000E+00    0.0000000000E+00    0.0000000000E+00
    0.0000000000E+00    0.0000000000E+00    0.0000000000E+00    0.0000000000E+00
    0.0000000000E+00    0.0000000000E+00    0.0000000000E+00    0.0000000000E+00
    0.0000000000E+00    0.0000000000E+00    0.0000000000E+00    0.0000000000E+00
    0.0000000000E+00    0.0000000000E+00    0.0000000000E+00    0.0000000000E+00
    0.0000000000E+00    0.0000000000E+00    0.0000000000E+00    0.0000000000E+00
    0.0000000000E+00    0.0000000000E+00    0.0000000000E+00    0.0000000000E+00
    0.0000000000E+00    0.0000000000E+00    0.0000000000E+00    0.0000000000E+00
    0.0000000000E+00    0.0000000000E+00    0.0000000000E+00    0.0000000000E+00
    0.0000000000E+00    0.0000000000E+00    0.0000000000E+00    0.0000000000E+00
    0.0000000000E+00    0.0000000000E+00    0.0000000000E+00    0.0000000000E+00
    0.0000000000E+00    0.0000000000E+00    0.0000000000E+00    0.0000000000E+00
    0.0000000000E+00    0.0000000000E+00    0.0000000000E+00    0.0000000000E+00
    0.0000000000E+00    0.0000000000E+00    0.0000000000E+00    0.0000000000E+00
    0.0000000000E+00    0.0000000000E+00    0.0000000000E+00    0.0000000000E+00
    0.0000000000E+00    0.0000000000E+00    0.0000000000E+00    0.0000000000E+00
    0.0000000000E+00    0.0000000000E+00    0.0000000000E+00    0.0000000000E+00
    0.0000000000E+00    0.0000000000E+00    0.0000000000E+00    0.0000000000E+00
    0.0000000000E+00    0.0000000000E+00    0.0000000000E+00    0.0000000000E+00
    0.0000000000E+00    0.0000000000E+00    0.0000000000E+00    0.0000000000E+00
    0.0000000000E+00    0.0000000000E+00    0.0000000000E+00    0.0000000000E+00
    0.0000000000E+00    0.0000000000E+00    0.0000000000E+00    0.0000000000E+00
    0.0000000000E+00    0.0000000000E+00    0.0000000000E+00    0.0000000000E+00
    0.0000000000E+00    0.0000000000E+00    0.0000000000E+00    0.0000000000E+00
    0.0000000000E+00    0.0000000000E+00    0.0000000000E+00    0.0000000000E+00
    0.0000000000E+00    0.0000000000E+00    0.0000000000E+00    0.0000000000E+00
    0.0000000000E+00    0.0000000000E+00    0.0000000000E+00    0.0000000000E+00
    0.0000000000E+00    0.0000000000E+00    0.0000000000E+00    0.0000000000E+00
    0.0000000000E+00    0.0000000000E+00    0.0000000000E+00    0.0000000000E+00
    0.0000000000E+00    0.0000000000E+00    0.0000000000E+00    0.0000000000E+00
    0.0000000000E+00    0.0000000000E+00    0.0000000000E+00    0.0000000000E+00
    0.0000000000E+00    0.0000000000E+00    0.0000000000E+00    0.0000000000E+00
    0.0000000000E+00    0.0000000000E+00    0.0000000000E+00    0.0000000000E+00
    0.0000000000E+00    0.0000000000E+00    0.0000000000E+00    0.0000000000E+00
    0.0000000000E+00    0.0000000000E+00    0.0000000000E+00    0.0000000000E+00
    0.0000000000E+00    0.0000000000E+00    0.0000000000E+00    0.0000000000E+00
    0.0000000000E+00    0.0000000000E+00    0.0000000000E+00    0.0000000000E+00
    0.0000000000E+00    0.0000000000E+00    0.0000000000E+00    0.0000000000E+00
    0.0000000000E+00    0.0000000000E+00    0.0000000000E+00    0.0000000000E+00
    0.0000000000E+00    0.0000000000E+00    0.0000000000E+00    0.0000000000E+00
    0.0000000000E+00    0.0000000000E+00    0.0000000000E+00    0.0000000000E+00
    0.0000000000E+00    0.0000000000E+00    0.0000000000E+00    0.0000000000E+00
    0.0000000000E+00    0.0000000000E+00    0.0000000000E+00    0.0000000000E+00
    0.0000000000E+00    0.0000000000E+00    0.0000000000E+00    0.0000000000E+00
    0.0000000000E+00    0.0000000000E+00    0.0000000000E+00    0.0000000000E+00
    0.0000000000E+00    0.0000000000E+00    0.0000000000E+00    0.0000000000E+00
    0.0000000000E+00    0.0000000000E+00    0.0000000000E+00    0.0000000000E+00
    0.0000000000E+00    0.0000000000E+00    0.0000000000E+00    0.0000000000E+00
    0.0000000000E+00    0.0000000000E+00    0.0000000000E+00    0.0000000000E+00
    0.0000000000E+00    0.0000000000E+00    0.0000000000E+00    0.0000000000E+00
    0.0000000000E+00    0.0000000000E+00    0.0000000000E+00    0.0000000000E+00
    0.0000000000E+00    0.0000000000E+00    0.0000000000E+00    0.0000000000E+00
    0.0000000000E+00    0.0000000000E+00    0.0000000000E+00    0.0000000000E+00
    0.0000000000E+00    0.0000000000E+00    0.0000000000E+00    0.0000000000E+00
    0.0000000000E+00    0.0000000000E+00    0.0000000000E+00    0.0000000000E+00
    0.0000000000E+00    0.0000000000E+00    0.0000000000E+00    0.0000000000E+00
    0.0000000000E+00    0.0000000000E+00    0.0000000000E+00    0.0000000000E+00
    0.0000000000E+00    0.0000000000E+00    0.0000000000E+00    0.0000000000E+00
    0.0000000000E+00    0.0000000000E+00    0.0000000000E+00    0.0000000000E+00
    0.0000000000E+00    0.0000000000E+00    0.0000000000E+00    0.0000000000E+00
    0.0000000000E+00    0.0000000000E+00    0.0000000000E+00    0.0000000000E+00
    0.0000000000E+00    0.0000000000E+00    0.0000000000E+00    0.0000000000E+00
    0.0000000000E+00    0.0000000000E+00    0.0000000000E+00    0.0000000000E+00
    0.0000000000E+00    0.0000000000E+00    0.0000000000E+00    0.0000000000E+00
    0.0000000000E+00    0.0000000000E+00    0.0000000000E+00    0.0000000000E+00
    0.0000000000E+00    0.0000000000E+00    0.0000000000E+00    0.0000000000E+00
    0.0000000000E+00    0.0000000000E+00    0.0000000000E+00    0.0000000000E+00
    0.0000000000E+00    0.0000000000E+00    0.0000000000E+00    0.0000000000E+00
    0.0000000000E+00    0.0000000000E+00    0.0000000000E+00    0.0000000000E+00
    0.0000000000E+00    0.0000000000E+00    0.0000000000E+00    0.0000000000E+00
    0.0000000000E+00    0.0000000000E+00    0.0000000000E+00    0.0000000000E+00
    0.0000000000E+00    0.0000000000E+00    0.0000000000E+00    0.0000000000E+00
    0.0000000000E+00    0.0000000000E+00    0.0000000000E+00    0.0000000000E+00
    0.0000000000E+00    0.0000000000E+00    0.0000000000E+00    0.0000000000E+00
    0.0000000000E+00    0.0000000000E+00    0.0000000000E+00    0.0000000000E+00
    0.0000000000E+00    0.0000000000E+00    0.0000000000E+00    0.0000000000E+00
    0.0000000000E+00    0.0000000000E+00    0.0000000000E+00    0.0000000000E+00
    0.0000000000E+00    0.0000000000E+00    0.0000000000E+00    0.0000000000E+00
    0.0000000000E+00    0.0000000000E+00    0.0000000000E+00
   </PP_BETA.1>
   <PP_BETA.2
       type="real"
       size="  2291"
       columns="4"
       index="2"
       angular_momentum="0"
       cutoff_radius_index="  1742"
       cutoff_radius="    1.6674562108E+00" >
   -1.0522720238E-04   -1.0585856561E-04   -1.0649371701E-04   -1.0713267932E-04
   -1.0777547540E-04   -1.0842212826E-04   -1.0907266104E-04   -1.0972709702E-04
   -1.1038545961E-04   -1.1104777237E-04   -1.1171405902E-04   -1.1238434338E-04
   -1.1305864945E-04   -1.1373700136E-04   -1.1441942338E-04   -1.1510593993E-04
   -1.1579657558E-04   -1.1649135504E-04   -1.1719030318E-04   -1.1789344501E-04
   -1.1860080569E-04   -1.1931241054E-04   -1.2002828501E-04   -1.2074845474E-04
   -1.2147294548E-04   -1.2220178316E-04   -1.2293499387E-04   -1.2367260385E-04
   -1.2441463949E-04   -1.2516112734E-04   -1.2591209411E-04   -1.2666756669E-04
   -1.2742757211E-04   -1.2819213755E-04   -1.2896129039E-04   -1.2973505815E-04
   -1.3051346851E-04   -1.3129654934E-04   -1.3208432865E-04   -1.3287683464E-04
   -1.3367409566E-04   -1.3447614025E-04   -1.3528299711E-04   -1.3609469511E-04
   -1.3691126330E-04   -1.3773273090E-04   -1.3855912730E-04   -1.3939048208E-04
   -1.4022682499E-04   -1.4106818596E-04   -1.4191459510E-04   -1.4276608269E-04
   -1.4362267920E-04   -1.4448441530E-04   -1.4535132181E-04   -1.4622342976E-04
   -1.4710077036E-04   -1.4798337501E-04   -1.4887127528E-04   -1.4976450295E-04
   -1.5066308999E-04   -1.5156706856E-04   -1.5247647099E-04   -1.5339132984E-04
   -1.5431167785E-04   -1.5523754794E-04   -1.5616897325E-04   -1.5710598712E-04
   -1.5804862307E-04   -1.5899691483E-04   -1.5995089635E-04   -1.6091060176E-04
   -1.6187606540E-04   -1.6284732182E-04   -1.6382440578E-04   -1.6480735224E-04
   -1.6579619639E-04   -1.6679097360E-04   -1.6779171947E-04   -1.6879846982E-04
   -1.6981126067E-04   -1.7083012827E-04   -1.7185510907E-04   -1.7288623976E-04
   -1.7392355724E-04   -1.7496709861E-04   -1.7601690124E-04   -1.7707300269E-04
   -1.7813544074E-04   -1.7920425343E-04   -1.8027947899E-04   -1.8136115590E-04
   -1.8244932288E-04   -1.8354401885E-04   -1.8464528301E-04   -1.8575315475E-04
   -1.8686767372E-04   -1.8798887981E-04   -1.8911681314E-04   -1.9025151406E-04
   -1.9139302319E-04   -1.9254138138E-04   -1.9369662972E-04   -1.9485880955E-04
   -1.9602796245E-04   -1.9720413028E-04   -1.9838735511E-04   -1.9957767930E-04
   -2.0077514543E-04   -2.0197979636E-04   -2.0319167519E-04   -2.0441082530E-04
   -2.0563729031E-04   -2.0687111411E-04   -2.0811234086E-04   -2.0936101496E-04
   -2.1061718112E-04   -2.1188088427E-04   -2.1315216964E-04   -2.1443108272E-04
   -2.1571766929E-04   -2.1701197537E-04   -2.1831404729E-04   -2.1962393165E-04
   -2.2094167531E-04   -2.2226732544E-04   -2.2360092947E-04   -2.2494253512E-04
   -2.2629219041E-04   -2.2764994363E-04   -2.2901584337E-04   -2.3038993852E-04
   -2.3177227823E-04   -2.3316291199E-04   -2.3456188954E-04   -2.3596926097E-04
   -2.3738507663E-04   -2.3880938718E-04   -2.4024224359E-04   -2.4168369715E-04
   -2.4313379943E-04   -2.4459260233E-04   -2.4606015804E-04   -2.4753651909E-04
   -2.4902173831E-04   -2.5051586885E-04   -2.5201896417E-04   -2.5353107806E-04
   -2.5505226464E-04   -2.5658257834E-04   -2.5812207393E-04   -2.5967080649E-04
   -2.6122883145E-04   -2.6279620456E-04   -2.6437298191E-04   -2.6595921993E-04
   -2.6755497538E-04   -2.6916030536E-04   -2.7077526733E-04   -2.7239991907E-04
   -2.7403431872E-04   -2.7567852478E-04   -2.7733259607E-04   -2.7899659179E-04
   -2.8067057149E-04   -2.8235459507E-04   -2.8404872280E-04   -2.8575301529E-04
   -2.8746753354E-04   -2.8919233891E-04   -2.9092749311E-04   -2.9267305823E-04
   -2.9442909676E-04   -2.9619567151E-04   -2.9797284572E-04   -2.9976068297E-04
   -3.0155924726E-04   -3.0336860293E-04   -3.0518881474E-04   -3.0701994782E-04
   -3.0886206771E-04   -3.1071524032E-04   -3.1257953196E-04   -3.1445500936E-04
   -3.1634173963E-04   -3.1823979029E-04   -3.2014922925E-04   -3.2207012485E-04
   -3.2400254583E-04   -3.2594656134E-04   -3.2790224094E-04   -3.2986965463E-04
   -3.3184887281E-04   -3.3383996629E-04   -3.3584300635E-04   -3.3785806465E-04
   -3.3988521330E-04   -3.4192452485E-04   -3.4397607227E-04   -3.4603992898E-04
   -3.4811616884E-04   -3.5020486614E-04   -3.5230609564E-04   -3.5441993251E-04
   -3.5654645241E-04   -3.5868573144E-04   -3.6083784614E-04   -3.6300287354E-04
   -3.6518089111E-04   -3.6737197679E-04   -3.6957620899E-04   -3.7179366659E-04
   -3.7402442894E-04   -3.7626857588E-04   -3.7852618770E-04   -3.8079734520E-04
   -3.8308212965E-04   -3.8538062281E-04   -3.8769290694E-04   -3.9001906478E-04
   -3.9235917958E-04   -3.9471333507E-04   -3.9708161550E-04   -3.9946410562E-04
   -4.0186089069E-04   -4.0427205648E-04   -4.0669768928E-04   -4.0913787587E-04
   -4.1159270360E-04   -4.1406226030E-04   -4.1654663435E-04   -4.1904591465E-04
   -4.2156019064E-04   -4.2408955230E-04   -4.2663409014E-04   -4.2919389521E-04
   -4.3176905913E-04   -4.3435967403E-04   -4.3696583264E-04   -4.3958762821E-04
   -4.4222515456E-04   -4.4487850608E-04   -4.4754777772E-04   -4.5023306500E-04
   -4.5293446402E-04   -4.5565207144E-04   -4.5838598452E-04   -4.6113630109E-04
   -4.6390311957E-04   -4.6668653897E-04   -4.6948665890E-04   -4.7230357956E-04
   -4.7513740176E-04   -4.7798822691E-04   -4.8085615702E-04   -4.8374129473E-04
   -4.8664374327E-04   -4.8956360652E-04   -4.9250098897E-04   -4.9545599572E-04
   -4.9842873253E-04   -5.0141930577E-04   -5.0442782247E-04   -5.0745439029E-04
   -5.1049911753E-04   -5.1356211315E-04   -5.1664348675E-04   -5.1974334862E-04
   -5.2286180968E-04   -5.2599898152E-04   -5.2915497640E-04   -5.3232990728E-04
   -5.3552388776E-04   -5.3873703214E-04   -5.4196945540E-04   -5.4522127323E-04
   -5.4849260198E-04   -5.5178355872E-04   -5.5509426123E-04   -5.5842482797E-04
   -5.6177537813E-04   -5.6514603162E-04   -5.6853690905E-04   -5.7194813176E-04
   -5.7537982184E-04   -5.7883210207E-04   -5.8230509602E-04   -5.8579892795E-04
   -5.8931372290E-04   -5.9284960664E-04   -5.9640670571E-04   -5.9998514740E-04
   -6.0358505976E-04   -6.0720657163E-04   -6.1084981260E-04   -6.1451491304E-04
   -6.1820200411E-04   -6.2191121775E-04   -6.2564268671E-04   -6.2939654451E-04
   -6.3317292549E-04   -6.3697196478E-04   -6.4079379835E-04   -6.4463856294E-04
   -6.4850639616E-04   -6.5239743641E-04   -6.5631182293E-04   -6.6024969581E-04
   -6.6421119596E-04   -6.6819646514E-04   -6.7220564598E-04   -6.7623888194E-04
   -6.8029631736E-04   -6.8437809742E-04   -6.8848436821E-04   -6.9261527665E-04
   -6.9677097059E-04   -7.0095159874E-04   -7.0515731069E-04   -7.0938825696E-04
   -7.1364458896E-04   -7.1792645898E-04   -7.2223402028E-04   -7.2656742698E-04
   -7.3092683418E-04   -7.3531239786E-04   -7.3972427498E-04   -7.4416262341E-04
   -7.4862760197E-04   -7.5311937046E-04   -7.5763808962E-04   -7.6218392114E-04
   -7.6675702771E-04   -7.7135757297E-04   -7.7598572155E-04   -7.8064163909E-04
   -7.8532549219E-04   -7.9003744846E-04   -7.9477767654E-04   -7.9954634604E-04
   -8.0434362763E-04   -8.0916969296E-04   -8.1402471476E-04   -8.1890886675E-04
   -8.2382232372E-04   -8.2876526149E-04   -8.3373785697E-04   -8.3874028809E-04
   -8.4377273387E-04   -8.4883537439E-04   -8.5392839083E-04   -8.5905196545E-04
   -8.6420628160E-04   -8.6939152371E-04   -8.7460787737E-04   -8.7985552922E-04
   -8.8513466707E-04   -8.9044547983E-04   -8.9578815756E-04   -9.0116289143E-04
   -9.0656987380E-04   -9.1200929816E-04   -9.1748135915E-04   -9.2298625261E-04
   -9.2852417552E-04   -9.3409532607E-04   -9.3969990362E-04   -9.4533810873E-04
   -9.5101014318E-04   -9.5671620994E-04   -9.6245651321E-04   -9.6823125841E-04
   -9.7404065219E-04   -9.7988490244E-04   -9.8576421831E-04   -9.9167881020E-04
   -9.9762888975E-04   -1.0036146699E-03   -1.0096363649E-03   -1.0156941901E-03
   -1.0217883624E-03   -1.0279190999E-03   -1.0340866220E-03   -1.0402911493E-03
   -1.0465329039E-03   -1.0528121092E-03   -1.0591289899E-03   -1.0654837720E-03
   -1.0718766829E-03   -1.0783079515E-03   -1.0847778078E-03   -1.0912864834E-03
   -1.0978342112E-03   -1.1044212255E-03   -1.1110477621E-03   -1.1177140581E-03
   -1.1244203520E-03   -1.1311668839E-03   -1.1379538951E-03   -1.1447816286E-03
   -1.1516503287E-03   -1.1585602412E-03   -1.1655116133E-03   -1.1725046938E-03
   -1.1795397330E-03   -1.1866169827E-03   -1.1937366961E-03   -1.2008991279E-03
   -1.2081045346E-03   -1.2153531739E-03   -1.2226453052E-03   -1.2299811896E-03
   -1.2373610895E-03   -1.2447852690E-03   -1.2522539939E-03   -1.2597675313E-03
   -1.2673261502E-03   -1.2749301211E-03   -1.2825797161E-03   -1.2902752088E-03
   -1.2980168748E-03   -1.3058049911E-03   -1.3136398363E-03   -1.3215216909E-03
   -1.3294508369E-03   -1.3374275580E-03   -1.3454521398E-03   -1.3535248693E-03
   -1.3616460356E-03   -1.3698159291E-03   -1.3780348423E-03   -1.3863030693E-03
   -1.3946209060E-03   -1.4029886501E-03   -1.4114066009E-03   -1.4198750598E-03
   -1.4283943298E-03   -1.4369647158E-03   -1.4455865244E-03   -1.4542600643E-03
   -1.4629856458E-03   -1.4717635812E-03   -1.4805941845E-03   -1.4894777719E-03
   -1.4984146612E-03   -1.5074051723E-03   -1.5164496268E-03   -1.5255483485E-03
   -1.5347016629E-03   -1.5439098977E-03   -1.5531733824E-03   -1.5624924484E-03
   -1.5718674292E-03   -1.5812986605E-03   -1.5907864796E-03   -1.6003312261E-03
   -1.6099332415E-03   -1.6195928696E-03   -1.6293104560E-03   -1.6390863484E-03
   -1.6489208967E-03   -1.6588144529E-03   -1.6687673709E-03   -1.6787800070E-03
   -1.6888527195E-03   -1.6989858689E-03   -1.7091798178E-03   -1.7194349309E-03
   -1.7297515754E-03   -1.7401301204E-03   -1.7505709372E-03   -1.7610743997E-03
   -1.7716408835E-03   -1.7822707670E-03   -1.7929644304E-03   -1.8037222566E-03
   -1.8145446304E-03   -1.8254319392E-03   -1.8363845725E-03   -1.8474029225E-03
   -1.8584873833E-03   -1.8696383516E-03   -1.8808562266E-03   -1.8921414096E-03
   -1.9034943045E-03   -1.9149153177E-03   -1.9264048578E-03   -1.9379633360E-03
   -1.9495911659E-03   -1.9612887638E-03   -1.9730565481E-03   -1.9848949401E-03
   -1.9968043634E-03   -2.0087852442E-03   -2.0208380113E-03   -2.0329630960E-03
   -2.0451609322E-03   -2.0574319565E-03   -2.0697766080E-03   -2.0821953285E-03
   -2.0946885624E-03   -2.1072567569E-03   -2.1199003616E-03   -2.1326198291E-03
   -2.1454156147E-03   -2.1582881761E-03   -2.1712379742E-03   -2.1842654722E-03
   -2.1973711366E-03   -2.2105554362E-03   -2.2238188429E-03   -2.2371618314E-03
   -2.2505848793E-03   -2.2640884668E-03   -2.2776730772E-03   -2.2913391967E-03
   -2.3050873145E-03   -2.3189179224E-03   -2.3328315155E-03   -2.3468285917E-03
   -2.3609096519E-03   -2.3750752001E-03   -2.3893257433E-03   -2.4036617913E-03
   -2.4180838573E-03   -2.4325924575E-03   -2.4471881110E-03   -2.4618713402E-03
   -2.4766426707E-03   -2.4915026309E-03   -2.5064517528E-03   -2.5214905714E-03
   -2.5366196248E-03   -2.5518394545E-03   -2.5671506053E-03   -2.5825536250E-03
   -2.5980490649E-03   -2.6136374796E-03   -2.6293194270E-03   -2.6450954683E-03
   -2.6609661681E-03   -2.6769320944E-03   -2.6929938186E-03   -2.7091519155E-03
   -2.7254069634E-03   -2.7417595441E-03   -2.7582102428E-03   -2.7747596482E-03
   -2.7914083527E-03   -2.8081569520E-03   -2.8250060457E-03   -2.8419562366E-03
   -2.8590081315E-03   -2.8761623407E-03   -2.8934194779E-03   -2.9107801610E-03
   -2.9282450112E-03   -2.9458146535E-03   -2.9634897168E-03   -2.9812708337E-03
   -2.9991586405E-03   -3.0171537774E-03   -3.0352568885E-03   -3.0534686217E-03
   -3.0717896288E-03   -3.0902205654E-03   -3.1087620913E-03   -3.1274148700E-03
   -3.1461795691E-03   -3.1650568601E-03   -3.1840474188E-03   -3.2031519248E-03
   -3.2223710618E-03   -3.2417055178E-03   -3.2611559846E-03   -3.2807231585E-03
   -3.3004077397E-03   -3.3202104328E-03   -3.3401319465E-03   -3.3601729938E-03
   -3.3803342921E-03   -3.4006165628E-03   -3.4210205320E-03   -3.4415469299E-03
   -3.4621964911E-03   -3.4829699548E-03   -3.5038680644E-03   -3.5248915679E-03
   -3.5460412178E-03   -3.5673177710E-03   -3.5887219891E-03   -3.6102546381E-03
   -3.6319164887E-03   -3.6537083163E-03   -3.6756309009E-03   -3.6976850270E-03
   -3.7198714840E-03   -3.7421910660E-03   -3.7646445719E-03   -3.7872328054E-03
   -3.8099565749E-03   -3.8328166937E-03   -3.8558139802E-03   -3.8789492573E-03
   -3.9022233532E-03   -3.9256371010E-03   -3.9491913386E-03   -3.9728869092E-03
   -3.9967246608E-03   -4.0207054468E-03   -4.0448301253E-03   -4.0690995601E-03
   -4.0935146196E-03   -4.1180761779E-03   -4.1427851140E-03   -4.1676423125E-03
   -4.1926486629E-03   -4.2178050605E-03   -4.2431124056E-03   -4.2685716041E-03
   -4.2941835672E-03   -4.3199492118E-03   -4.3458694601E-03   -4.3719452399E-03
   -4.3981774846E-03   -4.4245671331E-03   -4.4511151301E-03   -4.4778224258E-03
   -4.5046899762E-03   -4.5317187431E-03   -4.5589096940E-03   -4.5862638021E-03
   -4.6137820466E-03   -4.6414654126E-03   -4.6693148909E-03   -4.6973314786E-03
   -4.7255161784E-03   -4.7538699993E-03   -4.7823939562E-03   -4.8110890702E-03
   -4.8399563685E-03   -4.8689968843E-03   -4.8982116574E-03   -4.9276017334E-03
   -4.9571681645E-03   -4.9869120090E-03   -5.0168343317E-03   -5.0469362038E-03
   -5.0772187027E-03   -5.1076829126E-03   -5.1383299241E-03   -5.1691608341E-03
   -5.2001767465E-03   -5.2313787714E-03   -5.2627680260E-03   -5.2943456339E-03
   -5.3261127255E-03   -5.3580704381E-03   -5.3902199157E-03   -5.4225623093E-03
   -5.4550987767E-03   -5.4878304827E-03   -5.5207585991E-03   -5.5538843047E-03
   -5.5872087854E-03   -5.6207332343E-03   -5.6544588515E-03   -5.6883868445E-03
   -5.7225184279E-03   -5.7568548236E-03   -5.7913972610E-03   -5.8261469766E-03
   -5.8611052147E-03   -5.8962732268E-03   -5.9316522719E-03   -5.9672436167E-03
   -6.0030485355E-03   -6.0390683102E-03   -6.0753042304E-03   -6.1117575935E-03
   -6.1484297046E-03   -6.1853218767E-03   -6.2224354306E-03   -6.2597716953E-03
   -6.2973320074E-03   -6.3351177118E-03   -6.3731301615E-03   -6.4113707175E-03
   -6.4498407488E-03   -6.4885416331E-03   -6.5274747560E-03   -6.5666415116E-03
   -6.6060433021E-03   -6.6456815386E-03   -6.6855576403E-03   -6.7256730350E-03
   -6.7660291591E-03   -6.8066274577E-03   -6.8474693846E-03   -6.8885564022E-03
   -6.9298899817E-03   -6.9714716032E-03   -7.0133027558E-03   -7.0553849373E-03
   -7.0977196547E-03   -7.1403084240E-03   -7.1831527702E-03   -7.2262542277E-03
   -7.2696143400E-03   -7.3132346597E-03   -7.3571167490E-03   -7.4012621794E-03
   -7.4456725317E-03   -7.4903493965E-03   -7.5352943737E-03   -7.5805090728E-03
   -7.6259951132E-03   -7.6717541239E-03   -7.7177877437E-03   -7.7640976212E-03
   -7.8106854150E-03   -7.8575527936E-03   -7.9047014356E-03   -7.9521330296E-03
   -7.9998492744E-03   -8.0478518790E-03   -8.0961425628E-03   -8.1447230553E-03
   -8.1935950966E-03   -8.2427604371E-03   -8.2922208379E-03   -8.3419780706E-03
   -8.3920339173E-03   -8.4423901711E-03   -8.4930486358E-03   -8.5440111258E-03
   -8.5952794667E-03   -8.6468554950E-03   -8.6987410582E-03   -8.7509380149E-03
   -8.8034482349E-03   -8.8562735994E-03   -8.9094160006E-03   -8.9628773424E-03
   -9.0166595398E-03   -9.0707645197E-03   -9.1251942204E-03   -9.1799505918E-03
   -9.2350355955E-03   -9.2904512052E-03   -9.3461994061E-03   -9.4022821957E-03
   -9.4587015831E-03   -9.5154595899E-03   -9.5725582496E-03   -9.6299996080E-03
   -9.6877857233E-03   -9.7459186659E-03   -9.8044005188E-03   -9.8632333776E-03
   -9.9224193502E-03   -9.9819605576E-03   -1.0041859133E-02   -1.0102117224E-02
   -1.0162736988E-02   -1.0223720598E-02   -1.0285070241E-02   -1.0346788113E-02
   -1.0408876428E-02   -1.0471337409E-02   -1.0534173296E-02   -1.0597386341E-02
   -1.0660978809E-02   -1.0724952979E-02   -1.0789311144E-02   -1.0854055610E-02
   -1.0919188699E-02   -1.0984712745E-02   -1.1050630097E-02   -1.1116943116E-02
   -1.1183654181E-02   -1.1250765682E-02   -1.1318280025E-02   -1.1386199631E-02
   -1.1454526934E-02   -1.1523264383E-02   -1.1592414443E-02   -1.1661979593E-02
   -1.1731962326E-02   -1.1802365153E-02   -1.1873190595E-02   -1.1944441194E-02
   -1.2016119504E-02   -1.2088228094E-02   -1.2160769551E-02   -1.2233746475E-02
   -1.2307161483E-02   -1.2381017207E-02   -1.2455316296E-02   -1.2530061415E-02
   -1.2605255243E-02   -1.2680900477E-02   -1.2756999831E-02   -1.2833556033E-02
   -1.2910571828E-02   -1.2988049980E-02   -1.3065993267E-02   -1.3144404484E-02
   -1.3223286445E-02   -1.3302641978E-02   -1.3382473929E-02   -1.3462785164E-02
   -1.3543578562E-02   -1.3624857022E-02   -1.3706623460E-02   -1.3788880809E-02
   -1.3871632020E-02   -1.3954880062E-02   -1.4038627923E-02   -1.4122878606E-02
   -1.4207635135E-02   -1.4292900551E-02   -1.4378677914E-02   -1.4464970301E-02
   -1.4551780810E-02   -1.4639112556E-02   -1.4726968672E-02   -1.4815352313E-02
   -1.4904266650E-02   -1.4993714874E-02   -1.5083700196E-02   -1.5174225846E-02
   -1.5265295073E-02   -1.5356911147E-02   -1.5449077356E-02   -1.5541797010E-02
   -1.5635073436E-02   -1.5728909983E-02   -1.5823310022E-02   -1.5918276940E-02
   -1.6013814149E-02   -1.6109925078E-02   -1.6206613179E-02   -1.6303881924E-02
   -1.6401734806E-02   -1.6500175340E-02   -1.6599207061E-02   -1.6698833525E-02
   -1.6799058312E-02   -1.6899885022E-02   -1.7001317276E-02   -1.7103358718E-02
   -1.7206013013E-02   -1.7309283851E-02   -1.7413174941E-02   -1.7517690016E-02
   -1.7622832832E-02   -1.7728607166E-02   -1.7835016820E-02   -1.7942065617E-02
   -1.8049757406E-02   -1.8158096056E-02   -1.8267085461E-02   -1.8376729540E-02
   -1.8487032232E-02   -1.8597997504E-02   -1.8709629344E-02   -1.8821931767E-02
   -1.8934908809E-02   -1.9048564533E-02   -1.9162903026E-02   -1.9277928399E-02
   -1.9393644789E-02   -1.9510056357E-02   -1.9627167291E-02   -1.9744981803E-02
   -1.9863504130E-02   -1.9982738537E-02   -2.0102689312E-02   -2.0223360771E-02
   -2.0344757256E-02   -2.0466883135E-02   -2.0589742803E-02   -2.0713340680E-02
   -2.0837681215E-02   -2.0962768883E-02   -2.1088608187E-02   -2.1215203656E-02
   -2.1342559848E-02   -2.1470681346E-02   -2.1599572766E-02   -2.1729238746E-02
   -2.1859683957E-02   -2.1990913095E-02   -2.2122930888E-02   -2.2255742089E-02
   -2.2389351483E-02   -2.2523763883E-02   -2.2658984130E-02   -2.2795017097E-02
   -2.2931867684E-02   -2.3069540824E-02   -2.3208041477E-02   -2.3347374635E-02
   -2.3487545320E-02   -2.3628558585E-02   -2.3770419511E-02   -2.3913133215E-02
   -2.4056704842E-02   -2.4201139568E-02   -2.4346442602E-02   -2.4492619184E-02
   -2.4639674586E-02   -2.4787614114E-02   -2.4936443103E-02   -2.5086166923E-02
   -2.5236790977E-02   -2.5388320699E-02   -2.5540761558E-02   -2.5694119056E-02
   -2.5848398728E-02   -2.6003606144E-02   -2.6159746907E-02   -2.6316826655E-02
   -2.6474851059E-02   -2.6633825827E-02   -2.6793756700E-02   -2.6954649456E-02
   -2.7116509906E-02   -2.7279343899E-02   -2.7443157318E-02   -2.7607956084E-02
   -2.7773746151E-02   -2.7940533513E-02   -2.8108324199E-02   -2.8277124276E-02
   -2.8446939846E-02   -2.8617777051E-02   -2.8789642070E-02   -2.8962541119E-02
   -2.9136480452E-02   -2.9311466364E-02   -2.9487505185E-02   -2.9664603288E-02
   -2.9842767080E-02   -3.0022003013E-02   -3.0202317575E-02   -3.0383717295E-02
   -3.0566208741E-02   -3.0749798524E-02   -3.0934493294E-02   -3.1120299742E-02
   -3.1307224601E-02   -3.1495274643E-02   -3.1684456686E-02   -3.1874777586E-02
   -3.2066244244E-02   -3.2258863602E-02   -3.2452642646E-02   -3.2647588403E-02
   -3.2843707947E-02   -3.3041008392E-02   -3.3239496899E-02   -3.3439180670E-02
   -3.3640066955E-02   -3.3842163047E-02   -3.4045476283E-02   -3.4250014048E-02
   -3.4455783771E-02   -3.4662792927E-02   -3.4871049038E-02   -3.5080559673E-02
   -3.5291332447E-02   -3.5503375022E-02   -3.5716695109E-02   -3.5931300464E-02
   -3.6147198895E-02   -3.6364398256E-02   -3.6582906449E-02   -3.6802731428E-02
   -3.7023881194E-02   -3.7246363799E-02   -3.7470187344E-02   -3.7695359982E-02
   -3.7921889915E-02   -3.8149785397E-02   -3.8379054734E-02   -3.8609706283E-02
   -3.8841748452E-02   -3.9075189704E-02   -3.9310038553E-02   -3.9546303567E-02
   -3.9783993366E-02   -4.0023116626E-02   -4.0263682076E-02   -4.0505698499E-02
   -4.0749174734E-02   -4.0994119676E-02   -4.1240542273E-02   -4.1488451531E-02
   -4.1737856514E-02   -4.1988766338E-02   -4.2241190181E-02   -4.2495137277E-02
   -4.2750616916E-02   -4.3007638448E-02   -4.3266211283E-02   -4.3526344888E-02
   -4.3788048789E-02   -4.4051332576E-02   -4.4316205894E-02   -4.4582678452E-02
   -4.4850760020E-02   -4.5120460428E-02   -4.5391789569E-02   -4.5664757399E-02
   -4.5939373935E-02   -4.6215649259E-02   -4.6493593516E-02   -4.6773216915E-02
   -4.7054529729E-02   -4.7337542296E-02   -4.7622265022E-02   -4.7908708375E-02
   -4.8196882892E-02   -4.8486799175E-02   -4.8778467895E-02   -4.9071899789E-02
   -4.9367105663E-02   -4.9664096391E-02   -4.9962882918E-02   -5.0263476255E-02
   -5.0565887486E-02   -5.0870127765E-02   -5.1176208316E-02   -5.1484140435E-02
   -5.1793935489E-02   -5.2105604920E-02   -5.2419160240E-02   -5.2734613037E-02
   -5.3051974970E-02   -5.3371257775E-02   -5.3692473263E-02   -5.4015633318E-02
   -5.4340749902E-02   -5.4667835054E-02   -5.4996900889E-02   -5.5327959599E-02
   -5.5661023455E-02   -5.5996104808E-02   -5.6333216085E-02   -5.6672369796E-02
   -5.7013578529E-02   -5.7356854955E-02   -5.7702211824E-02   -5.8049661969E-02
   -5.8399218307E-02   -5.8750893836E-02   -5.9104701638E-02   -5.9460654882E-02
   -5.9818766819E-02   -6.0179050785E-02   -6.0541520205E-02   -6.0906188588E-02
   -6.1273069532E-02   -6.1642176722E-02   -6.2013523932E-02   -6.2387125023E-02
   -6.2762993949E-02   -6.3141144753E-02   -6.3521591568E-02   -6.3904348620E-02
   -6.4289430226E-02   -6.4676850797E-02   -6.5066624836E-02   -6.5458766943E-02
   -6.5853291809E-02   -6.6250214224E-02   -6.6649549072E-02   -6.7051311334E-02
   -6.7455516089E-02   -6.7862178515E-02   -6.8271313887E-02   -6.8682937581E-02
   -6.9097065072E-02   -6.9513711936E-02   -6.9932893853E-02   -7.0354626602E-02
   -7.0778926066E-02   -7.1205808233E-02   -7.1635289194E-02   -7.2067385146E-02
   -7.2502112391E-02   -7.2939487338E-02   -7.3379526504E-02   -7.3822246512E-02
   -7.4267664097E-02   -7.4715796100E-02   -7.5166659475E-02   -7.5620271285E-02
   -7.6076648707E-02   -7.6535809027E-02   -7.6997769649E-02   -7.7462548086E-02
   -7.7930161970E-02   -7.8400629045E-02   -7.8873967175E-02   -7.9350194338E-02
   -7.9829328632E-02   -8.0311388272E-02   -8.0796391593E-02   -8.1284357050E-02
   -8.1775303221E-02   -8.2269248803E-02   -8.2766212617E-02   -8.3266213607E-02
   -8.3769270842E-02   -8.4275403515E-02   -8.4784630945E-02   -8.5296972578E-02
   -8.5812447986E-02   -8.6331076872E-02   -8.6852879065E-02   -8.7377874525E-02
   -8.7906083344E-02   -8.8437525743E-02   -8.8972222076E-02   -8.9510192831E-02
   -9.0051458630E-02   -9.0596040227E-02   -9.1143958514E-02   -9.1695234519E-02
   -9.2249889406E-02   -9.2807944477E-02   -9.3369421174E-02   -9.3934341077E-02
   -9.4502725907E-02   -9.5074597525E-02   -9.5649977935E-02   -9.6228889283E-02
   -9.6811353859E-02   -9.7397394096E-02   -9.7987032573E-02   -9.8580292014E-02
   -9.9177195290E-02   -9.9777765418E-02   -1.0038202556E-01   -1.0098999904E-01
   -1.0160170932E-01   -1.0221718001E-01   -1.0283643487E-01   -1.0345949783E-01
   -1.0408639294E-01   -1.0471714444E-01   -1.0535177669E-01   -1.0599031423E-01
   -1.0663278174E-01   -1.0727920406E-01   -1.0792960619E-01   -1.0858401327E-01
   -1.0924245062E-01   -1.0990494371E-01   -1.1057151816E-01   -1.1124219975E-01
   -1.1191701443E-01   -1.1259598831E-01   -1.1327914765E-01   -1.1396651888E-01
   -1.1465812857E-01   -1.1535400349E-01   -1.1605417054E-01   -1.1675865679E-01
   -1.1746748948E-01   -1.1818069601E-01   -1.1889830394E-01   -1.1962034100E-01
   -1.2034683507E-01   -1.2107781421E-01   -1.2181330664E-01   -1.2255334073E-01
   -1.2329794502E-01   -1.2404714824E-01   -1.2480097925E-01   -1.2555946709E-01
   -1.2632264096E-01   -1.2709053022E-01   -1.2786316441E-01   -1.2864057320E-01
   -1.2942278646E-01   -1.3020983420E-01   -1.3100174660E-01   -1.3179855400E-01
   -1.3260028689E-01   -1.3340697594E-01   -1.3421865197E-01   -1.3503534595E-01
   -1.3585708902E-01   -1.3668391247E-01   -1.3751584775E-01   -1.3835292647E-01
   -1.3919518038E-01   -1.4004264139E-01   -1.4089534155E-01   -1.4175331309E-01
   -1.4261658835E-01   -1.4348519984E-01   -1.4435918021E-01   -1.4523856225E-01
   -1.4612337889E-01   -1.4701366320E-01   -1.4790944839E-01   -1.4881076779E-01
   -1.4971765489E-01   -1.5063014327E-01   -1.5154826667E-01   -1.5247205895E-01
   -1.5340155406E-01   -1.5433678611E-01   -1.5527778928E-01   -1.5622459790E-01
   -1.5717724639E-01   -1.5813576926E-01   -1.5910020114E-01   -1.6007057675E-01
   -1.6104693089E-01   -1.6202929845E-01   -1.6301771441E-01   -1.6401221381E-01
   -1.6501283179E-01   -1.6601960351E-01   -1.6703256424E-01   -1.6805174926E-01
   -1.6907719393E-01   -1.7010893364E-01   -1.7114700379E-01   -1.7219143986E-01
   -1.7324227731E-01   -1.7429955162E-01   -1.7536329828E-01   -1.7643355278E-01
   -1.7751035060E-01   -1.7859372720E-01   -1.7968371799E-01   -1.8078035838E-01
   -1.8188368369E-01   -1.8299372922E-01   -1.8411053017E-01   -1.8523412169E-01
   -1.8636453882E-01   -1.8750181649E-01   -1.8864598954E-01   -1.8979709266E-01
   -1.9095516042E-01   -1.9212022722E-01   -1.9329232730E-01   -1.9447149472E-01
   -1.9565776333E-01   -1.9685116680E-01   -1.9805173853E-01   -1.9925951171E-01
   -2.0047451924E-01   -2.0169679376E-01   -2.0292636762E-01   -2.0416327282E-01
   -2.0540754106E-01   -2.0665920367E-01   -2.0791829159E-01   -2.0918483537E-01
   -2.1045886516E-01   -2.1174041064E-01   -2.1302950103E-01   -2.1432616506E-01
   -2.1563043095E-01   -2.1694232636E-01   -2.1826187840E-01   -2.1958911356E-01
   -2.2092405773E-01   -2.2226673613E-01   -2.2361717328E-01   -2.2497539300E-01
   -2.2634141837E-01   -2.2771527165E-01   -2.2909697433E-01   -2.3048654700E-01
   -2.3188400940E-01   -2.3328938030E-01   -2.3470267755E-01   -2.3612391795E-01
   -2.3755311729E-01   -2.3899029024E-01   -2.4043545034E-01   -2.4188860998E-01
   -2.4334978029E-01   -2.4481897113E-01   -2.4629619106E-01   -2.4778144725E-01
   -2.4927474545E-01   -2.5077608992E-01   -2.5228548340E-01   -2.5380292703E-01
   -2.5532842031E-01   -2.5686196102E-01   -2.5840354517E-01   -2.5995316695E-01
   -2.6151081862E-01   -2.6307649050E-01   -2.6465017087E-01   -2.6623184589E-01
   -2.6782149954E-01   -2.6941911355E-01   -2.7102466732E-01   -2.7263813784E-01
   -2.7425949960E-01   -2.7588872450E-01   -2.7752578180E-01   -2.7917063800E-01
   -2.8082325676E-01   -2.8248359880E-01   -2.8415162180E-01   -2.8582728034E-01
   -2.8751052576E-01   -2.8920130604E-01   -2.9089956575E-01   -2.9260524592E-01
   -2.9431828390E-01   -2.9603861327E-01   -2.9776616372E-01   -2.9950086095E-01
   -3.0124262650E-01   -3.0299137765E-01   -3.0474702731E-01   -3.0650948384E-01
   -3.0827865097E-01   -3.1005442760E-01   -3.1183670771E-01   -3.1362538017E-01
   -3.1542032864E-01   -3.1722143135E-01   -3.1902856101E-01   -3.2084158460E-01
   -3.2266036324E-01   -3.2448475198E-01   -3.2631459968E-01   -3.2814974877E-01
   -3.2999003514E-01   -3.3183528788E-01   -3.3368532917E-01   -3.3553997401E-01
   -3.3739903007E-01   -3.3926229749E-01   -3.4112956863E-01   -3.4300062791E-01
   -3.4487525154E-01   -3.4675320738E-01   -3.4863425462E-01   -3.5051814360E-01
   -3.5240461560E-01   -3.5429340254E-01   -3.5618422677E-01   -3.5807680084E-01
   -3.5997082717E-01   -3.6186599790E-01   -3.6376199454E-01   -3.6565848770E-01
   -3.6755513689E-01   -3.6945159017E-01   -3.7134748387E-01   -3.7324244233E-01
   -3.7513607759E-01   -3.7702798908E-01   -3.7891776332E-01   -3.8080497362E-01
   -3.8268917973E-01   -3.8456992754E-01   -3.8644674876E-01   -3.8831916057E-01
   -3.9018666528E-01   -3.9204875000E-01   -3.9390488628E-01   -3.9575452974E-01
   -3.9759711976E-01   -3.9943207905E-01   -4.0125881333E-01   -4.0307671093E-01
   -4.0488514242E-01   -4.0668346021E-01   -4.0847099818E-01   -4.1024707128E-01
   -4.1201097511E-01   -4.1376198557E-01   -4.1549935838E-01   -4.1722232871E-01
   -4.1893011078E-01   -4.2062189741E-01   -4.2229685960E-01   -4.2395414610E-01
   -4.2559288303E-01   -4.2721217338E-01   -4.2881109661E-01   -4.3038870819E-01
   -4.3194403922E-01   -4.3347609591E-01   -4.3498385920E-01   -4.3646628426E-01
   -4.3792230012E-01   -4.3935080915E-01   -4.4075068667E-01   -4.4212078048E-01
   -4.4345991042E-01   -4.4476686795E-01   -4.4604041569E-01   -4.4727928699E-01
   -4.4848218550E-01   -4.4964778474E-01   -4.5077472767E-01   -4.5186162630E-01
   -4.5290706124E-01   -4.5390958130E-01   -4.5486770313E-01   -4.5577991078E-01
   -4.5664465535E-01   -4.5746035459E-01   -4.5822539258E-01   -4.5893811936E-01
   -4.5959685056E-01   -4.6019986715E-01   -4.6074541507E-01   -4.6123170497E-01
   -4.6165691194E-01   -4.6201917520E-01   -4.6231659796E-01   -4.6254724711E-01
   -4.6270915309E-01   -4.6280030969E-01   -4.6281867389E-01   -4.6276216581E-01
   -4.6262866854E-01   -4.6241602812E-01   -4.6212205352E-01   -4.6174451660E-01
   -4.6128115221E-01   -4.6072965820E-01   -4.6008769558E-01   -4.5935288867E-01
   -4.5852282525E-01   -4.5759505685E-01   -4.5656709901E-01   -4.5543643164E-01
   -4.5420049935E-01   -4.5285671194E-01   -4.5140244487E-01   -4.4983503979E-01
   -4.4815180520E-01   -4.4635001704E-01   -4.4442691951E-01   -4.4237972579E-01
   -4.4020561897E-01   -4.3790175296E-01   -4.3546525351E-01   -4.3289321931E-01
   -4.3018272315E-01   -4.2733081318E-01   -4.2433451425E-01   -4.2119082934E-01
   -4.1789674105E-01   -4.1444921327E-01   -4.1084519283E-01   -4.0708161133E-01
   -4.0315538703E-01   -3.9906342691E-01   -3.9480262873E-01   -3.9036988328E-01
   -3.8576207676E-01   -3.8097609319E-01   -3.7600881699E-01   -3.7085713572E-01
   -3.6551794285E-01   -3.5998814076E-01   -3.5426464376E-01   -3.4834438134E-01
   -3.4222430149E-01   -3.3590137419E-01   -3.2937259500E-01   -3.2263498885E-01
   -3.1568561390E-01   -3.0852156561E-01   -3.0113998086E-01   -2.9353804238E-01
   -2.8571298313E-01   -2.7766209096E-01   -2.6938271339E-01   -2.6087226253E-01
   -2.5212822012E-01   -2.4314814278E-01   -2.3392966738E-01   -2.2447051651E-01
   -2.1476850420E-01   -2.0482154167E-01   -1.9462764335E-01   -1.8418493290E-01
   -1.7349164947E-01   -1.6254615410E-01   -1.5134693614E-01   -1.3989261995E-01
   -1.2818197162E-01   -1.1621390583E-01   -1.0398749281E-01   -9.1501965498E-02
   -7.8756726633E-02   -6.5751356090E-02   -5.2485618215E-02   -3.8959469262E-02
   -2.5173064889E-02   -1.1126767704E-02    3.1788451397E-03    1.7742974325E-02
    3.2564590731E-02    4.7642427790E-02    6.2974973858E-02    7.8560464617E-02
    9.4396875508E-02    1.1048191424E-01    1.2681301338E-01    1.4338732301E-01
    1.6020170358E-01    1.7725271880E-01    1.9453662880E-01    2.1204938340E-01
    2.2978661565E-01    2.4774363558E-01    2.6591542421E-01    2.8429662794E-01
    3.0288155310E-01    3.2166416106E-01    3.4063806356E-01    3.5979651859E-01
    3.7913242662E-01    3.9863832742E-01    4.1830639735E-01    4.3812844724E-01
    4.5809592088E-01    4.7819989417E-01    4.9843107491E-01    5.1877980340E-01
    5.3923605379E-01    5.5978943619E-01    5.8042919974E-01    6.0114423658E-01
    6.2192308670E-01    6.4275394394E-01    6.6362466292E-01    6.8452276719E-01
    7.0543545847E-01    7.2634962717E-01    7.4725186412E-01    7.6812847370E-01
    7.8896548828E-01    8.0974868414E-01    8.3046359887E-01    8.5109555032E-01
    8.7162965717E-01    8.9205086113E-01    9.1234395091E-01    9.3249358791E-01
    9.5248433383E-01    9.7230068010E-01    9.9192707934E-01    1.0113479788E+00
    1.0305478558E+00    1.0495112555E+00    1.0682228309E+00    1.0866673847E+00
    1.1048299139E+00    1.1226956569E+00    1.1402501423E+00    1.1574792414E+00
    1.1743692224E+00    1.1909068072E+00    1.2070792320E+00    1.2228743095E+00
    1.2382804945E+00    1.2532869527E+00    1.2678836323E+00    1.2820613389E+00
    1.2958118132E+00    1.3091277859E+00    1.3220027594E+00    1.3344307517E+00
    1.3464062869E+00    1.3579244097E+00    1.3689806981E+00    1.3795712744E+00
    1.3896928146E+00    1.3993425556E+00    1.4085183000E+00    1.4172184194E+00
    1.4254418546E+00    1.4331881129E+00    1.4404572639E+00    1.4472499312E+00
    1.4535672818E+00    1.4594110122E+00    1.4647833315E+00    1.4696869406E+00
    1.4741250089E+00    1.4781011464E+00    1.4816193738E+00    1.4846840869E+00
    1.4873000199E+00    1.4894722025E+00    1.4912059155E+00    1.4925066416E+00
    1.4933800130E+00    1.4938317557E+00    1.4938676302E+00    1.4934933695E+00
    1.4927146135E+00    1.4915368408E+00    1.4899652987E+00    1.4880049293E+00
    1.4856602955E+00    1.4829355040E+00    1.4798341281E+00    1.4763591287E+00
    1.4725127762E+00    1.4682965719E+00    1.4637111701E+00    1.4587563022E+00
    1.4534307024E+00    1.4477320362E+00    1.4416568327E+00    1.4352004202E+00
    1.4283568683E+00    1.4211189341E+00    1.4134780164E+00    1.4054241170E+00
    1.3969458101E+00    1.3880302214E+00    1.3786630176E+00    1.3688284066E+00
    1.3585091501E+00    1.3476865891E+00    1.3363406833E+00    1.3244500648E+00
    1.3119921083E+00    1.2989430160E+00    1.2852779208E+00    1.2709710068E+00
    1.2559956468E+00    1.2403245599E+00    1.2239299869E+00    1.2067838851E+00
    1.1888581420E+00    1.1701248084E+00    1.1505563499E+00    1.1301259166E+00
    1.1088076312E+00    1.0865768936E+00    1.0634107006E+00    1.0392879818E+00
    1.0141899468E+00    9.8810044536E-01    9.6100633537E-01    9.3289785905E-01
    9.0376902305E-01    8.7361798045E-01    8.4244741140E-01    8.1026489918E-01
    7.7708329804E-01    7.4292108891E-01    7.0780271922E-01    6.7175892228E-01
    6.3482701192E-01    5.9705114780E-01    5.5848256654E-01    5.1917977393E-01
    4.7920869326E-01    4.3864276480E-01    3.9756299166E-01    3.5605792711E-01
    3.1422359869E-01    2.7216336482E-01    2.2998769943E-01    1.8781390114E-01
    1.4576572320E-01    1.0397292157E-01    6.2570718673E-02    2.1699181114E-02
   -1.8497489459E-02   -5.7871752541E-02   -9.6273611122E-02   -1.3355157841E-01
   -1.6955372609E-01   -2.0412880995E-01   -2.3712746784E-01   -2.6840348319E-01
   -2.9781510644E-01   -3.2522642507E-01   -3.5050877169E-01   -3.7354215803E-01
   -3.9421672167E-01   -4.1243417041E-01   -4.2810920854E-01   -4.4117092714E-01
   -4.5156414038E-01   -4.5925064770E-01   -4.6421040176E-01   -4.6644256063E-01
   -4.6596640253E-01   -4.6282208123E-01   -4.5707119994E-01   -4.4879718212E-01
   -4.3810541835E-01   -4.2512316949E-01   -4.0999920789E-01   -3.9290318070E-01
   -3.7402468195E-01   -3.5357202312E-01   -3.3177069605E-01   -3.0886152658E-01
   -2.8509852239E-01   -2.6074642464E-01   -2.3607797970E-01   -2.1137095450E-01
   -1.8690492723E-01   -1.6295789356E-01   -1.3980273787E-01   -1.1770362791E-01
   -9.6912401152E-02   -7.7665638643E-02   -6.0182262377E-02   -4.4655668713E-02
   -3.1253844223E-02   -2.0117409874E-02   -1.1357835693E-02   -5.0563088421E-03
   -1.2633459926E-03    7.7478310745E-07   -0.0000000000E+00   -0.0000000000E+00
   -0.0000000000E+00   -0.0000000000E+00   -0.0000000000E+00   -0.0000000000E+00
   -0.0000000000E+00   -0.0000000000E+00   -0.0000000000E+00   -0.0000000000E+00
   -0.0000000000E+00   -0.0000000000E+00   -0.0000000000E+00   -0.0000000000E+00
   -0.0000000000E+00   -0.0000000000E+00   -0.0000000000E+00   -0.0000000000E+00
   -0.0000000000E+00   -0.0000000000E+00   -0.0000000000E+00   -0.0000000000E+00
   -0.0000000000E+00   -0.0000000000E+00   -0.0000000000E+00   -0.0000000000E+00
   -0.0000000000E+00   -0.0000000000E+00   -0.0000000000E+00   -0.0000000000E+00
   -0.0000000000E+00   -0.0000000000E+00   -0.0000000000E+00   -0.0000000000E+00
   -0.0000000000E+00   -0.0000000000E+00   -0.0000000000E+00   -0.0000000000E+00
   -0.0000000000E+00   -0.0000000000E+00   -0.0000000000E+00   -0.0000000000E+00
   -0.0000000000E+00   -0.0000000000E+00   -0.0000000000E+00   -0.0000000000E+00
   -0.0000000000E+00   -0.0000000000E+00   -0.0000000000E+00   -0.0000000000E+00
   -0.0000000000E+00   -0.0000000000E+00   -0.0000000000E+00   -0.0000000000E+00
   -0.0000000000E+00   -0.0000000000E+00   -0.0000000000E+00   -0.0000000000E+00
   -0.0000000000E+00   -0.0000000000E+00   -0.0000000000E+00   -0.0000000000E+00
   -0.0000000000E+00   -0.0000000000E+00   -0.0000000000E+00   -0.0000000000E+00
   -0.0000000000E+00   -0.0000000000E+00   -0.0000000000E+00   -0.0000000000E+00
   -0.0000000000E+00   -0.0000000000E+00   -0.0000000000E+00   -0.0000000000E+00
   -0.0000000000E+00   -0.0000000000E+00   -0.0000000000E+00   -0.0000000000E+00
   -0.0000000000E+00   -0.0000000000E+00   -0.0000000000E+00   -0.0000000000E+00
   -0.0000000000E+00   -0.0000000000E+00   -0.0000000000E+00   -0.0000000000E+00
   -0.0000000000E+00   -0.0000000000E+00   -0.0000000000E+00   -0.0000000000E+00
   -0.0000000000E+00   -0.0000000000E+00   -0.0000000000E+00   -0.0000000000E+00
   -0.0000000000E+00   -0.0000000000E+00   -0.0000000000E+00   -0.0000000000E+00
   -0.0000000000E+00   -0.0000000000E+00   -0.0000000000E+00   -0.0000000000E+00
   -0.0000000000E+00   -0.0000000000E+00   -0.0000000000E+00   -0.0000000000E+00
   -0.0000000000E+00   -0.0000000000E+00   -0.0000000000E+00   -0.0000000000E+00
   -0.0000000000E+00   -0.0000000000E+00   -0.0000000000E+00   -0.0000000000E+00
   -0.0000000000E+00   -0.0000000000E+00   -0.0000000000E+00   -0.0000000000E+00
   -0.0000000000E+00   -0.0000000000E+00   -0.0000000000E+00   -0.0000000000E+00
   -0.0000000000E+00   -0.0000000000E+00   -0.0000000000E+00   -0.0000000000E+00
   -0.0000000000E+00   -0.0000000000E+00   -0.0000000000E+00   -0.0000000000E+00
   -0.0000000000E+00   -0.0000000000E+00   -0.0000000000E+00   -0.0000000000E+00
   -0.0000000000E+00   -0.0000000000E+00   -0.0000000000E+00   -0.0000000000E+00
   -0.0000000000E+00   -0.0000000000E+00   -0.0000000000E+00   -0.0000000000E+00
   -0.0000000000E+00   -0.0000000000E+00   -0.0000000000E+00   -0.0000000000E+00
   -0.0000000000E+00   -0.0000000000E+00   -0.0000000000E+00   -0.0000000000E+00
   -0.0000000000E+00   -0.0000000000E+00   -0.0000000000E+00   -0.0000000000E+00
   -0.0000000000E+00   -0.0000000000E+00   -0.0000000000E+00   -0.0000000000E+00
   -0.0000000000E+00   -0.0000000000E+00   -0.0000000000E+00   -0.0000000000E+00
   -0.0000000000E+00   -0.0000000000E+00   -0.0000000000E+00   -0.0000000000E+00
   -0.0000000000E+00   -0.0000000000E+00   -0.0000000000E+00   -0.0000000000E+00
   -0.0000000000E+00   -0.0000000000E+00   -0.0000000000E+00   -0.0000000000E+00
   -0.0000000000E+00   -0.0000000000E+00   -0.0000000000E+00   -0.0000000000E+00
   -0.0000000000E+00   -0.0000000000E+00   -0.0000000000E+00   -0.0000000000E+00
   -0.0000000000E+00   -0.0000000000E+00   -0.0000000000E+00   -0.0000000000E+00
   -0.0000000000E+00   -0.0000000000E+00   -0.0000000000E+00   -0.0000000000E+00
   -0.0000000000E+00   -0.0000000000E+00   -0.0000000000E+00   -0.0000000000E+00
   -0.0000000000E+00   -0.0000000000E+00   -0.0000000000E+00   -0.0000000000E+00
   -0.0000000000E+00   -0.0000000000E+00   -0.0000000000E+00   -0.0000000000E+00
   -0.0000000000E+00   -0.0000000000E+00   -0.0000000000E+00   -0.0000000000E+00
   -0.0000000000E+00   -0.0000000000E+00   -0.0000000000E+00   -0.0000000000E+00
   -0.0000000000E+00   -0.0000000000E+00   -0.0000000000E+00   -0.0000000000E+00
   -0.0000000000E+00   -0.0000000000E+00   -0.0000000000E+00   -0.0000000000E+00
   -0.0000000000E+00   -0.0000000000E+00   -0.0000000000E+00   -0.0000000000E+00
   -0.0000000000E+00   -0.0000000000E+00   -0.0000000000E+00   -0.0000000000E+00
   -0.0000000000E+00   -0.0000000000E+00   -0.0000000000E+00   -0.0000000000E+00
   -0.0000000000E+00   -0.0000000000E+00   -0.0000000000E+00   -0.0000000000E+00
   -0.0000000000E+00   -0.0000000000E+00   -0.0000000000E+00   -0.0000000000E+00
   -0.0000000000E+00   -0.0000000000E+00   -0.0000000000E+00   -0.0000000000E+00
   -0.0000000000E+00   -0.0000000000E+00   -0.0000000000E+00   -0.0000000000E+00
   -0.0000000000E+00   -0.0000000000E+00   -0.0000000000E+00   -0.0000000000E+00
   -0.0000000000E+00   -0.0000000000E+00   -0.0000000000E+00   -0.0000000000E+00
   -0.0000000000E+00   -0.0000000000E+00   -0.0000000000E+00   -0.0000000000E+00
   -0.0000000000E+00   -0.0000000000E+00   -0.0000000000E+00   -0.0000000000E+00
   -0.0000000000E+00   -0.0000000000E+00   -0.0000000000E+00   -0.0000000000E+00
   -0.0000000000E+00   -0.0000000000E+00   -0.0000000000E+00   -0.0000000000E+00
   -0.0000000000E+00   -0.0000000000E+00   -0.0000000000E+00   -0.0000000000E+00
   -0.0000000000E+00   -0.0000000000E+00   -0.0000000000E+00   -0.0000000000E+00
   -0.0000000000E+00   -0.0000000000E+00   -0.0000000000E+00   -0.0000000000E+00
   -0.0000000000E+00   -0.0000000000E+00   -0.0000000000E+00   -0.0000000000E+00
   -0.0000000000E+00   -0.0000000000E+00   -0.0000000000E+00   -0.0000000000E+00
   -0.0000000000E+00   -0.0000000000E+00   -0.0000000000E+00   -0.0000000000E+00
   -0.0000000000E+00   -0.0000000000E+00   -0.0000000000E+00   -0.0000000000E+00
   -0.0000000000E+00   -0.0000000000E+00   -0.0000000000E+00   -0.0000000000E+00
   -0.0000000000E+00   -0.0000000000E+00   -0.0000000000E+00   -0.0000000000E+00
   -0.0000000000E+00   -0.0000000000E+00   -0.0000000000E+00   -0.0000000000E+00
   -0.0000000000E+00   -0.0000000000E+00   -0.0000000000E+00   -0.0000000000E+00
   -0.0000000000E+00   -0.0000000000E+00   -0.0000000000E+00   -0.0000000000E+00
   -0.0000000000E+00   -0.0000000000E+00   -0.0000000000E+00   -0.0000000000E+00
   -0.0000000000E+00   -0.0000000000E+00   -0.0000000000E+00   -0.0000000000E+00
   -0.0000000000E+00   -0.0000000000E+00   -0.0000000000E+00   -0.0000000000E+00
   -0.0000000000E+00   -0.0000000000E+00   -0.0000000000E+00   -0.0000000000E+00
   -0.0000000000E+00   -0.0000000000E+00   -0.0000000000E+00   -0.0000000000E+00
   -0.0000000000E+00   -0.0000000000E+00   -0.0000000000E+00   -0.0000000000E+00
   -0.0000000000E+00   -0.0000000000E+00   -0.0000000000E+00   -0.0000000000E+00
   -0.0000000000E+00   -0.0000000000E+00   -0.0000000000E+00   -0.0000000000E+00
   -0.0000000000E+00   -0.0000000000E+00   -0.0000000000E+00   -0.0000000000E+00
   -0.0000000000E+00   -0.0000000000E+00   -0.0000000000E+00   -0.0000000000E+00
   -0.0000000000E+00   -0.0000000000E+00   -0.0000000000E+00   -0.0000000000E+00
   -0.0000000000E+00   -0.0000000000E+00   -0.0000000000E+00   -0.0000000000E+00
   -0.0000000000E+00   -0.0000000000E+00   -0.0000000000E+00   -0.0000000000E+00
   -0.0000000000E+00   -0.0000000000E+00   -0.0000000000E+00   -0.0000000000E+00
   -0.0000000000E+00   -0.0000000000E+00   -0.0000000000E+00   -0.0000000000E+00
   -0.0000000000E+00   -0.0000000000E+00   -0.0000000000E+00   -0.0000000000E+00
   -0.0000000000E+00   -0.0000000000E+00   -0.0000000000E+00   -0.0000000000E+00
   -0.0000000000E+00   -0.0000000000E+00   -0.0000000000E+00   -0.0000000000E+00
   -0.0000000000E+00   -0.0000000000E+00   -0.0000000000E+00   -0.0000000000E+00
   -0.0000000000E+00   -0.0000000000E+00   -0.0000000000E+00   -0.0000000000E+00
   -0.0000000000E+00   -0.0000000000E+00   -0.0000000000E+00   -0.0000000000E+00
   -0.0000000000E+00   -0.0000000000E+00   -0.0000000000E+00   -0.0000000000E+00
   -0.0000000000E+00   -0.0000000000E+00   -0.0000000000E+00   -0.0000000000E+00
   -0.0000000000E+00   -0.0000000000E+00   -0.0000000000E+00   -0.0000000000E+00
   -0.0000000000E+00   -0.0000000000E+00   -0.0000000000E+00   -0.0000000000E+00
   -0.0000000000E+00   -0.0000000000E+00   -0.0000000000E+00   -0.0000000000E+00
   -0.0000000000E+00   -0.0000000000E+00   -0.0000000000E+00   -0.0000000000E+00
   -0.0000000000E+00   -0.0000000000E+00   -0.0000000000E+00   -0.0000000000E+00
   -0.0000000000E+00   -0.0000000000E+00   -0.0000000000E+00   -0.0000000000E+00
   -0.0000000000E+00   -0.0000000000E+00   -0.0000000000E+00   -0.0000000000E+00
   -0.0000000000E+00   -0.0000000000E+00   -0.0000000000E+00   -0.0000000000E+00
   -0.0000000000E+00   -0.0000000000E+00   -0.0000000000E+00   -0.0000000000E+00
   -0.0000000000E+00   -0.0000000000E+00   -0.0000000000E+00   -0.0000000000E+00
   -0.0000000000E+00   -0.0000000000E+00   -0.0000000000E+00   -0.0000000000E+00
   -0.0000000000E+00   -0.0000000000E+00   -0.0000000000E+00   -0.0000000000E+00
   -0.0000000000E+00   -0.0000000000E+00   -0.0000000000E+00   -0.0000000000E+00
   -0.0000000000E+00   -0.0000000000E+00   -0.0000000000E+00   -0.0000000000E+00
   -0.0000000000E+00   -0.0000000000E+00   -0.0000000000E+00   -0.0000000000E+00
   -0.0000000000E+00   -0.0000000000E+00   -0.0000000000E+00   -0.0000000000E+00
   -0.0000000000E+00   -0.0000000000E+00   -0.0000000000E+00   -0.0000000000E+00
   -0.0000000000E+00   -0.0000000000E+00   -0.0000000000E+00   -0.0000000000E+00
   -0.0000000000E+00   -0.0000000000E+00   -0.0000000000E+00   -0.0000000000E+00
   -0.0000000000E+00   -0.0000000000E+00   -0.0000000000E+00   -0.0000000000E+00
   -0.0000000000E+00   -0.0000000000E+00   -0.0000000000E+00   -0.0000000000E+00
   -0.0000000000E+00   -0.0000000000E+00   -0.0000000000E+00   -0.0000000000E+00
   -0.0000000000E+00   -0.0000000000E+00   -0.0000000000E+00   -0.0000000000E+00
   -0.0000000000E+00   -0.0000000000E+00   -0.0000000000E+00   -0.0000000000E+00
   -0.0000000000E+00   -0.0000000000E+00   -0.0000000000E+00   -0.0000000000E+00
   -0.0000000000E+00   -0.0000000000E+00   -0.0000000000E+00   -0.0000000000E+00
   -0.0000000000E+00   -0.0000000000E+00   -0.0000000000E+00   -0.0000000000E+00
   -0.0000000000E+00   -0.0000000000E+00   -0.0000000000E+00   -0.0000000000E+00
   -0.0000000000E+00   -0.0000000000E+00   -0.0000000000E+00   -0.0000000000E+00
   -0.0000000000E+00   -0.0000000000E+00   -0.0000000000E+00   -0.0000000000E+00
   -0.0000000000E+00   -0.0000000000E+00   -0.0000000000E+00   -0.0000000000E+00
   -0.0000000000E+00   -0.0000000000E+00   -0.0000000000E+00   -0.0000000000E+00
   -0.0000000000E+00   -0.0000000000E+00   -0.0000000000E+00   -0.0000000000E+00
   -0.0000000000E+00   -0.0000000000E+00   -0.0000000000E+00   -0.0000000000E+00
   -0.0000000000E+00   -0.0000000000E+00   -0.0000000000E+00   -0.0000000000E+00
   -0.0000000000E+00   -0.0000000000E+00   -0.0000000000E+00
   </PP_BETA.2>
   <PP_BETA.3
       type="real"
       size="  2291"
       columns="4"
       index="3"
       angular_momentum="1"
       cutoff_radius_index="  1742"
       cutoff_radius="    1.6674562108E+00" >
    8.3643525405E-08    8.4650258870E-08    8.5669108787E-08    8.6700222633E-08
    8.7743740659E-08    8.8799825117E-08    8.9868622745E-08    9.0950281697E-08
    9.2044962229E-08    9.3152811466E-08    9.4273998109E-08    9.5408684431E-08
    9.6557022256E-08    9.7719176580E-08    9.8895330616E-08    1.0008563261E-07
    1.0129026241E-07    1.0250939206E-07    1.0374319368E-07    1.0499184911E-07
    1.0625553127E-07    1.0753441916E-07    1.0882870257E-07    1.1013856795E-07
    1.1146419473E-07    1.1280577939E-07    1.1416350647E-07    1.1553758269E-07
    1.1692819335E-07    1.1833553764E-07    1.1975982606E-07    1.2120125871E-07
    1.2266002982E-07    1.2413636623E-07    1.2563047556E-07    1.2714256332E-07
    1.2867284741E-07    1.3022155610E-07    1.3178890730E-07    1.3337511724E-07
    1.3498042305E-07    1.3660504062E-07    1.3824922225E-07    1.3991319161E-07
    1.4159718229E-07    1.4330144837E-07    1.4502622423E-07    1.4677176034E-07
    1.4853830565E-07    1.5032611418E-07    1.5213543491E-07    1.5396654048E-07
    1.5581967863E-07    1.5769512286E-07    1.5959314562E-07    1.6151400465E-07
    1.6345798962E-07    1.6542537167E-07    1.6741642704E-07    1.6943145471E-07
    1.7147072971E-07    1.7353455525E-07    1.7562321527E-07    1.7773701275E-07
    1.7987625341E-07    1.8204124834E-07    1.8423229557E-07    1.8644971168E-07
    1.8869382419E-07    1.9096494308E-07    1.9326339782E-07    1.9558951525E-07
    1.9794363027E-07    2.0032607913E-07    2.0273720304E-07    2.0517734719E-07
    2.0764686325E-07    2.1014610044E-07    2.1267541590E-07    2.1523517548E-07
    2.1782574993E-07    2.2044750113E-07    2.2310080904E-07    2.2578605093E-07
    2.2850361229E-07    2.3125388389E-07    2.3403724946E-07    2.3685412061E-07
    2.3970489571E-07    2.4258998816E-07    2.4550979906E-07    2.4846475603E-07
    2.5145527608E-07    2.5448179259E-07    2.5754473270E-07    2.6064454428E-07
    2.6378166567E-07    2.6695654006E-07    2.7016962201E-07    2.7342138769E-07
    2.7671228546E-07    2.8004279464E-07    2.8341338682E-07    2.8682455313E-07
    2.9027677320E-07    2.9377054258E-07    2.9730636741E-07    3.0088474476E-07
    3.0450619797E-07    3.0817122990E-07    3.1188038078E-07    3.1563416987E-07
    3.1943314514E-07    3.2327784009E-07    3.2716881521E-07    3.3110661661E-07
    3.3509181265E-07    3.3912498380E-07    3.4320669119E-07    3.4733752620E-07
    3.5151807711E-07    3.5574895005E-07    3.6003074042E-07    3.6436407318E-07
    3.6874956085E-07    3.7318782588E-07    3.7767951648E-07    3.8222526460E-07
    3.8682573002E-07    3.9148156108E-07    3.9619343366E-07    4.0096202001E-07
    4.0578799365E-07    4.1067206305E-07    4.1561490640E-07    4.2061725119E-07
    4.2567979633E-07    4.3080328133E-07    4.3598842109E-07    4.4123598170E-07
    4.4654669590E-07    4.5192133578E-07    4.5736066082E-07    4.6286544877E-07
    4.6843650273E-07    4.7407460021E-07    4.7978056004E-07    4.8555520154E-07
    4.9139934156E-07    4.9731382507E-07    5.0329949352E-07    5.0935720512E-07
    5.1548782776E-07    5.2169223867E-07    5.2797132261E-07    5.3432598553E-07
    5.4075713342E-07    5.4726568672E-07    5.5385257279E-07    5.6051874336E-07
    5.6726514837E-07    5.7409274903E-07    5.8100252306E-07    5.8799547277E-07
    5.9507258888E-07    6.0223487682E-07    6.0948337589E-07    6.1681911535E-07
    6.2424314845E-07    6.3175654175E-07    6.3936036313E-07    6.4705570135E-07
    6.5484366293E-07    6.6272536070E-07    6.7070191863E-07    6.7877448697E-07
    6.8694421561E-07    6.9521227796E-07    7.0357984639E-07    7.1204813117E-07
    7.2061834155E-07    7.2929170430E-07    7.3806945778E-07    7.4695285928E-07
    7.5594318299E-07    7.6504171225E-07    7.7424975500E-07    7.8356862282E-07
    7.9299965631E-07    8.0254419623E-07    8.1220361745E-07    8.2197929615E-07
    8.3187263601E-07    8.4188505409E-07    8.5201798503E-07    8.6227286858E-07
    8.7265118117E-07    8.8315440862E-07    8.9378405234E-07    9.0454163879E-07
    9.1542869660E-07    9.2644679543E-07    9.3759750569E-07    9.4888242731E-07
    9.6030316771E-07    9.7186137551E-07    9.8355870100E-07    9.9539680924E-07
    1.0073774041E-06    1.0195021920E-06    1.0317729203E-06    1.0441913321E-06
    1.0567592200E-06    1.0694783666E-06    1.0823506057E-06    1.0953777806E-06
    1.1085617447E-06    1.1219043839E-06    1.1354076231E-06    1.1490733866E-06
    1.1629036279E-06    1.1769003336E-06    1.1910655045E-06    1.2054011629E-06
    1.2199093647E-06    1.2345921932E-06    1.2494517384E-06    1.2644901394E-06
    1.2797095334E-06    1.2951121143E-06    1.3107000777E-06    1.3264756594E-06
    1.3424411160E-06    1.3585987312E-06    1.3749508236E-06    1.3914997226E-06
    1.4082478116E-06    1.4251974734E-06    1.4423511455E-06    1.4597112762E-06
    1.4772803557E-06    1.4950608963E-06    1.5130554413E-06    1.5312665682E-06
    1.5496968882E-06    1.5683490382E-06    1.5872256748E-06    1.6063295177E-06
    1.6256632882E-06    1.6452297674E-06    1.6650317457E-06    1.6850720608E-06
    1.7053535778E-06    1.7258792007E-06    1.7466518834E-06    1.7676745748E-06
    1.7889502983E-06    1.8104820915E-06    1.8322730440E-06    1.8543262746E-06
    1.8766449399E-06    1.8992322266E-06    1.9220913743E-06    1.9452256523E-06
    1.9686383793E-06    1.9923329053E-06    2.0163126098E-06    2.0405809349E-06
    2.0651413552E-06    2.0899973807E-06    2.1151525804E-06    2.1406105469E-06
    2.1663749199E-06    2.1924493935E-06    2.2188377036E-06    2.2455436226E-06
    2.2725709687E-06    2.2999236161E-06    2.3276054822E-06    2.3556205281E-06
    2.3839727565E-06    2.4126662412E-06    2.4417050691E-06    2.4710934197E-06
    2.5008354794E-06    2.5309355171E-06    2.5613978425E-06    2.5922268073E-06
    2.6234268305E-06    2.6550023763E-06    2.6869579630E-06    2.7192981709E-06
    2.7520276227E-06    2.7851510036E-06    2.8186730657E-06    2.8525985853E-06
    2.8869324402E-06    2.9216795358E-06    2.9568448435E-06    2.9924334058E-06
    3.0284503040E-06    3.0649007104E-06    3.1017898319E-06    3.1391229426E-06
    3.1769053973E-06    3.2151425998E-06    3.2538400338E-06    3.2930032169E-06
    3.3326377775E-06    3.3727493764E-06    3.4133437525E-06    3.4544267190E-06
    3.4960041663E-06    3.5380820428E-06    3.5806663620E-06    3.6237632257E-06
    3.6673788010E-06    3.7115193334E-06    3.7561911416E-06    3.8014006160E-06
    3.8471542336E-06    3.8934585385E-06    3.9403201647E-06    3.9877458157E-06
    4.0357422737E-06    4.0843164258E-06    4.1334752086E-06    4.1832256701E-06
    4.2335749250E-06    4.2845301831E-06    4.3360987332E-06    4.3882879629E-06
    4.4411053455E-06    4.4945584269E-06    4.5486548785E-06    4.6034024297E-06
    4.6588089210E-06    4.7148822845E-06    4.7716305448E-06    4.8290618257E-06
    4.8871843440E-06    4.9460064286E-06    5.0055364928E-06    5.0657830594E-06
    5.1267547459E-06    5.1884602969E-06    5.2509085277E-06    5.3141083867E-06
    5.3780689117E-06    5.4427992704E-06    5.5083087194E-06    5.5746066343E-06
    5.6417025081E-06    5.7096059495E-06    5.7783266760E-06    5.8478745156E-06
    5.9182594404E-06    5.9894915122E-06    6.0615809287E-06    6.1345380108E-06
    6.2083732041E-06    6.2830970744E-06    6.3587203183E-06    6.4352537591E-06
    6.5127083602E-06    6.5910951926E-06    6.6704254901E-06    6.7507106077E-06
    6.8319620313E-06    6.9141913933E-06    6.9974104639E-06    7.0816311586E-06
    7.1668655254E-06    7.2531257756E-06    7.3404242481E-06    7.4287734427E-06
    7.5181860034E-06    7.6086747280E-06    7.7002525736E-06    7.7929326444E-06
    7.8867282049E-06    7.9816526911E-06    8.0777196812E-06    8.1749429291E-06
    8.2733363484E-06    8.3729140318E-06    8.4736902246E-06    8.5756793615E-06
    8.6788960226E-06    8.7833550094E-06    8.8890712472E-06    8.9960598843E-06
    9.1043362315E-06    9.2139157853E-06    9.3248142325E-06    9.4370474483E-06
    9.5506314983E-06    9.6655826387E-06    9.7819173258E-06    9.8996522094E-06
    1.0018804149E-05    1.0139390184E-05    1.0261427593E-05    1.0384933837E-05
    1.0509926592E-05    1.0636423757E-05    1.0764443433E-05    1.0894003943E-05
    1.1025123836E-05    1.1157821882E-05    1.1292117073E-05    1.1428028631E-05
    1.1565576010E-05    1.1704778904E-05    1.1845657233E-05    1.1988231164E-05
    1.2132521105E-05    1.2278547712E-05    1.2426331879E-05    1.2575894773E-05
    1.2727257790E-05    1.2880442604E-05    1.3035471139E-05    1.3192365590E-05
    1.3351148405E-05    1.3511842321E-05    1.3674470336E-05    1.3839055729E-05
    1.4005622054E-05    1.4174193158E-05    1.4344793181E-05    1.4517446533E-05
    1.4692177913E-05    1.4869012354E-05    1.5047975157E-05    1.5229091945E-05
    1.5412388632E-05    1.5597891468E-05    1.5785626996E-05    1.5975622094E-05
    1.6167903959E-05    1.6362500104E-05    1.6559438394E-05    1.6758747015E-05
    1.6960454493E-05    1.7164589707E-05    1.7371181871E-05    1.7580260555E-05
    1.7791855693E-05    1.8005997566E-05    1.8222716828E-05    1.8442044502E-05
    1.8664011984E-05    1.8888651043E-05    1.9115993826E-05    1.9346072891E-05
    1.9578921161E-05    1.9814571967E-05    2.0053059036E-05    2.0294416514E-05
    2.0538678938E-05    2.0785881275E-05    2.1036058913E-05    2.1289247658E-05
    2.1545483755E-05    2.1804803880E-05    2.2067245144E-05    2.2332845122E-05
    2.2601641821E-05    2.2873673731E-05    2.3148979782E-05    2.3427599373E-05
    2.3709572400E-05    2.3994939216E-05    2.4283740663E-05    2.4576018088E-05
    2.4871813324E-05    2.5171168707E-05    2.5474127090E-05    2.5780731838E-05
    2.6091026839E-05    2.6405056494E-05    2.6722865773E-05    2.7044500158E-05
    2.7370005677E-05    2.7699428932E-05    2.8032817079E-05    2.8370217826E-05
    2.8711679479E-05    2.9057250909E-05    2.9406981574E-05    2.9760921553E-05
    3.0119121479E-05    3.0481632645E-05    3.0848506931E-05    3.1219796857E-05
    3.1595555555E-05    3.1975836817E-05    3.2360695083E-05    3.2750185430E-05
    3.3144363608E-05    3.3543286043E-05    3.3947009835E-05    3.4355592758E-05
    3.4769093323E-05    3.5187570688E-05    3.5611084759E-05    3.6039696173E-05
    3.6473466261E-05    3.6912457112E-05    3.7356731572E-05    3.7806353221E-05
    3.8261386423E-05    3.8721896302E-05    3.9187948782E-05    3.9659610563E-05
    4.0136949160E-05    4.0620032897E-05    4.1108930917E-05    4.1603713205E-05
    4.2104450570E-05    4.2611214691E-05    4.3124078100E-05    4.3643114217E-05
    4.4168397318E-05    4.4700002595E-05    4.5238006148E-05    4.5782484961E-05
    4.6333516994E-05    4.6891181090E-05    4.7455557090E-05    4.8026725764E-05
    4.8604768871E-05    4.9189769152E-05    4.9781810325E-05    5.0380977143E-05
    5.0987355366E-05    5.1601031775E-05    5.2222094217E-05    5.2850631582E-05
    5.3486733834E-05    5.4130492026E-05    5.4781998291E-05    5.5441345881E-05
    5.6108629174E-05    5.6783943674E-05    5.7467386047E-05    5.8159054109E-05
    5.8859046857E-05    5.9567464490E-05    6.0284408395E-05    6.1009981196E-05
    6.1744286737E-05    6.2487430123E-05    6.3239517719E-05    6.4000657177E-05
    6.4770957431E-05    6.5550528739E-05    6.6339482671E-05    6.7137932172E-05
    6.7945991493E-05    6.8763776311E-05    6.9591403668E-05    7.0428992021E-05
    7.1276661253E-05    7.2134532691E-05    7.3002729126E-05    7.3881374807E-05
    7.4770595501E-05    7.5670518482E-05    7.6581272552E-05    7.7502988056E-05
    7.8435796926E-05    7.9379832671E-05    8.0335230413E-05    8.1302126880E-05
    8.2280660469E-05    8.3270971236E-05    8.4273200916E-05    8.5287492956E-05
    8.6313992519E-05    8.7352846534E-05    8.8404203681E-05    8.9468214443E-05
    9.0545031097E-05    9.1634807757E-05    9.2737700411E-05    9.3853866906E-05
    9.4983466981E-05    9.6126662320E-05    9.7283616533E-05    9.8454495209E-05
    9.9639465932E-05    1.0083869830E-04    1.0205236393E-04    1.0328063655E-04
    1.0452369194E-04    1.0578170801E-04    1.0705486481E-04    1.0834334455E-04
    1.0964733165E-04    1.1096701272E-04    1.1230257664E-04    1.1365421457E-04
    1.1502211994E-04    1.1640648853E-04    1.1780751846E-04    1.1922541027E-04
    1.2066036686E-04    1.2211259360E-04    1.2358229835E-04    1.2506969143E-04
    1.2657498573E-04    1.2809839667E-04    1.2964014228E-04    1.3120044321E-04
    1.3277952276E-04    1.3437760693E-04    1.3599492443E-04    1.3763170671E-04
    1.3928818803E-04    1.4096460546E-04    1.4266119890E-04    1.4437821118E-04
    1.4611588802E-04    1.4787447809E-04    1.4965423309E-04    1.5145540772E-04
    1.5327825973E-04    1.5512305000E-04    1.5699004256E-04    1.5887950458E-04
    1.6079170647E-04    1.6272692188E-04    1.6468542777E-04    1.6666750440E-04
    1.6867343544E-04    1.7070350795E-04    1.7275801246E-04    1.7483724297E-04
    1.7694149704E-04    1.7907107581E-04    1.8122628403E-04    1.8340743013E-04
    1.8561482624E-04    1.8784878825E-04    1.9010963586E-04    1.9239769259E-04
    1.9471328589E-04    1.9705674711E-04    1.9942841162E-04    2.0182861881E-04
    2.0425771216E-04    2.0671603926E-04    2.0920395191E-04    2.1172180614E-04
    2.1426996224E-04    2.1684878486E-04    2.1945864303E-04    2.2209991021E-04
    2.2477296436E-04    2.2747818800E-04    2.3021596822E-04    2.3298669679E-04
    2.3579077022E-04    2.3862858971E-04    2.4150056138E-04    2.4440709618E-04
    2.4734861001E-04    2.5032552378E-04    2.5333826347E-04    2.5638726018E-04
    2.5947295020E-04    2.6259577504E-04    2.6575618156E-04    2.6895462199E-04
    2.7219155398E-04    2.7546744069E-04    2.7878275088E-04    2.8213795891E-04
    2.8553354487E-04    2.8896999461E-04    2.9244779985E-04    2.9596745819E-04
    2.9952947325E-04    3.0313435469E-04    3.0678261829E-04    3.1047478607E-04
    3.1421138629E-04    3.1799295359E-04    3.2182002903E-04    3.2569316019E-04
    3.2961290121E-04    3.3357981292E-04    3.3759446290E-04    3.4165742554E-04
    3.4576928214E-04    3.4993062100E-04    3.5414203750E-04    3.5840413417E-04
    3.6271752079E-04    3.6708281448E-04    3.7150063978E-04    3.7597162874E-04
    3.8049642102E-04    3.8507566395E-04    3.8971001268E-04    3.9440013020E-04
    3.9914668752E-04    4.0395036368E-04    4.0881184590E-04    4.1373182969E-04
    4.1871101888E-04    4.2375012579E-04    4.2884987132E-04    4.3401098501E-04
    4.3923420519E-04    4.4452027907E-04    4.4986996283E-04    4.5528402177E-04
    4.6076323039E-04    4.6630837247E-04    4.7192024125E-04    4.7759963950E-04
    4.8334737964E-04    4.8916428386E-04    4.9505118425E-04    5.0100892287E-04
    5.0703835195E-04    5.1314033395E-04    5.1931574167E-04    5.2556545846E-04
    5.3189037826E-04    5.3829140575E-04    5.4476945652E-04    5.5132545714E-04
    5.5796034534E-04    5.6467507010E-04    5.7147059183E-04    5.7834788249E-04
    5.8530792571E-04    5.9235171696E-04    5.9948026368E-04    6.0669458540E-04
    6.1399571394E-04    6.2138469349E-04    6.2886258083E-04    6.3643044540E-04
    6.4408936954E-04    6.5184044858E-04    6.5968479102E-04    6.6762351868E-04
    6.7565776687E-04    6.8378868457E-04    6.9201743453E-04    7.0034519349E-04
    7.0877315237E-04    7.1730251636E-04    7.2593450515E-04    7.3467035310E-04
    7.4351130940E-04    7.5245863826E-04    7.6151361907E-04    7.7067754661E-04
    7.7995173122E-04    7.8933749898E-04    7.9883619192E-04    8.0844916819E-04
    8.1817780226E-04    8.2802348514E-04    8.3798762452E-04    8.4807164503E-04
    8.5827698842E-04    8.6860511376E-04    8.7905749764E-04    8.8963563443E-04
    9.0034103641E-04    9.1117523407E-04    9.2213977628E-04    9.3323623048E-04
    9.4446618301E-04    9.5583123924E-04    9.6733302380E-04    9.7897318088E-04
    9.9075337440E-04    1.0026752883E-03    1.0147406267E-03    1.0269511142E-03
    1.0393084962E-03    1.0518145389E-03    1.0644710299E-03    1.0772797783E-03
    1.0902426146E-03    1.1033613916E-03    1.1166379843E-03    1.1300742902E-03
    1.1436722296E-03    1.1574337457E-03    1.1713608053E-03    1.1854553986E-03
    1.1997195399E-03    1.2141552676E-03    1.2287646445E-03    1.2435497582E-03
    1.2585127215E-03    1.2736556725E-03    1.2889807749E-03    1.3044902184E-03
    1.3201862190E-03    1.3360710195E-03    1.3521468892E-03    1.3684161251E-03
    1.3848810516E-03    1.4015440208E-03    1.4184074133E-03    1.4354736383E-03
    1.4527451337E-03    1.4702243667E-03    1.4879138344E-03    1.5058160635E-03
    1.5239336113E-03    1.5422690656E-03    1.5608250453E-03    1.5796042009E-03
    1.5986092145E-03    1.6178428005E-03    1.6373077058E-03    1.6570067102E-03
    1.6769426272E-03    1.6971183035E-03    1.7175366205E-03    1.7382004939E-03
    1.7591128743E-03    1.7802767479E-03    1.8016951365E-03    1.8233710985E-03
    1.8453077286E-03    1.8675081588E-03    1.8899755587E-03    1.9127131358E-03
    1.9357241362E-03    1.9590118449E-03    1.9825795861E-03    2.0064307241E-03
    2.0305686636E-03    2.0549968498E-03    2.0797187694E-03    2.1047379509E-03
    2.1300579653E-03    2.1556824259E-03    2.1816149899E-03    2.2078593578E-03
    2.2344192749E-03    2.2612985312E-03    2.2885009621E-03    2.3160304489E-03
    2.3438909197E-03    2.3720863493E-03    2.4006207605E-03    2.4294982239E-03
    2.4587228593E-03    2.4882988355E-03    2.5182303714E-03    2.5485217366E-03
    2.5791772514E-03    2.6102012883E-03    2.6415982720E-03    2.6733726801E-03
    2.7055290440E-03    2.7380719492E-03    2.7710060362E-03    2.8043360011E-03
    2.8380665962E-03    2.8722026306E-03    2.9067489710E-03    2.9417105425E-03
    2.9770923290E-03    3.0128993741E-03    3.0491367819E-03    3.0858097173E-03
    3.1229234073E-03    3.1604831411E-03    3.1984942716E-03    3.2369622155E-03
    3.2758924543E-03    3.3152905351E-03    3.3551620713E-03    3.3955127437E-03
    3.4363483006E-03    3.4776745595E-03    3.5194974072E-03    3.5618228008E-03
    3.6046567689E-03    3.6480054120E-03    3.6918749036E-03    3.7362714908E-03
    3.7812014957E-03    3.8266713157E-03    3.8726874247E-03    3.9192563740E-03
    3.9663847932E-03    4.0140793910E-03    4.0623469562E-03    4.1111943590E-03
    4.1606285513E-03    4.2106565681E-03    4.2612855286E-03    4.3125226369E-03
    4.3643751830E-03    4.4168505440E-03    4.4699561850E-03    4.5236996605E-03
    4.5780886147E-03    4.6331307834E-03    4.6888339944E-03    4.7452061692E-03
    4.8022553235E-03    4.8599895687E-03    4.9184171132E-03    4.9775462628E-03
    5.0373854229E-03    5.0979430985E-03    5.1592278966E-03    5.2212485264E-03
    5.2840138009E-03    5.3475326384E-03    5.4118140632E-03    5.4768672072E-03
    5.5427013111E-03    5.6093257258E-03    5.6767499133E-03    5.7449834484E-03
    5.8140360200E-03    5.8839174322E-03    5.9546376059E-03    6.0262065799E-03
    6.0986345127E-03    6.1719316836E-03    6.2461084941E-03    6.3211754694E-03
    6.3971432602E-03    6.4740226434E-03    6.5518245244E-03    6.6305599380E-03
    6.7102400503E-03    6.7908761601E-03    6.8724797004E-03    6.9550622401E-03
    7.0386354855E-03    7.1232112818E-03    7.2088016152E-03    7.2954186139E-03
    7.3830745501E-03    7.4717818419E-03    7.5615530545E-03    7.6524009024E-03
    7.7443382508E-03    7.8373781176E-03    7.9315336748E-03    8.0268182510E-03
    8.1232453324E-03    8.2208285654E-03    8.3195817579E-03    8.4195188814E-03
    8.5206540730E-03    8.6230016371E-03    8.7265760475E-03    8.8313919495E-03
    8.9374641616E-03    9.0448076777E-03    9.1534376691E-03    9.2633694865E-03
    9.3746186622E-03    9.4872009121E-03    9.6011321380E-03    9.7164284295E-03
    9.8331060665E-03    9.9511815208E-03    1.0070671459E-02    1.0191592745E-02
    1.0313962441E-02    1.0437797811E-02    1.0563116322E-02    1.0689935648E-02
    1.0818273671E-02    1.0948148485E-02    1.1079578394E-02    1.1212581921E-02
    1.1347177806E-02    1.1483385011E-02    1.1621222718E-02    1.1760710338E-02
    1.1901867509E-02    1.2044714101E-02    1.2189270217E-02    1.2335556196E-02
    1.2483592617E-02    1.2633400301E-02    1.2785000312E-02    1.2938413962E-02
    1.3093662815E-02    1.3250768687E-02    1.3409753649E-02    1.3570640031E-02
    1.3733450428E-02    1.3898207695E-02    1.4064934958E-02    1.4233655614E-02
    1.4404393332E-02    1.4577172061E-02    1.4752016027E-02    1.4928949742E-02
    1.5107998003E-02    1.5289185899E-02    1.5472538810E-02    1.5658082412E-02
    1.5845842685E-02    1.6035845907E-02    1.6228118667E-02    1.6422687860E-02
    1.6619580700E-02    1.6818824712E-02    1.7020447747E-02    1.7224477978E-02
    1.7430943905E-02    1.7639874361E-02    1.7851298515E-02    1.8065245873E-02
    1.8281746287E-02    1.8500829953E-02    1.8722527418E-02    1.8946869586E-02
    1.9173887715E-02    1.9403613431E-02    1.9636078722E-02    1.9871315949E-02
    2.0109357846E-02    2.0350237529E-02    2.0593988492E-02    2.0840644621E-02
    2.1090240192E-02    2.1342809876E-02    2.1598388746E-02    2.1857012277E-02
    2.2118716356E-02    2.2383537281E-02    2.2651511772E-02    2.2922676967E-02
    2.3197070434E-02    2.3474730174E-02    2.3755694622E-02    2.4040002657E-02
    2.4327693602E-02    2.4618807234E-02    2.4913383784E-02    2.5211463944E-02
    2.5513088874E-02    2.5818300202E-02    2.6127140034E-02    2.6439650958E-02
    2.6755876047E-02    2.7075858866E-02    2.7399643478E-02    2.7727274447E-02
    2.8058796845E-02    2.8394256256E-02    2.8733698786E-02    2.9077171062E-02
    2.9424720240E-02    2.9776394015E-02    3.0132240619E-02    3.0492308833E-02
    3.0856647990E-02    3.1225307979E-02    3.1598339258E-02    3.1975792849E-02
    3.2357720356E-02    3.2744173959E-02    3.3135206432E-02    3.3530871138E-02
    3.3931222043E-02    3.4336313721E-02    3.4746201355E-02    3.5160940750E-02
    3.5580588336E-02    3.6005201175E-02    3.6434836967E-02    3.6869554057E-02
    3.7309411443E-02    3.7754468779E-02    3.8204786386E-02    3.8660425254E-02
    3.9121447055E-02    3.9587914143E-02    4.0059889566E-02    4.0537437070E-02
    4.1020621108E-02    4.1509506845E-02    4.2004160168E-02    4.2504647690E-02
    4.3011036758E-02    4.3523395462E-02    4.4041792640E-02    4.4566297888E-02
    4.5096981563E-02    4.5633914797E-02    4.6177169496E-02    4.6726818357E-02
    4.7282934868E-02    4.7845593318E-02    4.8414868806E-02    4.8990837249E-02
    4.9573575387E-02    5.0163160793E-02    5.0759671878E-02    5.1363187905E-02
    5.1973788991E-02    5.2591556116E-02    5.3216571133E-02    5.3848916776E-02
    5.4488676666E-02    5.5135935320E-02    5.5790778160E-02    5.6453291522E-02
    5.7123562661E-02    5.7801679761E-02    5.8487731946E-02    5.9181809284E-02
    5.9884002797E-02    6.0594404471E-02    6.1313107261E-02    6.2040205105E-02
    6.2775792926E-02    6.3519966645E-02    6.4272823188E-02    6.5034460495E-02
    6.5804977527E-02    6.6584474276E-02    6.7373051777E-02    6.8170812109E-02
    6.8977858409E-02    6.9794294880E-02    7.0620226800E-02    7.1455760528E-02
    7.2301003516E-02    7.3156064315E-02    7.4021052587E-02    7.4896079109E-02
    7.5781255785E-02    7.6676695656E-02    7.7582512905E-02    7.8498822867E-02
    7.9425742039E-02    8.0363388087E-02    8.1311879856E-02    8.2271337376E-02
    8.3241881874E-02    8.4223635782E-02    8.5216722741E-02    8.6221267617E-02
    8.7237396502E-02    8.8265236727E-02    8.9304916870E-02    9.0356566762E-02
    9.1420317496E-02    9.2496301439E-02    9.3584652232E-02    9.4685504809E-02
    9.5798995393E-02    9.6925261513E-02    9.8064442009E-02    9.9216677038E-02
    1.0038210808E-01    1.0156087796E-01    1.0275313083E-01    1.0395901220E-01
    1.0517866893E-01    1.0641224924E-01    1.0765990273E-01    1.0892178038E-01
    1.1019803452E-01    1.1148881892E-01    1.1279428871E-01    1.1411460042E-01
    1.1544991203E-01    1.1680038288E-01    1.1816617377E-01    1.1954744691E-01
    1.2094436595E-01    1.2235709596E-01    1.2378580346E-01    1.2523065644E-01
    1.2669182430E-01    1.2816947791E-01    1.2966378963E-01    1.3117493323E-01
    1.3270308399E-01    1.3424841863E-01    1.3581111537E-01    1.3739135388E-01
    1.3898931532E-01    1.4060518234E-01    1.4223913906E-01    1.4389137108E-01
    1.4556206549E-01    1.4725141086E-01    1.4895959725E-01    1.5068681622E-01
    1.5243326078E-01    1.5419912546E-01    1.5598460625E-01    1.5778990063E-01
    1.5961520755E-01    1.6146072746E-01    1.6332666225E-01    1.6521321531E-01
    1.6712059149E-01    1.6904899707E-01    1.7099863984E-01    1.7296972899E-01
    1.7496247518E-01    1.7697709051E-01    1.7901378850E-01    1.8107278409E-01
    1.8315429364E-01    1.8525853492E-01    1.8738572707E-01    1.8953609064E-01
    1.9170984754E-01    1.9390722103E-01    1.9612843574E-01    1.9837371760E-01
    2.0064329388E-01    2.0293739316E-01    2.0525624529E-01    2.0760008139E-01
    2.0996913384E-01    2.1236363624E-01    2.1478382343E-01    2.1722993141E-01
    2.1970219736E-01    2.2220085961E-01    2.2472615763E-01    2.2727833195E-01
    2.2985762421E-01    2.3246427708E-01    2.3509853424E-01    2.3776064037E-01
    2.4045084110E-01    2.4316938299E-01    2.4591651349E-01    2.4869248090E-01
    2.5149753435E-01    2.5433192376E-01    2.5719589978E-01    2.6008971377E-01
    2.6301361778E-01    2.6596786444E-01    2.6895270698E-01    2.7196839917E-01
    2.7501519524E-01    2.7809334986E-01    2.8120311810E-01    2.8434475534E-01
    2.8751851724E-01    2.9072465969E-01    2.9396343873E-01    2.9723511050E-01
    3.0053993120E-01    3.0387815697E-01    3.0725004389E-01    3.1065584786E-01
    3.1409582458E-01    3.1757022941E-01    3.2107931737E-01    3.2462334301E-01
    3.2820256035E-01    3.3181722282E-01    3.3546758312E-01    3.3915389319E-01
    3.4287640411E-01    3.4663536597E-01    3.5043102784E-01    3.5426363762E-01
    3.5813344197E-01    3.6204068619E-01    3.6598561414E-01    3.6996846811E-01
    3.7398948872E-01    3.7804891481E-01    3.8214698333E-01    3.8628392918E-01
    3.9045998517E-01    3.9467538180E-01    3.9893034719E-01    4.0322510696E-01
    4.0755988404E-01    4.1193489858E-01    4.1635036778E-01    4.2080650577E-01
    4.2530352344E-01    4.2984162830E-01    4.3442102431E-01    4.3904191176E-01
    4.4370448703E-01    4.4840894252E-01    4.5315546641E-01    4.5794424249E-01
    4.6277545002E-01    4.6764926352E-01    4.7256585257E-01    4.7752538166E-01
    4.8252800996E-01    4.8757389112E-01    4.9266317310E-01    4.9779599793E-01
    5.0297250149E-01    5.0819281334E-01    5.1345705645E-01    5.1876534699E-01
    5.2411779410E-01    5.2951449967E-01    5.3495555807E-01    5.4044105593E-01
    5.4597107187E-01    5.5154567627E-01    5.5716493097E-01    5.6282888906E-01
    5.6853759457E-01    5.7429108219E-01    5.8008937703E-01    5.8593249430E-01
    5.9182043903E-01    5.9775320577E-01    6.0373077833E-01    6.0975312939E-01
    6.1582022026E-01    6.2193200056E-01    6.2808840786E-01    6.3428936738E-01
    6.4053479164E-01    6.4682458016E-01    6.5315861906E-01    6.5953678077E-01
    6.6595892363E-01    6.7242489157E-01    6.7893451369E-01    6.8548760398E-01
    6.9208396084E-01    6.9872336679E-01    7.0540558802E-01    7.1213037405E-01
    7.1889745729E-01    7.2570655268E-01    7.3255735724E-01    7.3944954972E-01
    7.4638279011E-01    7.5335671930E-01    7.6037095857E-01    7.6742510925E-01
    7.7451875220E-01    7.8165144745E-01    7.8882273368E-01    7.9603212786E-01
    8.0327912471E-01    8.1056319631E-01    8.1788379161E-01    8.2524033599E-01
    8.3263223077E-01    8.4005885276E-01    8.4751955378E-01    8.5501366019E-01
    8.6254047240E-01    8.7009926442E-01    8.7768928335E-01    8.8530974891E-01
    8.9295985296E-01    9.0063875899E-01    9.0834560166E-01    9.1607948633E-01
    9.2383948850E-01    9.3162465340E-01    9.3943399547E-01    9.4726649786E-01
    9.5512111199E-01    9.6299675699E-01    9.7089231933E-01    9.7880665222E-01
    9.8673857523E-01    9.9468687377E-01    1.0026502986E+00    1.0106275655E+00
    1.0186173546E+00    1.0266183100E+00    1.0346290396E+00    1.0426481141E+00
    1.0506740672E+00    1.0587053946E+00    1.0667405541E+00    1.0747779647E+00
    1.0828160066E+00    1.0908530206E+00    1.0988873079E+00    1.1069171296E+00
    1.1149407062E+00    1.1229562178E+00    1.1309618032E+00    1.1389555598E+00
    1.1469355436E+00    1.1548997685E+00    1.1628462063E+00    1.1707727864E+00
    1.1786773957E+00    1.1865578783E+00    1.1944120352E+00    1.2022376247E+00
    1.2100323615E+00    1.2177939175E+00    1.2255199208E+00    1.2332079567E+00
    1.2408555667E+00    1.2484602492E+00    1.2560194594E+00    1.2635306094E+00
    1.2709910682E+00    1.2783981620E+00    1.2857491745E+00    1.2930413470E+00
    1.3002718786E+00    1.3074379271E+00    1.3145366084E+00    1.3215649979E+00
    1.3285201305E+00    1.3353990010E+00    1.3421985651E+00    1.3489157396E+00
    1.3555474032E+00    1.3620903976E+00    1.3685415276E+00    1.3748975626E+00
    1.3811552371E+00    1.3873112517E+00    1.3933622743E+00    1.3993049412E+00
    1.4051358581E+00    1.4108516012E+00    1.4164487190E+00    1.4219237331E+00
    1.4272731399E+00    1.4324934123E+00    1.4375810008E+00    1.4425323355E+00
    1.4473438279E+00    1.4520118724E+00    1.4565328484E+00    1.4609031223E+00
    1.4651190495E+00    1.4691769764E+00    1.4730732430E+00    1.4768041848E+00
    1.4803661353E+00    1.4837554286E+00    1.4869684022E+00    1.4900013988E+00
    1.4928507702E+00    1.4955128791E+00    1.4979841027E+00    1.5002608355E+00
    1.5023394923E+00    1.5042165113E+00    1.5058883580E+00    1.5073515277E+00
    1.5086025496E+00    1.5096379900E+00    1.5104544561E+00    1.5110485995E+00
    1.5114171204E+00    1.5115567710E+00    1.5114643597E+00    1.5111367551E+00
    1.5105708902E+00    1.5097637663E+00    1.5087124574E+00    1.5074141148E+00
    1.5058659710E+00    1.5040653442E+00    1.5020096432E+00    1.4996963714E+00
    1.4971231320E+00    1.4942876318E+00    1.4911876866E+00    1.4878212257E+00
    1.4841862962E+00    1.4802810683E+00    1.4761038398E+00    1.4716530406E+00
    1.4669272379E+00    1.4619251407E+00    1.4566456043E+00    1.4510876352E+00
    1.4452503959E+00    1.4391332092E+00    1.4327355627E+00    1.4260571134E+00
    1.4190976921E+00    1.4118573077E+00    1.4043361511E+00    1.3965345996E+00
    1.3884532206E+00    1.3800927757E+00    1.3714542239E+00    1.3625387253E+00
    1.3533476444E+00    1.3438825532E+00    1.3341452338E+00    1.3241376816E+00
    1.3138621068E+00    1.3033209374E+00    1.2925168205E+00    1.2814526241E+00
    1.2701314381E+00    1.2585565752E+00    1.2467315718E+00    1.2346601877E+00
    1.2223464060E+00    1.2097944325E+00    1.1970086946E+00    1.1839938399E+00
    1.1707547339E+00    1.1572964577E+00    1.1436243048E+00    1.1297437780E+00
    1.1156605846E+00    1.1013806322E+00    1.0869100234E+00    1.0722550497E+00
    1.0574221848E+00    1.0424180778E+00    1.0272495449E+00    1.0119235610E+00
    9.9644725008E-01    9.8082787532E-01    9.6507282799E-01    9.4918961581E-01
    9.3318585035E-01    9.1706923360E-01    9.0084754368E-01    8.8452861962E-01
    8.6812034518E-01    8.5163063174E-01    8.3506740021E-01    8.1843856187E-01
    8.0175199820E-01    7.8501553958E-01    7.6823694295E-01    7.5142386823E-01
    7.3458385362E-01    7.1772428962E-01    7.0085239182E-01    6.8397517234E-01
    6.6709940993E-01    6.5023161866E-01    6.3337801507E-01    6.1654448390E-01
    5.9973654214E-01    5.8295930141E-01    5.6621742861E-01    5.4951510473E-01
    5.3285598177E-01    5.1624313754E-01    4.9967902835E-01    4.8316543953E-01
    4.6670343338E-01    4.5029329473E-01    4.3393447366E-01    4.1762552546E-01
    4.0136404745E-01    3.8514661247E-01    3.6896869900E-01    3.5282461737E-01
    3.3670743202E-01    3.2060887943E-01    3.0451928137E-01    2.8842745316E-01
    2.7232060659E-01    2.5618430461E-01    2.4000300700E-01    2.2376069873E-01
    2.0744099108E-01    1.9102717193E-01    1.7450226027E-01    1.5784906505E-01
    1.4105024835E-01    1.2408839299E-01    1.0694607455E-01    8.9605937808E-02
    7.2050777526E-02    5.4263623692E-02    3.6227830962E-02    1.7927172365E-02
   -6.5406293553E-04   -1.9530967909E-02   -3.8717912160E-02   -5.8228432849E-02
   -7.8075122218E-02   -9.8269512307E-02   -1.1882195624E-01   -1.3974150794E-01
   -1.6103579915E-01   -1.8271091500E-01   -2.0477126837E-01   -2.2721947360E-01
   -2.5005621990E-01   -2.7328014525E-01   -2.9688771133E-01   -3.2087308000E-01
   -3.4522799232E-01   -3.6994165052E-01   -3.9500060397E-01   -4.2038863978E-01
   -4.4608667903E-01   -4.7207267940E-01   -4.9832154522E-01   -5.2480504580E-01
   -5.5149174312E-01   -5.7834692990E-01   -6.0533257889E-01   -6.3240730470E-01
   -6.5952633901E-01   -6.8664152032E-01   -7.1370129932E-01   -7.4065076086E-01
   -7.6743166358E-01   -7.9398249831E-01   -8.2023856611E-01   -8.4613207695E-01
   -8.7159226994E-01   -8.9654555596E-01   -9.2091568347E-01   -9.4462392810E-01
   -9.6758930678E-01   -9.8972881686E-01   -1.0109577005E+00   -1.0311897349E+00
   -1.0503375478E+00   -1.0683129595E+00   -1.0850273495E+00   -1.1003920490E+00
   -1.1143187580E+00   -1.1267199855E+00   -1.1375095135E+00   -1.1466028824E+00
   -1.1539178964E+00   -1.1593751476E+00   -1.1628985569E+00   -1.1644159294E+00
   -1.1638595217E+00   -1.1611666180E+00   -1.1562801137E+00   -1.1491491007E+00
   -1.1397294525E+00   -1.1279844057E+00   -1.1138851317E+00   -1.0974112967E+00
   -1.0785516032E+00   -1.0573043105E+00   -1.0336777266E+00   -1.0076906684E+00
   -9.7937288395E-01   -9.4876543075E-01   -9.1592100550E-01   -8.8090421892E-01
   -8.4379181014E-01   -8.0467279500E-01   -7.6364854265E-01   -7.2083277497E-01
   -6.7635148352E-01   -6.3034275904E-01   -5.8295652878E-01   -5.3435419733E-01
   -4.8470818709E-01   -4.3420137515E-01   -3.8302642372E-01   -3.3138500231E-01
   -2.7948690025E-01   -2.2754902938E-01   -1.7579431727E-01   -1.2445049277E-01
   -7.3748766596E-02   -2.3922410584E-02    2.4794758864E-02    7.2169986943E-02
    1.1797326834E-01    1.6197910746E-01    2.0396834035E-01    2.4373000597E-01
    2.8106325304E-01    3.1577926706E-01    3.4770320058E-01    3.7667608844E-01
    4.0255672786E-01    4.2522350217E-01    4.4457612562E-01    4.6053728525E-01
    4.7305415500E-01    4.8209975610E-01    4.8767413739E-01    4.8980534843E-01
    4.8855017825E-01    4.8399463300E-01    4.7625412576E-01    4.6547335353E-01
    4.5182583715E-01    4.3551310293E-01    4.1676348660E-01    3.9583054443E-01
    3.7299106069E-01    3.4854264530E-01    3.2280092280E-01    2.9609632050E-01
    2.6877047255E-01    2.4117226690E-01    2.1365357269E-01    1.8656469907E-01
    1.6024964943E-01    1.3504125051E-01    1.1125625199E-01    8.9190826969E-02
    6.9116517174E-02    5.1273536276E-02    3.5868462558E-02    2.3071398735E-02
    1.3013817163E-02    5.7874732929E-03    1.4445743578E-03   -6.2070685883E-07
    0.0000000000E+00    0.0000000000E+00    0.0000000000E+00    0.0000000000E+00
    0.0000000000E+00    0.0000000000E+00    0.0000000000E+00    0.0000000000E+00
    0.0000000000E+00    0.0000000000E+00    0.0000000000E+00    0.0000000000E+00
    0.0000000000E+00    0.0000000000E+00    0.0000000000E+00    0.0000000000E+00
    0.0000000000E+00    0.0000000000E+00    0.0000000000E+00    0.0000000000E+00
    0.0000000000E+00    0.0000000000E+00    0.0000000000E+00    0.0000000000E+00
    0.0000000000E+00    0.0000000000E+00    0.0000000000E+00    0.0000000000E+00
    0.0000000000E+00    0.0000000000E+00    0.0000000000E+00    0.0000000000E+00
    0.0000000000E+00    0.0000000000E+00    0.0000000000E+00    0.0000000000E+00
    0.0000000000E+00    0.0000000000E+00    0.0000000000E+00    0.0000000000E+00
    0.0000000000E+00    0.0000000000E+00    0.0000000000E+00    0.0000000000E+00
    0.0000000000E+00    0.0000000000E+00    0.0000000000E+00    0.0000000000E+00
    0.0000000000E+00    0.0000000000E+00    0.0000000000E+00    0.0000000000E+00
    0.0000000000E+00    0.0000000000E+00    0.0000000000E+00    0.0000000000E+00
    0.0000000000E+00    0.0000000000E+00    0.0000000000E+00    0.0000000000E+00
    0.0000000000E+00    0.0000000000E+00    0.0000000000E+00    0.0000000000E+00
    0.0000000000E+00    0.0000000000E+00    0.0000000000E+00    0.0000000000E+00
    0.0000000000E+00    0.0000000000E+00    0.0000000000E+00    0.0000000000E+00
    0.0000000000E+00    0.0000000000E+00    0.0000000000E+00    0.0000000000E+00
    0.0000000000E+00    0.0000000000E+00    0.0000000000E+00    0.0000000000E+00
    0.0000000000E+00    0.0000000000E+00    0.0000000000E+00    0.0000000000E+00
    0.0000000000E+00    0.0000000000E+00    0.0000000000E+00    0.0000000000E+00
    0.0000000000E+00    0.0000000000E+00    0.0000000000E+00    0.0000000000E+00
    0.0000000000E+00    0.0000000000E+00    0.0000000000E+00    0.0000000000E+00
    0.0000000000E+00    0.0000000000E+00    0.0000000000E+00    0.0000000000E+00
    0.0000000000E+00    0.0000000000E+00    0.0000000000E+00    0.0000000000E+00
    0.0000000000E+00    0.0000000000E+00    0.0000000000E+00    0.0000000000E+00
    0.0000000000E+00    0.0000000000E+00    0.0000000000E+00    0.0000000000E+00
    0.0000000000E+00    0.0000000000E+00    0.0000000000E+00    0.0000000000E+00
    0.0000000000E+00    0.0000000000E+00    0.0000000000E+00    0.0000000000E+00
    0.0000000000E+00    0.0000000000E+00    0.0000000000E+00    0.0000000000E+00
    0.0000000000E+00    0.0000000000E+00    0.0000000000E+00    0.0000000000E+00
    0.0000000000E+00    0.0000000000E+00    0.0000000000E+00    0.0000000000E+00
    0.0000000000E+00    0.0000000000E+00    0.0000000000E+00    0.0000000000E+00
    0.0000000000E+00    0.0000000000E+00    0.0000000000E+00    0.0000000000E+00
    0.0000000000E+00    0.0000000000E+00    0.0000000000E+00    0.0000000000E+00
    0.0000000000E+00    0.0000000000E+00    0.0000000000E+00    0.0000000000E+00
    0.0000000000E+00    0.0000000000E+00    0.0000000000E+00    0.0000000000E+00
    0.0000000000E+00    0.0000000000E+00    0.0000000000E+00    0.0000000000E+00
    0.0000000000E+00    0.0000000000E+00    0.0000000000E+00    0.0000000000E+00
    0.0000000000E+00    0.0000000000E+00    0.0000000000E+00    0.0000000000E+00
    0.0000000000E+00    0.0000000000E+00    0.0000000000E+00    0.0000000000E+00
    0.0000000000E+00    0.0000000000E+00    0.0000000000E+00    0.0000000000E+00
    0.0000000000E+00    0.0000000000E+00    0.0000000000E+00    0.0000000000E+00
    0.0000000000E+00    0.0000000000E+00    0.0000000000E+00    0.0000000000E+00
    0.0000000000E+00    0.0000000000E+00    0.0000000000E+00    0.0000000000E+00
    0.0000000000E+00    0.0000000000E+00    0.0000000000E+00    0.0000000000E+00
    0.0000000000E+00    0.0000000000E+00    0.0000000000E+00    0.0000000000E+00
    0.0000000000E+00    0.0000000000E+00    0.0000000000E+00    0.0000000000E+00
    0.0000000000E+00    0.0000000000E+00    0.0000000000E+00    0.0000000000E+00
    0.0000000000E+00    0.0000000000E+00    0.0000000000E+00    0.0000000000E+00
    0.0000000000E+00    0.0000000000E+00    0.0000000000E+00    0.0000000000E+00
    0.0000000000E+00    0.0000000000E+00    0.0000000000E+00    0.0000000000E+00
    0.0000000000E+00    0.0000000000E+00    0.0000000000E+00    0.0000000000E+00
    0.0000000000E+00    0.0000000000E+00    0.0000000000E+00    0.0000000000E+00
    0.0000000000E+00    0.0000000000E+00    0.0000000000E+00    0.0000000000E+00
    0.0000000000E+00    0.0000000000E+00    0.0000000000E+00    0.0000000000E+00
    0.0000000000E+00    0.0000000000E+00    0.0000000000E+00    0.0000000000E+00
    0.0000000000E+00    0.0000000000E+00    0.0000000000E+00    0.0000000000E+00
    0.0000000000E+00    0.0000000000E+00    0.0000000000E+00    0.0000000000E+00
    0.0000000000E+00    0.0000000000E+00    0.0000000000E+00    0.0000000000E+00
    0.0000000000E+00    0.0000000000E+00    0.0000000000E+00    0.0000000000E+00
    0.0000000000E+00    0.0000000000E+00    0.0000000000E+00    0.0000000000E+00
    0.0000000000E+00    0.0000000000E+00    0.0000000000E+00    0.0000000000E+00
    0.0000000000E+00    0.0000000000E+00    0.0000000000E+00    0.0000000000E+00
    0.0000000000E+00    0.0000000000E+00    0.0000000000E+00    0.0000000000E+00
    0.0000000000E+00    0.0000000000E+00    0.0000000000E+00    0.0000000000E+00
    0.0000000000E+00    0.0000000000E+00    0.0000000000E+00    0.0000000000E+00
    0.0000000000E+00    0.0000000000E+00    0.0000000000E+00    0.0000000000E+00
    0.0000000000E+00    0.0000000000E+00    0.0000000000E+00    0.0000000000E+00
    0.0000000000E+00    0.0000000000E+00    0.0000000000E+00    0.0000000000E+00
    0.0000000000E+00    0.0000000000E+00    0.0000000000E+00    0.0000000000E+00
    0.0000000000E+00    0.0000000000E+00    0.0000000000E+00    0.0000000000E+00
    0.0000000000E+00    0.0000000000E+00    0.0000000000E+00    0.0000000000E+00
    0.0000000000E+00    0.0000000000E+00    0.0000000000E+00    0.0000000000E+00
    0.0000000000E+00    0.0000000000E+00    0.0000000000E+00    0.0000000000E+00
    0.0000000000E+00    0.0000000000E+00    0.0000000000E+00    0.0000000000E+00
    0.0000000000E+00    0.0000000000E+00    0.0000000000E+00    0.0000000000E+00
    0.0000000000E+00    0.0000000000E+00    0.0000000000E+00    0.0000000000E+00
    0.0000000000E+00    0.0000000000E+00    0.0000000000E+00    0.0000000000E+00
    0.0000000000E+00    0.0000000000E+00    0.0000000000E+00    0.0000000000E+00
    0.0000000000E+00    0.0000000000E+00    0.0000000000E+00    0.0000000000E+00
    0.0000000000E+00    0.0000000000E+00    0.0000000000E+00    0.0000000000E+00
    0.0000000000E+00    0.0000000000E+00    0.0000000000E+00    0.0000000000E+00
    0.0000000000E+00    0.0000000000E+00    0.0000000000E+00    0.0000000000E+00
    0.0000000000E+00    0.0000000000E+00    0.0000000000E+00    0.0000000000E+00
    0.0000000000E+00    0.0000000000E+00    0.0000000000E+00    0.0000000000E+00
    0.0000000000E+00    0.0000000000E+00    0.0000000000E+00    0.0000000000E+00
    0.0000000000E+00    0.0000000000E+00    0.0000000000E+00    0.0000000000E+00
    0.0000000000E+00    0.0000000000E+00    0.0000000000E+00    0.0000000000E+00
    0.0000000000E+00    0.0000000000E+00    0.0000000000E+00    0.0000000000E+00
    0.0000000000E+00    0.0000000000E+00    0.0000000000E+00    0.0000000000E+00
    0.0000000000E+00    0.0000000000E+00    0.0000000000E+00    0.0000000000E+00
    0.0000000000E+00    0.0000000000E+00    0.0000000000E+00    0.0000000000E+00
    0.0000000000E+00    0.0000000000E+00    0.0000000000E+00    0.0000000000E+00
    0.0000000000E+00    0.0000000000E+00    0.0000000000E+00    0.0000000000E+00
    0.0000000000E+00    0.0000000000E+00    0.0000000000E+00    0.0000000000E+00
    0.0000000000E+00    0.0000000000E+00    0.0000000000E+00    0.0000000000E+00
    0.0000000000E+00    0.0000000000E+00    0.0000000000E+00    0.0000000000E+00
    0.0000000000E+00    0.0000000000E+00    0.0000000000E+00    0.0000000000E+00
    0.0000000000E+00    0.0000000000E+00    0.0000000000E+00    0.0000000000E+00
    0.0000000000E+00    0.0000000000E+00    0.0000000000E+00    0.0000000000E+00
    0.0000000000E+00    0.0000000000E+00    0.0000000000E+00    0.0000000000E+00
    0.0000000000E+00    0.0000000000E+00    0.0000000000E+00    0.0000000000E+00
    0.0000000000E+00    0.0000000000E+00    0.0000000000E+00    0.0000000000E+00
    0.0000000000E+00    0.0000000000E+00    0.0000000000E+00    0.0000000000E+00
    0.0000000000E+00    0.0000000000E+00    0.0000000000E+00    0.0000000000E+00
    0.0000000000E+00    0.0000000000E+00    0.0000000000E+00    0.0000000000E+00
    0.0000000000E+00    0.0000000000E+00    0.0000000000E+00    0.0000000000E+00
    0.0000000000E+00    0.0000000000E+00    0.0000000000E+00    0.0000000000E+00
    0.0000000000E+00    0.0000000000E+00    0.0000000000E+00    0.0000000000E+00
    0.0000000000E+00    0.0000000000E+00    0.0000000000E+00    0.0000000000E+00
    0.0000000000E+00    0.0000000000E+00    0.0000000000E+00    0.0000000000E+00
    0.0000000000E+00    0.0000000000E+00    0.0000000000E+00    0.0000000000E+00
    0.0000000000E+00    0.0000000000E+00    0.0000000000E+00    0.0000000000E+00
    0.0000000000E+00    0.0000000000E+00    0.0000000000E+00    0.0000000000E+00
    0.0000000000E+00    0.0000000000E+00    0.0000000000E+00    0.0000000000E+00
    0.0000000000E+00    0.0000000000E+00    0.0000000000E+00    0.0000000000E+00
    0.0000000000E+00    0.0000000000E+00    0.0000000000E+00    0.0000000000E+00
    0.0000000000E+00    0.0000000000E+00    0.0000000000E+00    0.0000000000E+00
    0.0000000000E+00    0.0000000000E+00    0.0000000000E+00    0.0000000000E+00
    0.0000000000E+00    0.0000000000E+00    0.0000000000E+00    0.0000000000E+00
    0.0000000000E+00    0.0000000000E+00    0.0000000000E+00    0.0000000000E+00
    0.0000000000E+00    0.0000000000E+00    0.0000000000E+00    0.0000000000E+00
    0.0000000000E+00    0.0000000000E+00    0.0000000000E+00    0.0000000000E+00
    0.0000000000E+00    0.0000000000E+00    0.0000000000E+00    0.0000000000E+00
    0.0000000000E+00    0.0000000000E+00    0.0000000000E+00    0.0000000000E+00
    0.0000000000E+00    0.0000000000E+00    0.0000000000E+00    0.0000000000E+00
    0.0000000000E+00    0.0000000000E+00    0.0000000000E+00    0.0000000000E+00
    0.0000000000E+00    0.0000000000E+00    0.0000000000E+00    0.0000000000E+00
    0.0000000000E+00    0.0000000000E+00    0.0000000000E+00    0.0000000000E+00
    0.0000000000E+00    0.0000000000E+00    0.0000000000E+00    0.0000000000E+00
    0.0000000000E+00    0.0000000000E+00    0.0000000000E+00    0.0000000000E+00
    0.0000000000E+00    0.0000000000E+00    0.0000000000E+00    0.0000000000E+00
    0.0000000000E+00    0.0000000000E+00    0.0000000000E+00    0.0000000000E+00
    0.0000000000E+00    0.0000000000E+00    0.0000000000E+00    0.0000000000E+00
    0.0000000000E+00    0.0000000000E+00    0.0000000000E+00    0.0000000000E+00
    0.0000000000E+00    0.0000000000E+00    0.0000000000E+00    0.0000000000E+00
    0.0000000000E+00    0.0000000000E+00    0.0000000000E+00
   </PP_BETA.3>
   <PP_BETA.4
       type="real"
       size="  2291"
       columns="4"
       index="4"
       angular_momentum="1"
       cutoff_radius_index="  1742"
       cutoff_radius="    1.6674562108E+00" >
    1.5557599219E-08    1.5744840172E-08    1.5934353924E-08    1.6126136731E-08
    1.6320220813E-08    1.6516638408E-08    1.6715444465E-08    1.6916631301E-08
    1.7120251322E-08    1.7326312147E-08    1.7534841259E-08    1.7745894710E-08
    1.7959494690E-08    1.8175630721E-08    1.8394406441E-08    1.8615792678E-08
    1.8839857308E-08    1.9066619006E-08    1.9296106592E-08    1.9528358060E-08
    1.9763389166E-08    2.0001266906E-08    2.0241987857E-08    2.0485626765E-08
    2.0732188653E-08    2.0981727638E-08    2.1234258095E-08    2.1489839397E-08
    2.1748491952E-08    2.2010254804E-08    2.2275174484E-08    2.2543282596E-08
    2.2814598810E-08    2.3089192518E-08    2.3367111855E-08    2.3648350617E-08
    2.3932967987E-08    2.4221044202E-08    2.4512578713E-08    2.4807594771E-08
    2.5106193866E-08    2.5408359166E-08    2.5714179230E-08    2.6023682378E-08
    2.6336885259E-08    2.6653889406E-08    2.6974689705E-08    2.7299362697E-08
    2.7627942647E-08    2.7960468778E-08    2.8296993126E-08    2.8637577732E-08
    2.8982253837E-08    2.9331080629E-08    2.9684126777E-08    3.0041395803E-08
    3.0402986322E-08    3.0768908453E-08    3.1139235781E-08    3.1514039081E-08
    3.1893337489E-08    3.2277208522E-08    3.2665707065E-08    3.3058861634E-08
    3.3456739468E-08    3.3859444434E-08    3.4266960900E-08    3.4679391226E-08
    3.5096797737E-08    3.5519231470E-08    3.5946742507E-08    3.6379403763E-08
    3.6817256690E-08    3.7260388517E-08    3.7708850729E-08    3.8162712227E-08
    3.8622044160E-08    3.9086900606E-08    3.9557336661E-08    4.0033440491E-08
    4.0515310053E-08    4.1002952281E-08    4.1496465223E-08    4.1995923074E-08
    4.2501387227E-08    4.3012941294E-08    4.3530628518E-08    4.4054555549E-08
    4.4584793358E-08    4.5121420626E-08    4.5664512259E-08    4.6214115518E-08
    4.6770351047E-08    4.7333280282E-08    4.7902975461E-08    4.8479550914E-08
    4.9063062069E-08    4.9653572803E-08    5.0251189546E-08    5.0856027045E-08
    5.1468122241E-08    5.2087591556E-08    5.2714503654E-08    5.3348989152E-08
    5.3991094347E-08    5.4640930135E-08    5.5298597387E-08    5.5964169485E-08
    5.6637762890E-08    5.7319449020E-08    5.8009353192E-08    5.8707536217E-08
    5.9414145538E-08    6.0129245693E-08    6.0852982443E-08    6.1585392129E-08
    6.2326635122E-08    6.3076800469E-08    6.3836008943E-08    6.4604334923E-08
    6.5381904389E-08    6.6168832599E-08    6.6965239678E-08    6.7771238760E-08
    6.8586942387E-08    6.9412438396E-08    7.0247895437E-08    7.1093392410E-08
    7.1949080571E-08    7.2815037119E-08    7.3691444341E-08    7.4578404065E-08
    7.5476005848E-08    7.6384457794E-08    7.7303816203E-08    7.8234257600E-08
    7.9175870593E-08    8.0128844341E-08    8.1093250473E-08    8.2069305023E-08
    8.3057073729E-08    8.4056769120E-08    8.5068476251E-08    8.6092344792E-08
    8.7128576770E-08    8.8177236761E-08    8.9238533820E-08    9.0312623726E-08
    9.1399617723E-08    9.2499709234E-08    9.3613034502E-08    9.4739768028E-08
    9.5880055846E-08    9.7034061476E-08    9.8201947506E-08    9.9383910619E-08
    1.0058009964E-07    1.0179068271E-07    1.0301582683E-07    1.0425572986E-07
    1.0551055560E-07    1.0678047581E-07    1.0806566594E-07    1.0936636417E-07
    1.1068270282E-07    1.1201487115E-07    1.1336307397E-07    1.1472750675E-07
    1.1610837468E-07    1.1750586810E-07    1.1892016500E-07    1.2035148116E-07
    1.2180003958E-07    1.2326602671E-07    1.2474963442E-07    1.2625113309E-07
    1.2777068905E-07    1.2930854229E-07    1.3086488124E-07    1.3243995630E-07
    1.3403401173E-07    1.3564725117E-07    1.3727989457E-07    1.3893220488E-07
    1.4060439117E-07    1.4229669956E-07    1.4400938782E-07    1.4574268248E-07
    1.4749685706E-07    1.4927211673E-07    1.5106875499E-07    1.5288700213E-07
    1.5472714860E-07    1.5658945098E-07    1.5847416766E-07    1.6038155525E-07
    1.6231190260E-07    1.6426547970E-07    1.6624259159E-07    1.6824348539E-07
    1.7026846624E-07    1.7231780762E-07    1.7439182185E-07    1.7649080452E-07
    1.7861503170E-07    1.8076483820E-07    1.8294053009E-07    1.8514240041E-07
    1.8737076900E-07    1.8962596453E-07    1.9190830112E-07    1.9421809945E-07
    1.9655572390E-07    1.9892144458E-07    2.0131567766E-07    2.0373870984E-07
    2.0619091992E-07    2.0867261049E-07    2.1118419236E-07    2.1372600552E-07
    2.1629840027E-07    2.1890177978E-07    2.2153647658E-07    2.2420287764E-07
    2.2690137552E-07    2.2963236563E-07    2.3239621009E-07    2.3519333497E-07
    2.3802411245E-07    2.4088897226E-07    2.4378830586E-07    2.4672254153E-07
    2.4969208001E-07    2.5269737429E-07    2.5573883837E-07    2.5881689753E-07
    2.6193202720E-07    2.6508462387E-07    2.6827518483E-07    2.7150413195E-07
    2.7477195091E-07    2.7807910772E-07    2.8142606101E-07    2.8481329840E-07
    2.8824130343E-07    2.9171058781E-07    2.9522159692E-07    2.9877488529E-07
    3.0237091499E-07    3.0601025237E-07    3.0969339663E-07    3.1342086177E-07
    3.1719318440E-07    3.2101089479E-07    3.2487459941E-07    3.2878478731E-07
    3.3274203609E-07    3.3674689461E-07    3.4079997077E-07    3.4490184384E-07
    3.4905308353E-07    3.5325426799E-07    3.5750603818E-07    3.6180895085E-07
    3.6616367257E-07    3.7057084879E-07    3.7503101317E-07    3.7954487533E-07
    3.8411306197E-07    3.8873622533E-07    3.9341506330E-07    3.9815018923E-07
    4.0294231586E-07    4.0779211143E-07    4.1270029381E-07    4.1766754873E-07
    4.2269458085E-07    4.2778211159E-07    4.3293089476E-07    4.3814163682E-07
    4.4341508295E-07    4.4875202605E-07    4.5415317411E-07    4.5961937575E-07
    4.6515131942E-07    4.7074986644E-07    4.7641580790E-07    4.8214993456E-07
    4.8795306879E-07    4.9382606789E-07    4.9976973115E-07    5.0578494319E-07
    5.1187254448E-07    5.1803343256E-07    5.2426849210E-07    5.3057854861E-07
    5.3696456968E-07    5.4342746552E-07    5.4996812388E-07    5.5658753607E-07
    5.6328657877E-07    5.7006629334E-07    5.7692760095E-07    5.8387145999E-07
    5.9089891975E-07    5.9801093423E-07    6.0520860596E-07    6.1249285388E-07
    6.1986481040E-07    6.2732548891E-07    6.3487594314E-07    6.4251725619E-07
    6.5025056968E-07    6.5807698607E-07    6.6599755565E-07    6.7401347979E-07
    6.8212587241E-07    6.9033589875E-07    6.9864475908E-07    7.0705360314E-07
    7.1556368089E-07    7.2417616016E-07    7.3289231067E-07    7.4171338086E-07
    7.5064058267E-07    7.5967527350E-07    7.6881868281E-07    7.7807214464E-07
    7.8743698019E-07    7.9691453987E-07    8.0650615548E-07    8.1621322132E-07
    8.2603711821E-07    8.3597924798E-07    8.4604105655E-07    8.5622394724E-07
    8.6652942137E-07    8.7695892164E-07    8.8751395406E-07    8.9819601591E-07
    9.0900663819E-07    9.1994739502E-07    9.3101983222E-07    9.4222551794E-07
    9.5356607883E-07    9.6504315322E-07    9.7665834830E-07    9.8841335343E-07
    1.0003098220E-06    1.0123495015E-06    1.0245340670E-06    1.0368652865E-06
    1.0493449148E-06    1.0619747587E-06    1.0747566218E-06    1.0876923003E-06
    1.1007836938E-06    1.1140326545E-06    1.1274410611E-06    1.1410108466E-06
    1.1547439813E-06    1.1686423959E-06    1.1827080697E-06    1.1969430510E-06
    1.2113493788E-06    1.2259290672E-06    1.2406842495E-06    1.2556170257E-06
    1.2707295434E-06    1.2860239256E-06    1.3015023986E-06    1.3171671728E-06
    1.3330204768E-06    1.3490646025E-06    1.3653018196E-06    1.3817344779E-06
    1.3983649067E-06    1.4151954897E-06    1.4322286518E-06    1.4494668267E-06
    1.4669124569E-06    1.4845680874E-06    1.5024361959E-06    1.5205193600E-06
    1.5388201827E-06    1.5573412537E-06    1.5760852601E-06    1.5950548623E-06
    1.6142527585E-06    1.6336817668E-06    1.6533445771E-06    1.6732440442E-06
    1.6933830228E-06    1.7137643848E-06    1.7343910591E-06    1.7552659906E-06
    1.7763921681E-06    1.7977726078E-06    1.8194103951E-06    1.8413085884E-06
    1.8634703665E-06    1.8858988525E-06    1.9085972987E-06    1.9315689345E-06
    1.9548170359E-06    1.9783449750E-06    2.0021560781E-06    2.0262537572E-06
    2.0506414870E-06    2.0753227408E-06    2.1003010370E-06    2.1255799653E-06
    2.1511631413E-06    2.1770542271E-06    2.2032569453E-06    2.2297750176E-06
    2.2566122688E-06    2.2837725111E-06    2.3112596478E-06    2.3390776220E-06
    2.3672303912E-06    2.3957220036E-06    2.4245565336E-06    2.4537381219E-06
    2.4832708957E-06    2.5131591471E-06    2.5434071190E-06    2.5740191403E-06
    2.6049995756E-06    2.6363528849E-06    2.6680835843E-06    2.7001961898E-06
    2.7326952481E-06    2.7655854801E-06    2.7988715583E-06    2.8325582684E-06
    2.8666503977E-06    2.9011528735E-06    2.9360705720E-06    2.9714085454E-06
    3.0071718443E-06    3.0433655652E-06    3.0799948995E-06    3.1170650893E-06
    3.1545814426E-06    3.1925493354E-06    3.2309741748E-06    3.2698614927E-06
    3.3092168422E-06    3.3490458397E-06    3.3893542079E-06    3.4301477013E-06
    3.4714321980E-06    3.5132135593E-06    3.5554977617E-06    3.5982908986E-06
    3.6415990848E-06    3.6854284885E-06    3.7297854050E-06    3.7746762009E-06
    3.8201072447E-06    3.8660850755E-06    3.9126162821E-06    3.9597075355E-06
    4.0073655355E-06    4.0555971363E-06    4.1044091956E-06    4.1538087654E-06
    4.2038028556E-06    4.2543986537E-06    4.3056034000E-06    4.3574243981E-06
    4.4098691143E-06    4.4629450060E-06    4.5166596915E-06    4.5710208548E-06
    4.6260362828E-06    4.6817138319E-06    4.7380614809E-06    4.7950873119E-06
    4.8527994729E-06    4.9112061753E-06    4.9703158760E-06    5.0301369662E-06
    5.0906780246E-06    5.1519476934E-06    5.2139547859E-06    5.2767081308E-06
    5.3402167581E-06    5.4044897190E-06    5.4695362008E-06    5.5353655917E-06
    5.6019871951E-06    5.6694106445E-06    5.7376455422E-06    5.8067016729E-06
    5.8765888986E-06    5.9473172016E-06    6.0188967886E-06    6.0913378448E-06
    6.1646507198E-06    6.2388459253E-06    6.3139341184E-06    6.3899259752E-06
    6.4668324354E-06    6.5446644409E-06    6.6234331714E-06    6.7031499359E-06
    6.7838260667E-06    6.8654731270E-06    6.9481028589E-06    7.0317270216E-06
    7.1163576239E-06    7.2020067442E-06    7.2886866645E-06    7.3764097662E-06
    7.4651886334E-06    7.5550359546E-06    7.6459645870E-06    7.7379875442E-06
    7.8311180001E-06    7.9253692695E-06    8.0207548361E-06    8.1172883916E-06
    8.2149837019E-06    8.3138547854E-06    8.4139157696E-06    8.5151809459E-06
    8.6176648979E-06    8.7213821731E-06    8.8263476816E-06    8.9325764386E-06
    9.0400836405E-06    9.1488846908E-06    9.2589951124E-06    9.3704306912E-06
    9.4832074004E-06    9.5973413164E-06    9.7128488024E-06    9.8297464145E-06
    9.9480508229E-06    1.0067779031E-05    1.0188948087E-05    1.0311575392E-05
    1.0435678470E-05    1.0561275069E-05    1.0688383203E-05    1.0817021018E-05
    1.0947206927E-05    1.1078959563E-05    1.1212297789E-05    1.1347240700E-05
    1.1483807534E-05    1.1622017919E-05    1.1761891564E-05    1.1903448526E-05
    1.2046709049E-05    1.2191693631E-05    1.2338422995E-05    1.2486918198E-05
    1.2637200405E-05    1.2789291166E-05    1.2943212248E-05    1.3098985644E-05
    1.3256633665E-05    1.3416178862E-05    1.3577644083E-05    1.3741052384E-05
    1.3906427169E-05    1.4073792127E-05    1.4243171180E-05    1.4414588532E-05
    1.4588068749E-05    1.4763636632E-05    1.4941317349E-05    1.5121136251E-05
    1.5303119087E-05    1.5487291925E-05    1.5673681076E-05    1.5862313240E-05
    1.6053215356E-05    1.6246414791E-05    1.6441939149E-05    1.6639816429E-05
    1.6840074905E-05    1.7042743241E-05    1.7247850465E-05    1.7455425911E-05
    1.7665499216E-05    1.7878100488E-05    1.8093260130E-05    1.8311008907E-05
    1.8531378004E-05    1.8754398930E-05    1.8980103570E-05    1.9208524227E-05
    1.9439693582E-05    1.9673644702E-05    1.9910411036E-05    2.0150026464E-05
    2.0392525314E-05    2.0637942194E-05    2.0886312234E-05    2.1137671004E-05
    2.1392054410E-05    2.1649498847E-05    2.1910041143E-05    2.2173718614E-05
    2.2440568917E-05    2.2710630223E-05    2.2983941197E-05    2.3260540918E-05
    2.3540468948E-05    2.3823765303E-05    2.4110470555E-05    2.4400625660E-05
    2.4694272132E-05    2.4991451997E-05    2.5292207737E-05    2.5596582344E-05
    2.5904619400E-05    2.6216362963E-05    2.6531857556E-05    2.6851148340E-05
    2.7174281009E-05    2.7501301720E-05    2.7832257301E-05    2.8167195029E-05
    2.8506162793E-05    2.8849209130E-05    2.9196383069E-05    2.9547734247E-05
    2.9903312934E-05    3.0263169967E-05    3.0627356792E-05    3.0995925500E-05
    3.1368928802E-05    3.1746420036E-05    3.2128453174E-05    3.2515082835E-05
    3.2906364318E-05    3.3302353565E-05    3.3703107214E-05    3.4108682544E-05
    3.4519137562E-05    3.4934530943E-05    3.5354922102E-05    3.5780371101E-05
    3.6210938831E-05    3.6646686806E-05    3.7087677343E-05    3.7533973480E-05
    3.7985639038E-05    3.8442738568E-05    3.8905337447E-05    3.9373501805E-05
    3.9847298524E-05    4.0326795406E-05    4.0812060948E-05    4.1303164530E-05
    4.1800176384E-05    4.2303167535E-05    4.2812209862E-05    4.3327376161E-05
    4.3848740086E-05    4.4376376088E-05    4.4910359658E-05    4.5450767084E-05
    4.5997675622E-05    4.6551163435E-05    4.7111309636E-05    4.7678194279E-05
    4.8251898407E-05    4.8832503956E-05    4.9420093932E-05    5.0014752332E-05
    5.0616564118E-05    5.1225615301E-05    5.1841992906E-05    5.2465785032E-05
    5.3097080801E-05    5.3735970425E-05    5.4382545204E-05    5.5036897528E-05
    5.5699120873E-05    5.6369309879E-05    5.7047560305E-05    5.7733969059E-05
    5.8428634208E-05    5.9131654992E-05    5.9843131868E-05    6.0563166458E-05
    6.1291861627E-05    6.2029321494E-05    6.2775651403E-05    6.3530957972E-05
    6.4295349078E-05    6.5068933902E-05    6.5851822983E-05    6.6644128098E-05
    6.7445962452E-05    6.8257440553E-05    6.9078678283E-05    6.9909792984E-05
    7.0750903310E-05    7.1602129399E-05    7.2463592831E-05    7.3335416573E-05
    7.4217725175E-05    7.5110644598E-05    7.6014302367E-05    7.6928827513E-05
    7.7854350602E-05    7.8791003788E-05    7.9738920811E-05    8.0698236974E-05
    8.1669089305E-05    8.2651616338E-05    8.3645958330E-05    8.4652257281E-05
    8.5670656828E-05    8.6701302322E-05    8.7744340878E-05    8.8799921387E-05
    8.9868194501E-05    9.0949312691E-05    9.2043430258E-05    9.3150703346E-05
    9.4271289966E-05    9.5405350075E-05    9.6553045414E-05    9.7714539820E-05
    9.8889999026E-05    1.0007959070E-04    1.0128348463E-04    1.0250185254E-04
    1.0373486824E-04    1.0498270767E-04    1.0624554881E-04    1.0752357182E-04
    1.0881695900E-04    1.1012589480E-04    1.1145056595E-04    1.1279116137E-04
    1.1414787226E-04    1.1552089210E-04    1.1691041670E-04    1.1831664417E-04
    1.1973977506E-04    1.2118001227E-04    1.2263756118E-04    1.2411262953E-04
    1.2560542768E-04    1.2711616842E-04    1.2864506710E-04    1.3019234164E-04
    1.3175821264E-04    1.3334290320E-04    1.3494663927E-04    1.3656964933E-04
    1.3821216468E-04    1.3987441943E-04    1.4155665037E-04    1.4325909725E-04
    1.4498200260E-04    1.4672561187E-04    1.4849017349E-04    1.5027593877E-04
    1.5208316211E-04    1.5391210094E-04    1.5576301574E-04    1.5763617010E-04
    1.5953183079E-04    1.6145026771E-04    1.6339175408E-04    1.6535656632E-04
    1.6734498415E-04    1.6935729069E-04    1.7139377237E-04    1.7345471906E-04
    1.7554042411E-04    1.7765118442E-04    1.7978730032E-04    1.8194907581E-04
    1.8413681851E-04    1.8635083969E-04    1.8859145442E-04    1.9085898137E-04
    1.9315374315E-04    1.9547606614E-04    1.9782628070E-04    2.0020472105E-04
    2.0261172543E-04    2.0504763613E-04    2.0751279951E-04    2.1000756604E-04
    2.1253229039E-04    2.1508733148E-04    2.1767305244E-04    2.2028982084E-04
    2.2293800850E-04    2.2561799180E-04    2.2833015154E-04    2.3107487298E-04
    2.3385254617E-04    2.3666356560E-04    2.3950833062E-04    2.4238724518E-04
    2.4530071822E-04    2.4824916339E-04    2.5123299932E-04    2.5425264969E-04
    2.5730854310E-04    2.6040111338E-04    2.6353079941E-04    2.6669804536E-04
    2.6990330066E-04    2.7314702008E-04    2.7642966381E-04    2.7975169754E-04
    2.8311359243E-04    2.8651582527E-04    2.8995887855E-04    2.9344324046E-04
    2.9696940498E-04    3.0053787198E-04    3.0414914728E-04    3.0780374267E-04
    3.1150217605E-04    3.1524497143E-04    3.1903265909E-04    3.2286577556E-04
    3.2674486376E-04    3.3067047306E-04    3.3464315930E-04    3.3866348496E-04
    3.4273201919E-04    3.4684933785E-04    3.5101602363E-04    3.5523266617E-04
    3.5949986206E-04    3.6381821499E-04    3.6818833569E-04    3.7261084228E-04
    3.7708636010E-04    3.8161552192E-04    3.8619896801E-04    3.9083734617E-04
    3.9553131192E-04    4.0028152848E-04    4.0508866697E-04    4.0995340640E-04
    4.1487643377E-04    4.1985844430E-04    4.2490014137E-04    4.3000223662E-04
    4.3516545018E-04    4.4039051062E-04    4.4567815513E-04    4.5102912960E-04
    4.5644418873E-04    4.6192409608E-04    4.6746962426E-04    4.7308155498E-04
    4.7876067912E-04    4.8450779693E-04    4.9032371806E-04    4.9620926169E-04
    5.0216525663E-04    5.0819254154E-04    5.1429196479E-04    5.2046438489E-04
    5.2671067031E-04    5.3303169982E-04    5.3942836247E-04    5.4590155777E-04
    5.5245219582E-04    5.5908119737E-04    5.6578949397E-04    5.7257802815E-04
    5.7944775345E-04    5.8639963463E-04    5.9343464775E-04    6.0055378024E-04
    6.0775803123E-04    6.1504841145E-04    6.2242594349E-04    6.2989166192E-04
    6.3744661339E-04    6.4509185682E-04    6.5282846349E-04    6.6065751724E-04
    6.6858011449E-04    6.7659736452E-04    6.8471038959E-04    6.9292032498E-04
    7.0122831925E-04    7.0963553439E-04    7.1814314586E-04    7.2675234288E-04
    7.3546432849E-04    7.4428031973E-04    7.5320154779E-04    7.6222925824E-04
    7.7136471107E-04    7.8060918094E-04    7.8996395731E-04    7.9943034464E-04
    8.0900966245E-04    8.1870324567E-04    8.2851244463E-04    8.3843862536E-04
    8.4848316971E-04    8.5864747548E-04    8.6893295670E-04    8.7934104371E-04
    8.8987318345E-04    9.0053083953E-04    9.1131549248E-04    9.2222863993E-04
    9.3327179675E-04    9.4444649534E-04    9.5575428567E-04    9.6719673566E-04
    9.7877543125E-04    9.9049197661E-04    1.0023479943E-03    1.0143451257E-03
    1.0264850308E-03    1.0387693890E-03    1.0511998984E-03    1.0637782772E-03
    1.0765062629E-03    1.0893856129E-03    1.1024181049E-03    1.1156055368E-03
    1.1289497271E-03    1.1424525149E-03    1.1561157606E-03    1.1699413457E-03
    1.1839311728E-03    1.1980871667E-03    1.2124112738E-03    1.2269054627E-03
    1.2415717243E-03    1.2564120722E-03    1.2714285429E-03    1.2866231958E-03
    1.3019981139E-03    1.3175554035E-03    1.3332971948E-03    1.3492256423E-03
    1.3653429245E-03    1.3816512447E-03    1.3981528309E-03    1.4148499365E-03
    1.4317448398E-03    1.4488398451E-03    1.4661372823E-03    1.4836395077E-03
    1.5013489039E-03    1.5192678803E-03    1.5373988730E-03    1.5557443456E-03
    1.5743067892E-03    1.5930887226E-03    1.6120926928E-03    1.6313212750E-03
    1.6507770731E-03    1.6704627202E-03    1.6903808782E-03    1.7105342389E-03
    1.7309255238E-03    1.7515574844E-03    1.7724329027E-03    1.7935545915E-03
    1.8149253945E-03    1.8365481868E-03    1.8584258752E-03    1.8805613981E-03
    1.9029577267E-03    1.9256178643E-03    1.9485448472E-03    1.9717417452E-03
    1.9952116611E-03    2.0189577321E-03    2.0429831291E-03    2.0672910577E-03
    2.0918847583E-03    2.1167675064E-03    2.1419426131E-03    2.1674134252E-03
    2.1931833256E-03    2.2192557337E-03    2.2456341058E-03    2.2723219353E-03
    2.2993227532E-03    2.3266401280E-03    2.3542776667E-03    2.3822390148E-03
    2.4105278565E-03    2.4391479154E-03    2.4681029545E-03    2.4973967768E-03
    2.5270332257E-03    2.5570161849E-03    2.5873495794E-03    2.6180373753E-03
    2.6490835805E-03    2.6804922450E-03    2.7122674610E-03    2.7444133637E-03
    2.7769341312E-03    2.8098339852E-03    2.8431171912E-03    2.8767880589E-03
    2.9108509426E-03    2.9453102415E-03    2.9801704001E-03    3.0154359084E-03
    3.0511113025E-03    3.0872011651E-03    3.1237101252E-03    3.1606428591E-03
    3.1980040906E-03    3.2357985914E-03    3.2740311809E-03    3.3127067277E-03
    3.3518301487E-03    3.3914064103E-03    3.4314405285E-03    3.4719375693E-03
    3.5129026488E-03    3.5543409339E-03    3.5962576425E-03    3.6386580437E-03
    3.6815474586E-03    3.7249312601E-03    3.7688148734E-03    3.8132037766E-03
    3.8581035008E-03    3.9035196305E-03    3.9494578038E-03    3.9959237128E-03
    4.0429231042E-03    4.0904617791E-03    4.1385455938E-03    4.1871804596E-03
    4.2363723437E-03    4.2861272691E-03    4.3364513148E-03    4.3873506166E-03
    4.4388313667E-03    4.4908998147E-03    4.5435622671E-03    4.5968250882E-03
    4.6506947003E-03    4.7051775834E-03    4.7602802760E-03    4.8160093752E-03
    4.8723715368E-03    4.9293734757E-03    4.9870219657E-03    5.0453238404E-03
    5.1042859927E-03    5.1639153755E-03    5.2242190015E-03    5.2852039435E-03
    5.3468773346E-03    5.4092463683E-03    5.4723182987E-03    5.5361004401E-03
    5.6006001681E-03    5.6658249188E-03    5.7317821891E-03    5.7984795369E-03
    5.8659245813E-03    5.9341250021E-03    6.0030885402E-03    6.0728229976E-03
    6.1433362370E-03    6.2146361824E-03    6.2867308184E-03    6.3596281905E-03
    6.4333364047E-03    6.5078636280E-03    6.5832180872E-03    6.6594080700E-03
    6.7364419236E-03    6.8143280555E-03    6.8930749326E-03    6.9726910811E-03
    7.0531850865E-03    7.1345655929E-03    7.2168413029E-03    7.3000209770E-03
    7.3841134336E-03    7.4691275482E-03    7.5550722531E-03    7.6419565368E-03
    7.7297894437E-03    7.8185800734E-03    7.9083375799E-03    7.9990711715E-03
    8.0907901095E-03    8.1835037081E-03    8.2772213332E-03    8.3719524018E-03
    8.4677063812E-03    8.5644927881E-03    8.6623211878E-03    8.7612011929E-03
    8.8611424626E-03    8.9621547018E-03    9.0642476594E-03    9.1674311279E-03
    9.2717149414E-03    9.3771089752E-03    9.4836231438E-03    9.5912673997E-03
    9.7000517323E-03    9.8099861659E-03    9.9210807586E-03    1.0033345601E-02
    1.0146790812E-02    1.0261426542E-02    1.0377262966E-02    1.0494310284E-02
    1.0612578721E-02    1.0732078521E-02    1.0852819946E-02    1.0974813277E-02
    1.1098068807E-02    1.1222596843E-02    1.1348407701E-02    1.1475511703E-02
    1.1603919176E-02    1.1733640450E-02    1.1864685851E-02    1.1997065705E-02
    1.2130790327E-02    1.2265870025E-02    1.2402315092E-02    1.2540135805E-02
    1.2679342422E-02    1.2819945177E-02    1.2961954276E-02    1.3105379894E-02
    1.3250232174E-02    1.3396521217E-02    1.3544257083E-02    1.3693449784E-02
    1.3844109282E-02    1.3996245481E-02    1.4149868226E-02    1.4304987296E-02
    1.4461612398E-02    1.4619753167E-02    1.4779419153E-02    1.4940619823E-02
    1.5103364552E-02    1.5267662615E-02    1.5433523186E-02    1.5600955329E-02
    1.5769967992E-02    1.5940570000E-02    1.6112770051E-02    1.6286576705E-02
    1.6461998382E-02    1.6639043351E-02    1.6817719722E-02    1.6998035443E-02
    1.7179998287E-02    1.7363615849E-02    1.7548895531E-02    1.7735844541E-02
    1.7924469880E-02    1.8114778332E-02    1.8306776457E-02    1.8500470584E-02
    1.8695866794E-02    1.8892970918E-02    1.9091788521E-02    1.9292324895E-02
    1.9494585046E-02    1.9698573684E-02    1.9904295211E-02    2.0111753710E-02
    2.0320952933E-02    2.0531896289E-02    2.0744586830E-02    2.0959027239E-02
    2.1175219817E-02    2.1393166470E-02    2.1612868693E-02    2.1834327558E-02
    2.2057543697E-02    2.2282517290E-02    2.2509248048E-02    2.2737735195E-02
    2.2967977456E-02    2.3199973039E-02    2.3433719617E-02    2.3669214312E-02
    2.3906453674E-02    2.4145433668E-02    2.4386149654E-02    2.4628596362E-02
    2.4872767881E-02    2.5118657635E-02    2.5366258361E-02    2.5615562090E-02
    2.5866560127E-02    2.6119243025E-02    2.6373600568E-02    2.6629621742E-02
    2.6887294717E-02    2.7146606818E-02    2.7407544505E-02    2.7670093345E-02
    2.7934237988E-02    2.8199962138E-02    2.8467248531E-02    2.8736078901E-02
    2.9006433958E-02    2.9278293357E-02    2.9551635666E-02    2.9826438342E-02
    3.0102677696E-02    3.0380328860E-02    3.0659365761E-02    3.0939761086E-02
    3.1221486244E-02    3.1504511340E-02    3.1788805134E-02    3.2074335009E-02
    3.2361066932E-02    3.2648965422E-02    3.2937993505E-02    3.3228112683E-02
    3.3519282891E-02    3.3811462454E-02    3.4104608055E-02    3.4398674683E-02
    3.4693615600E-02    3.4989382289E-02    3.5285924417E-02    3.5583189786E-02
    3.5881124289E-02    3.6179671862E-02    3.6478774436E-02    3.6778371892E-02
    3.7078402006E-02    3.7378800405E-02    3.7679500508E-02    3.7980433482E-02
    3.8281528184E-02    3.8582711108E-02    3.8883906328E-02    3.9185035446E-02
    3.9486017533E-02    3.9786769069E-02    4.0087203887E-02    4.0387233113E-02
    4.0686765100E-02    4.0985705375E-02    4.1283956567E-02    4.1581418347E-02
    4.1877987364E-02    4.2173557177E-02    4.2468018188E-02    4.2761257575E-02
    4.3053159220E-02    4.3343603642E-02    4.3632467924E-02    4.3919625642E-02
    4.4204946789E-02    4.4488297701E-02    4.4769540985E-02    4.5048535439E-02
    4.5325135976E-02    4.5599193543E-02    4.5870555045E-02    4.6139063262E-02
    4.6404556770E-02    4.6666869853E-02    4.6925832426E-02    4.7181269947E-02
    4.7433003331E-02    4.7680848864E-02    4.7924618120E-02    4.8164117865E-02
    4.8399149975E-02    4.8629511341E-02    4.8854993784E-02    4.9075383957E-02
    4.9290463256E-02    4.9500007729E-02    4.9703787979E-02    4.9901569071E-02
    5.0093110437E-02    5.0278165781E-02    5.0456482981E-02    5.0627803997E-02
    5.0791864767E-02    5.0948395119E-02    5.1097118662E-02    5.1237752700E-02
    5.1370008125E-02    5.1493589322E-02    5.1608194072E-02    5.1713513453E-02
    5.1809231739E-02    5.1895026307E-02    5.1970567535E-02    5.2035518707E-02
    5.2089535917E-02    5.2132267968E-02    5.2163356283E-02    5.2182434805E-02
    5.2189129905E-02    5.2183060288E-02    5.2163836903E-02    5.2131062851E-02
    5.2084333295E-02    5.2023235375E-02    5.1947348120E-02    5.1856242363E-02
    5.1749480663E-02    5.1626617220E-02    5.1487197801E-02    5.1330759664E-02
    5.1156831486E-02    5.0964933293E-02    5.0754576394E-02    5.0525263321E-02
    5.0276487764E-02    5.0007734522E-02    4.9718479448E-02    4.9408189403E-02
    4.9076322214E-02    4.8722326636E-02    4.8345642319E-02    4.7945699784E-02
    4.7521920398E-02    4.7073716361E-02    4.6600490697E-02    4.6101637252E-02
    4.5576540699E-02    4.5024576548E-02    4.4445111170E-02    4.3837501822E-02
    4.3201096686E-02    4.2535234914E-02    4.1839246683E-02    4.1112453258E-02
    4.0354167071E-02    3.9563691805E-02    3.8740322490E-02    3.7883345612E-02
    3.6992039235E-02    3.6065673136E-02    3.5103508946E-02    3.4104800318E-02
    3.3068793095E-02    3.1994725506E-02    3.0881828367E-02    2.9729325302E-02
    2.8536432986E-02    2.7302361396E-02    2.6026314084E-02    2.4707488474E-02
    2.3345076169E-02    2.1938263285E-02    2.0486230805E-02    1.8988154948E-02
    1.7443207573E-02    1.5850556591E-02    1.4209366414E-02    1.2518798421E-02
    1.0778011454E-02    8.9861623344E-03    7.1424064131E-03    5.2458981461E-03
    3.2957916981E-03    1.2912415776E-03   -7.6859669818E-04   -2.8845659061E-03
   -5.0575063873E-03   -7.2882552836E-03   -9.5776457398E-03   -1.1926506070E-02
   -1.4335658885E-02   -1.6805920190E-02   -1.9338098431E-02   -2.1932993511E-02
   -2.4591395767E-02   -2.7314084894E-02   -3.0101828838E-02   -3.2955382639E-02
   -3.5875487230E-02   -3.8862868190E-02   -4.1918234454E-02   -4.5042276963E-02
   -4.8235667282E-02   -5.1499056153E-02   -5.4833072003E-02   -5.8238319400E-02
   -6.1715377455E-02   -6.5264798167E-02   -6.8887104715E-02   -7.2582789697E-02
   -7.6352313303E-02   -8.0196101436E-02   -8.4114543774E-02   -8.8107991771E-02
   -9.2176756592E-02   -9.6321106996E-02   -1.0054126715E-01   -1.0483741437E-01
   -1.0920967683E-01   -1.1365813118E-01   -1.1818280008E-01   -1.2278364973E-01
   -1.2746058727E-01   -1.3221345815E-01   -1.3704204344E-01   -1.4194605702E-01
   -1.4692514278E-01   -1.5197887170E-01   -1.5710673886E-01   -1.6230816043E-01
   -1.6758247056E-01   -1.7292891818E-01   -1.7834666381E-01   -1.8383477621E-01
   -1.8939222909E-01   -1.9501789759E-01   -2.0071055489E-01   -2.0646886860E-01
   -2.1229139717E-01   -2.1817658626E-01   -2.2412276500E-01   -2.3012814224E-01
   -2.3619080272E-01   -2.4230870325E-01   -2.4847966873E-01   -2.5470138831E-01
   -2.6097141132E-01   -2.6728714332E-01   -2.7364584200E-01   -2.8004461318E-01
   -2.8648040666E-01   -2.9295001219E-01   -2.9945005528E-01   -3.0597699315E-01
   -3.1252711059E-01   -3.1909651590E-01   -3.2568113673E-01   -3.3227671609E-01
   -3.3887880831E-01   -3.4548277500E-01   -3.5208378118E-01   -3.5867679137E-01
   -3.6525656573E-01   -3.7181765641E-01   -3.7835440384E-01   -3.8486093317E-01
   -3.9133115091E-01   -3.9775874150E-01   -4.0413716426E-01   -4.1045965025E-01
   -4.1671919946E-01   -4.2290857814E-01   -4.2902031627E-01   -4.3504670530E-01
   -4.4097979607E-01   -4.4681139702E-01   -4.5253307266E-01   -4.5813614222E-01
   -4.6361167875E-01   -4.6895050843E-01   -4.7414321024E-01   -4.7918011600E-01
   -4.8405131082E-01   -4.8874663388E-01   -4.9325567968E-01   -4.9756779973E-01
   -5.0167210474E-01   -5.0555746723E-01   -5.0921252474E-01   -5.1262568355E-01
   -5.1578512295E-01   -5.1867880017E-01   -5.2129445586E-01   -5.2361962026E-01
   -5.2564162008E-01   -5.2734758601E-01   -5.2872446104E-01   -5.2975900948E-01
   -5.3043782679E-01   -5.3074735030E-01   -5.3067387060E-01   -5.3020354404E-01
   -5.2932240589E-01   -5.2801638464E-01   -5.2627131708E-01   -5.2407296453E-01
   -5.2140702991E-01   -5.1825917596E-01   -5.1461504450E-01   -5.1046027671E-01
   -5.0578053458E-01   -5.0056152348E-01   -4.9478901579E-01   -4.8844887581E-01
   -4.8152708573E-01   -4.7400977292E-01   -4.6588323827E-01   -4.5713398584E-01
   -4.4774875375E-01   -4.3771454617E-01   -4.2701866667E-01   -4.1564875269E-01
   -4.0359281125E-01   -3.9083925592E-01   -3.7737694487E-01   -3.6319522020E-01
   -3.4828394835E-01   -3.3263356165E-01   -3.1623510100E-01   -2.9908025950E-01
   -2.8116142722E-01   -2.6247173682E-01   -2.4300511012E-01   -2.2275630554E-01
   -2.0172096625E-01   -1.7989566906E-01   -1.5727797391E-01   -1.3386647390E-01
   -1.0966084573E-01   -8.4661900442E-02   -5.8871634435E-02   -3.2293280475E-02
   -4.9313587180E-03    2.3208272485E-02    5.2118366112E-02    8.1790236498E-02
    1.1221371003E-01    1.4337707668E-01    1.7526704257E-01    2.0786868377E-01
    2.4116540151E-01    2.7513887906E-01    3.0976904046E-01    3.4503401135E-01
    3.8091008214E-01    4.1737167378E-01    4.5439130634E-01    4.9193957073E-01
    5.2998510380E-01    5.6849456699E-01    6.0743262906E-01    6.4676195292E-01
    6.8644318694E-01    7.2643496116E-01    7.6669388843E-01    8.0717457099E-01
    8.4782961268E-01    8.8860963705E-01    9.2946331167E-01    9.7033737889E-01
    1.0111766933E+00    1.0519242664E+00    1.0925213176E+00    1.1329073341E+00
    1.1730201368E+00    1.2127959549E+00    1.2521695079E+00    1.2910740961E+00
    1.3294416985E+00    1.3672030795E+00    1.4042879025E+00    1.4406248533E+00
    1.4761417695E+00    1.5107657554E+00    1.5444230701E+00    1.5770390113E+00
    1.6085380356E+00    1.6388439112E+00    1.6678798810E+00    1.6955688356E+00
    1.7218334966E+00    1.7465966102E+00    1.7697811504E+00    1.7913105327E+00
    1.8111088364E+00    1.8291010379E+00    1.8452132516E+00    1.8593729804E+00
    1.8715093748E+00    1.8815534990E+00    1.8894386049E+00    1.8951004130E+00
    1.8984773987E+00    1.8995110845E+00    1.8981463357E+00    1.8943316610E+00
    1.8880195144E+00    1.8791665992E+00    1.8677341721E+00    1.8536883463E+00
    1.8370003933E+00    1.8176470398E+00    1.7956107609E+00    1.7708800662E+00
    1.7434497782E+00    1.7133213005E+00    1.6805028758E+00    1.6450098297E+00
    1.6068648002E+00    1.5660979503E+00    1.5227471625E+00    1.4768582124E+00
    1.4284849200E+00    1.3776892770E+00    1.3245415477E+00    1.2691203420E+00
    1.2115126581E+00    1.1518138941E+00    1.0901278250E+00    1.0265665455E+00
    9.6125037504E-01    8.9430772481E-01    8.2587492461E-01    7.5609600857E-01
    6.8512245858E-01    6.1311290420E-01    5.4023277853E-01    4.6665392917E-01
    3.9255418407E-01    3.1811687200E-01    2.4353029773E-01    1.6898717236E-01
    9.4683999333E-02    2.0820417130E-02   -5.2401500086E-02   -1.2477798233E-01
   -1.9610434221E-01   -2.6617578963E-01   -3.3478828018E-01   -4.0173939412E-01
   -4.6682924275E-01   -5.2986139824E-01   -5.9064384303E-01   -6.4898993408E-01
   -7.0471937732E-01   -7.5765920711E-01   -8.0764476505E-01   -8.5452067243E-01
   -8.9814179019E-01   -9.3837415986E-01   -9.7509591900E-01   -1.0081981841E+00
   -1.0375858940E+00   -1.0631786068E+00   -1.0849112427E+00   -1.1027347656E+00
   -1.1166167964E+00   -1.1265421506E+00   -1.1325132928E+00   -1.1345507019E+00
   -1.1326931403E+00   -1.1269978198E+00   -1.1175404595E+00   -1.1044152304E+00
   -1.0877345799E+00   -1.0676289351E+00   -1.0442462782E+00   -1.0177515932E+00
   -9.8832618149E-01   -9.5616684531E-01   -9.2148493834E-01   -8.8450528567E-01
   -8.4546497426E-01   -8.0461201763E-01   -7.6220389896E-01   -7.1850599856E-01
   -6.7378991247E-01   -6.2833167071E-01   -5.8240986459E-01   -5.3630369423E-01
   -4.9029094855E-01   -4.4464593141E-01   -3.9963734878E-01   -3.5552617349E-01
   -3.1256350483E-01   -2.7098844194E-01   -2.3102599102E-01   -1.9288502714E-01
   -1.5675633309E-01   -1.2281073810E-01   -9.1197380410E-02   -6.2042118326E-02
   -3.5446115109E-02   -1.1484623474E-02    9.7940042626E-03    2.8369053964E-02
    4.4247909233E-02    5.7466206889E-02    6.8087662965E-02    7.6203545025E-02
    8.1931767838E-02    8.5415591681E-02    8.6821904887E-02    8.6339075905E-02
    8.4174364680E-02    8.0550888389E-02    7.5704143962E-02    6.9878098351E-02
    6.3320867839E-02    5.6280020849E-02    4.8997553449E-02    4.1704605148E-02
    3.4616002946E-02    2.7924745818E-02    2.1796568723E-02    1.6356548974E-02
    1.1672143326E-02    7.8116541649E-03    4.8010668274E-03    2.6170346901E-03
    1.1866602404E-03    3.8928620005E-04    6.0685939985E-05    4.2582632184E-08
   -0.0000000000E+00   -0.0000000000E+00   -0.0000000000E+00   -0.0000000000E+00
   -0.0000000000E+00   -0.0000000000E+00   -0.0000000000E+00   -0.0000000000E+00
   -0.0000000000E+00   -0.0000000000E+00   -0.0000000000E+00   -0.0000000000E+00
   -0.0000000000E+00   -0.0000000000E+00   -0.0000000000E+00   -0.0000000000E+00
   -0.0000000000E+00   -0.0000000000E+00   -0.0000000000E+00   -0.0000000000E+00
   -0.0000000000E+00   -0.0000000000E+00   -0.0000000000E+00   -0.0000000000E+00
   -0.0000000000E+00   -0.0000000000E+00   -0.0000000000E+00   -0.0000000000E+00
   -0.0000000000E+00   -0.0000000000E+00   -0.0000000000E+00   -0.0000000000E+00
   -0.0000000000E+00   -0.0000000000E+00   -0.0000000000E+00   -0.0000000000E+00
   -0.0000000000E+00   -0.0000000000E+00   -0.0000000000E+00   -0.0000000000E+00
   -0.0000000000E+00   -0.0000000000E+00   -0.0000000000E+00   -0.0000000000E+00
   -0.0000000000E+00   -0.0000000000E+00   -0.0000000000E+00   -0.0000000000E+00
   -0.0000000000E+00   -0.0000000000E+00   -0.0000000000E+00   -0.0000000000E+00
   -0.0000000000E+00   -0.0000000000E+00   -0.0000000000E+00   -0.0000000000E+00
   -0.0000000000E+00   -0.0000000000E+00   -0.0000000000E+00   -0.0000000000E+00
   -0.0000000000E+00   -0.0000000000E+00   -0.0000000000E+00   -0.0000000000E+00
   -0.0000000000E+00   -0.0000000000E+00   -0.0000000000E+00   -0.0000000000E+00
   -0.0000000000E+00   -0.0000000000E+00   -0.0000000000E+00   -0.0000000000E+00
   -0.0000000000E+00   -0.0000000000E+00   -0.0000000000E+00   -0.0000000000E+00
   -0.0000000000E+00   -0.0000000000E+00   -0.0000000000E+00   -0.0000000000E+00
   -0.0000000000E+00   -0.0000000000E+00   -0.0000000000E+00   -0.0000000000E+00
   -0.0000000000E+00   -0.0000000000E+00   -0.0000000000E+00   -0.0000000000E+00
   -0.0000000000E+00   -0.0000000000E+00   -0.0000000000E+00   -0.0000000000E+00
   -0.0000000000E+00   -0.0000000000E+00   -0.0000000000E+00   -0.0000000000E+00
   -0.0000000000E+00   -0.0000000000E+00   -0.0000000000E+00   -0.0000000000E+00
   -0.0000000000E+00   -0.0000000000E+00   -0.0000000000E+00   -0.0000000000E+00
   -0.0000000000E+00   -0.0000000000E+00   -0.0000000000E+00   -0.0000000000E+00
   -0.0000000000E+00   -0.0000000000E+00   -0.0000000000E+00   -0.0000000000E+00
   -0.0000000000E+00   -0.0000000000E+00   -0.0000000000E+00   -0.0000000000E+00
   -0.0000000000E+00   -0.0000000000E+00   -0.0000000000E+00   -0.0000000000E+00
   -0.0000000000E+00   -0.0000000000E+00   -0.0000000000E+00   -0.0000000000E+00
   -0.0000000000E+00   -0.0000000000E+00   -0.0000000000E+00   -0.0000000000E+00
   -0.0000000000E+00   -0.0000000000E+00   -0.0000000000E+00   -0.0000000000E+00
   -0.0000000000E+00   -0.0000000000E+00   -0.0000000000E+00   -0.0000000000E+00
   -0.0000000000E+00   -0.0000000000E+00   -0.0000000000E+00   -0.0000000000E+00
   -0.0000000000E+00   -0.0000000000E+00   -0.0000000000E+00   -0.0000000000E+00
   -0.0000000000E+00   -0.0000000000E+00   -0.0000000000E+00   -0.0000000000E+00
   -0.0000000000E+00   -0.0000000000E+00   -0.0000000000E+00   -0.0000000000E+00
   -0.0000000000E+00   -0.0000000000E+00   -0.0000000000E+00   -0.0000000000E+00
   -0.0000000000E+00   -0.0000000000E+00   -0.0000000000E+00   -0.0000000000E+00
   -0.0000000000E+00   -0.0000000000E+00   -0.0000000000E+00   -0.0000000000E+00
   -0.0000000000E+00   -0.0000000000E+00   -0.0000000000E+00   -0.0000000000E+00
   -0.0000000000E+00   -0.0000000000E+00   -0.0000000000E+00   -0.0000000000E+00
   -0.0000000000E+00   -0.0000000000E+00   -0.0000000000E+00   -0.0000000000E+00
   -0.0000000000E+00   -0.0000000000E+00   -0.0000000000E+00   -0.0000000000E+00
   -0.0000000000E+00   -0.0000000000E+00   -0.0000000000E+00   -0.0000000000E+00
   -0.0000000000E+00   -0.0000000000E+00   -0.0000000000E+00   -0.0000000000E+00
   -0.0000000000E+00   -0.0000000000E+00   -0.0000000000E+00   -0.0000000000E+00
   -0.0000000000E+00   -0.0000000000E+00   -0.0000000000E+00   -0.0000000000E+00
   -0.0000000000E+00   -0.0000000000E+00   -0.0000000000E+00   -0.0000000000E+00
   -0.0000000000E+00   -0.0000000000E+00   -0.0000000000E+00   -0.0000000000E+00
   -0.0000000000E+00   -0.0000000000E+00   -0.0000000000E+00   -0.0000000000E+00
   -0.0000000000E+00   -0.0000000000E+00   -0.0000000000E+00   -0.0000000000E+00
   -0.0000000000E+00   -0.0000000000E+00   -0.0000000000E+00   -0.0000000000E+00
   -0.0000000000E+00   -0.0000000000E+00   -0.0000000000E+00   -0.0000000000E+00
   -0.0000000000E+00   -0.0000000000E+00   -0.0000000000E+00   -0.0000000000E+00
   -0.0000000000E+00   -0.0000000000E+00   -0.0000000000E+00   -0.0000000000E+00
   -0.0000000000E+00   -0.0000000000E+00   -0.0000000000E+00   -0.0000000000E+00
   -0.0000000000E+00   -0.0000000000E+00   -0.0000000000E+00   -0.0000000000E+00
   -0.0000000000E+00   -0.0000000000E+00   -0.0000000000E+00   -0.0000000000E+00
   -0.0000000000E+00   -0.0000000000E+00   -0.0000000000E+00   -0.0000000000E+00
   -0.0000000000E+00   -0.0000000000E+00   -0.0000000000E+00   -0.0000000000E+00
   -0.0000000000E+00   -0.0000000000E+00   -0.0000000000E+00   -0.0000000000E+00
   -0.0000000000E+00   -0.0000000000E+00   -0.0000000000E+00   -0.0000000000E+00
   -0.0000000000E+00   -0.0000000000E+00   -0.0000000000E+00   -0.0000000000E+00
   -0.0000000000E+00   -0.0000000000E+00   -0.0000000000E+00   -0.0000000000E+00
   -0.0000000000E+00   -0.0000000000E+00   -0.0000000000E+00   -0.0000000000E+00
   -0.0000000000E+00   -0.0000000000E+00   -0.0000000000E+00   -0.0000000000E+00
   -0.0000000000E+00   -0.0000000000E+00   -0.0000000000E+00   -0.0000000000E+00
   -0.0000000000E+00   -0.0000000000E+00   -0.0000000000E+00   -0.0000000000E+00
   -0.0000000000E+00   -0.0000000000E+00   -0.0000000000E+00   -0.0000000000E+00
   -0.0000000000E+00   -0.0000000000E+00   -0.0000000000E+00   -0.0000000000E+00
   -0.0000000000E+00   -0.0000000000E+00   -0.0000000000E+00   -0.0000000000E+00
   -0.0000000000E+00   -0.0000000000E+00   -0.0000000000E+00   -0.0000000000E+00
   -0.0000000000E+00   -0.0000000000E+00   -0.0000000000E+00   -0.0000000000E+00
   -0.0000000000E+00   -0.0000000000E+00   -0.0000000000E+00   -0.0000000000E+00
   -0.0000000000E+00   -0.0000000000E+00   -0.0000000000E+00   -0.0000000000E+00
   -0.0000000000E+00   -0.0000000000E+00   -0.0000000000E+00   -0.0000000000E+00
   -0.0000000000E+00   -0.0000000000E+00   -0.0000000000E+00   -0.0000000000E+00
   -0.0000000000E+00   -0.0000000000E+00   -0.0000000000E+00   -0.0000000000E+00
   -0.0000000000E+00   -0.0000000000E+00   -0.0000000000E+00   -0.0000000000E+00
   -0.0000000000E+00   -0.0000000000E+00   -0.0000000000E+00   -0.0000000000E+00
   -0.0000000000E+00   -0.0000000000E+00   -0.0000000000E+00   -0.0000000000E+00
   -0.0000000000E+00   -0.0000000000E+00   -0.0000000000E+00   -0.0000000000E+00
   -0.0000000000E+00   -0.0000000000E+00   -0.0000000000E+00   -0.0000000000E+00
   -0.0000000000E+00   -0.0000000000E+00   -0.0000000000E+00   -0.0000000000E+00
   -0.0000000000E+00   -0.0000000000E+00   -0.0000000000E+00   -0.0000000000E+00
   -0.0000000000E+00   -0.0000000000E+00   -0.0000000000E+00   -0.0000000000E+00
   -0.0000000000E+00   -0.0000000000E+00   -0.0000000000E+00   -0.0000000000E+00
   -0.0000000000E+00   -0.0000000000E+00   -0.0000000000E+00   -0.0000000000E+00
   -0.0000000000E+00   -0.0000000000E+00   -0.0000000000E+00   -0.0000000000E+00
   -0.0000000000E+00   -0.0000000000E+00   -0.0000000000E+00   -0.0000000000E+00
   -0.0000000000E+00   -0.0000000000E+00   -0.0000000000E+00   -0.0000000000E+00
   -0.0000000000E+00   -0.0000000000E+00   -0.0000000000E+00   -0.0000000000E+00
   -0.0000000000E+00   -0.0000000000E+00   -0.0000000000E+00   -0.0000000000E+00
   -0.0000000000E+00   -0.0000000000E+00   -0.0000000000E+00   -0.0000000000E+00
   -0.0000000000E+00   -0.0000000000E+00   -0.0000000000E+00   -0.0000000000E+00
   -0.0000000000E+00   -0.0000000000E+00   -0.0000000000E+00   -0.0000000000E+00
   -0.0000000000E+00   -0.0000000000E+00   -0.0000000000E+00   -0.0000000000E+00
   -0.0000000000E+00   -0.0000000000E+00   -0.0000000000E+00   -0.0000000000E+00
   -0.0000000000E+00   -0.0000000000E+00   -0.0000000000E+00   -0.0000000000E+00
   -0.0000000000E+00   -0.0000000000E+00   -0.0000000000E+00   -0.0000000000E+00
   -0.0000000000E+00   -0.0000000000E+00   -0.0000000000E+00   -0.0000000000E+00
   -0.0000000000E+00   -0.0000000000E+00   -0.0000000000E+00   -0.0000000000E+00
   -0.0000000000E+00   -0.0000000000E+00   -0.0000000000E+00   -0.0000000000E+00
   -0.0000000000E+00   -0.0000000000E+00   -0.0000000000E+00   -0.0000000000E+00
   -0.0000000000E+00   -0.0000000000E+00   -0.0000000000E+00   -0.0000000000E+00
   -0.0000000000E+00   -0.0000000000E+00   -0.0000000000E+00   -0.0000000000E+00
   -0.0000000000E+00   -0.0000000000E+00   -0.0000000000E+00   -0.0000000000E+00
   -0.0000000000E+00   -0.0000000000E+00   -0.0000000000E+00   -0.0000000000E+00
   -0.0000000000E+00   -0.0000000000E+00   -0.0000000000E+00   -0.0000000000E+00
   -0.0000000000E+00   -0.0000000000E+00   -0.0000000000E+00   -0.0000000000E+00
   -0.0000000000E+00   -0.0000000000E+00   -0.0000000000E+00   -0.0000000000E+00
   -0.0000000000E+00   -0.0000000000E+00   -0.0000000000E+00   -0.0000000000E+00
   -0.0000000000E+00   -0.0000000000E+00   -0.0000000000E+00   -0.0000000000E+00
   -0.0000000000E+00   -0.0000000000E+00   -0.0000000000E+00   -0.0000000000E+00
   -0.0000000000E+00   -0.0000000000E+00   -0.0000000000E+00   -0.0000000000E+00
   -0.0000000000E+00   -0.0000000000E+00   -0.0000000000E+00   -0.0000000000E+00
   -0.0000000000E+00   -0.0000000000E+00   -0.0000000000E+00   -0.0000000000E+00
   -0.0000000000E+00   -0.0000000000E+00   -0.0000000000E+00   -0.0000000000E+00
   -0.0000000000E+00   -0.0000000000E+00   -0.0000000000E+00   -0.0000000000E+00
   -0.0000000000E+00   -0.0000000000E+00   -0.0000000000E+00   -0.0000000000E+00
   -0.0000000000E+00   -0.0000000000E+00   -0.0000000000E+00   -0.0000000000E+00
   -0.0000000000E+00   -0.0000000000E+00   -0.0000000000E+00   -0.0000000000E+00
   -0.0000000000E+00   -0.0000000000E+00   -0.0000000000E+00   -0.0000000000E+00
   -0.0000000000E+00   -0.0000000000E+00   -0.0000000000E+00   -0.0000000000E+00
   -0.0000000000E+00   -0.0000000000E+00   -0.0000000000E+00   -0.0000000000E+00
   -0.0000000000E+00   -0.0000000000E+00   -0.0000000000E+00   -0.0000000000E+00
   -0.0000000000E+00   -0.0000000000E+00   -0.0000000000E+00   -0.0000000000E+00
   -0.0000000000E+00   -0.0000000000E+00   -0.0000000000E+00   -0.0000000000E+00
   -0.0000000000E+00   -0.0000000000E+00   -0.0000000000E+00   -0.0000000000E+00
   -0.0000000000E+00   -0.0000000000E+00   -0.0000000000E+00   -0.0000000000E+00
   -0.0000000000E+00   -0.0000000000E+00   -0.0000000000E+00   -0.0000000000E+00
   -0.0000000000E+00   -0.0000000000E+00   -0.0000000000E+00   -0.0000000000E+00
   -0.0000000000E+00   -0.0000000000E+00   -0.0000000000E+00   -0.0000000000E+00
   -0.0000000000E+00   -0.0000000000E+00   -0.0000000000E+00   -0.0000000000E+00
   -0.0000000000E+00   -0.0000000000E+00   -0.0000000000E+00   -0.0000000000E+00
   -0.0000000000E+00   -0.0000000000E+00   -0.0000000000E+00   -0.0000000000E+00
   -0.0000000000E+00   -0.0000000000E+00   -0.0000000000E+00
   </PP_BETA.4>
   <PP_DIJ type="real"  size="  16" columns="4">
   -4.8137319270E+00    0.0000000000E+00    0.0000000000E+00    0.0000000000E+00
    0.0000000000E+00   -2.4512997209E+00    0.0000000000E+00    0.0000000000E+00
    0.0000000000E+00    0.0000000000E+00   -6.1498930691E+00    0.0000000000E+00
    0.0000000000E+00    0.0000000000E+00    0.0000000000E+00   -2.2594302332E+00
   </PP_DIJ>
 </PP_NONLOCAL>
 <PP_PSWFC>
   <PP_CHI.1
       type="real"
       size="  2291"
       columns="4"
       index="1"
       occupation=" 2.000"
       pseudo_energy="   -0.3811248879E+01"
       label="1S"
       l="0" >
    1.8540183343E-04    1.8651424443E-04    1.8763332989E-04    1.8875912987E-04
    1.8989168465E-04    1.9103103476E-04    1.9217722096E-04    1.9333028429E-04
    1.9449026599E-04    1.9565720759E-04    1.9683115083E-04    1.9801213773E-04
    1.9920021056E-04    2.0039541182E-04    2.0159778428E-04    2.0280737099E-04
    2.0402421521E-04    2.0524836049E-04    2.0647985065E-04    2.0771872975E-04
    2.0896504213E-04    2.1021883237E-04    2.1148014536E-04    2.1274902623E-04
    2.1402552038E-04    2.1530967350E-04    2.1660153153E-04    2.1790114072E-04
    2.1920854755E-04    2.2052379883E-04    2.2184694162E-04    2.2317802326E-04
    2.2451709139E-04    2.2586419393E-04    2.2721937909E-04    2.2858269535E-04
    2.2995419151E-04    2.3133391665E-04    2.3272192014E-04    2.3411825165E-04
    2.3552296115E-04    2.3693609891E-04    2.3835771549E-04    2.3978786177E-04
    2.4122658893E-04    2.4267394845E-04    2.4412999213E-04    2.4559477207E-04
    2.4706834069E-04    2.4855075071E-04    2.5004205520E-04    2.5154230752E-04
    2.5305156135E-04    2.5456987070E-04    2.5609728991E-04    2.5763387363E-04
    2.5917967686E-04    2.6073475490E-04    2.6229916341E-04    2.6387295837E-04
    2.6545619610E-04    2.6704893326E-04    2.6865122684E-04    2.7026313418E-04
    2.7188471296E-04    2.7351602122E-04    2.7515711732E-04    2.7680806000E-04
    2.7846890834E-04    2.8013972176E-04    2.8182056007E-04    2.8351148340E-04
    2.8521255228E-04    2.8692382756E-04    2.8864537050E-04    2.9037724269E-04
    2.9211950612E-04    2.9387222313E-04    2.9563545643E-04    2.9740926914E-04
    2.9919372472E-04    3.0098888704E-04    3.0279482033E-04    3.0461158922E-04
    3.0643925872E-04    3.0827789423E-04    3.1012756156E-04    3.1198832689E-04
    3.1386025682E-04    3.1574341832E-04    3.1763787879E-04    3.1954370602E-04
    3.2146096821E-04    3.2338973398E-04    3.2533007234E-04    3.2728205273E-04
    3.2924574500E-04    3.3122121942E-04    3.3320854669E-04    3.3520779792E-04
    3.3721904466E-04    3.3924235887E-04    3.4127781297E-04    3.4332547980E-04
    3.4538543262E-04    3.4745774516E-04    3.4954249158E-04    3.5163974647E-04
    3.5374958489E-04    3.5587208233E-04    3.5800731477E-04    3.6015535859E-04
    3.6231629068E-04    3.6449018836E-04    3.6667712942E-04    3.6887719213E-04
    3.7109045521E-04    3.7331699787E-04    3.7555689978E-04    3.7781024111E-04
    3.8007710248E-04    3.8235756502E-04    3.8465171033E-04    3.8695962051E-04
    3.8928137815E-04    3.9161706633E-04    3.9396676865E-04    3.9633056917E-04
    3.9870855250E-04    4.0110080372E-04    4.0350740845E-04    4.0592845281E-04
    4.0836402343E-04    4.1081420747E-04    4.1327909261E-04    4.1575876707E-04
    4.1825331956E-04    4.2076283938E-04    4.2328741630E-04    4.2582714069E-04
    4.2838210342E-04    4.3095239593E-04    4.3353811018E-04    4.3613933873E-04
    4.3875617464E-04    4.4138871156E-04    4.4403704370E-04    4.4670126583E-04
    4.4938147330E-04    4.5207776200E-04    4.5479022844E-04    4.5751896967E-04
    4.6026408334E-04    4.6302566770E-04    4.6580382156E-04    4.6859864434E-04
    4.7141023605E-04    4.7423869731E-04    4.7708412933E-04    4.7994663395E-04
    4.8282631358E-04    4.8572327130E-04    4.8863761075E-04    4.9156943624E-04
    4.9451885268E-04    4.9748596561E-04    5.0047088122E-04    5.0347370632E-04
    5.0649454836E-04    5.0953351546E-04    5.1259071635E-04    5.1566626044E-04
    5.1876025780E-04    5.2187281913E-04    5.2500405583E-04    5.2815407995E-04
    5.3132300420E-04    5.3451094200E-04    5.3771800742E-04    5.4094431522E-04
    5.4418998087E-04    5.4745512051E-04    5.5073985099E-04    5.5404428984E-04
    5.5736855531E-04    5.6071276638E-04    5.6407704271E-04    5.6746150469E-04
    5.7086627344E-04    5.7429147079E-04    5.7773721933E-04    5.8120364235E-04
    5.8469086390E-04    5.8819900877E-04    5.9172820251E-04    5.9527857141E-04
    5.9885024251E-04    6.0244334364E-04    6.0605800336E-04    6.0969435104E-04
    6.1335251679E-04    6.1703263154E-04    6.2073482696E-04    6.2445923555E-04
    6.2820599059E-04    6.3197522615E-04    6.3576707712E-04    6.3958167918E-04
    6.4341916885E-04    6.4727968345E-04    6.5116336113E-04    6.5507034087E-04
    6.5900076248E-04    6.6295476661E-04    6.6693249475E-04    6.7093408926E-04
    6.7495969333E-04    6.7900945101E-04    6.8308350723E-04    6.8718200777E-04
    6.9130509931E-04    6.9545292940E-04    6.9962564645E-04    7.0382339979E-04
    7.0804633965E-04    7.1229461713E-04    7.1656838427E-04    7.2086779400E-04
    7.2519300018E-04    7.2954415759E-04    7.3392142192E-04    7.3832494984E-04
    7.4275489891E-04    7.4721142766E-04    7.5169469557E-04    7.5620486308E-04
    7.6074209158E-04    7.6530654344E-04    7.6989838200E-04    7.7451777158E-04
    7.7916487748E-04    7.8383986601E-04    7.8854290445E-04    7.9327416111E-04
    7.9803380529E-04    8.0282200732E-04    8.0763893856E-04    8.1248477136E-04
    8.1735967915E-04    8.2226383636E-04    8.2719741851E-04    8.3216060213E-04
    8.3715356484E-04    8.4217648531E-04    8.4722954328E-04    8.5231291958E-04
    8.5742679613E-04    8.6257135591E-04    8.6774678304E-04    8.7295326271E-04
    8.7819098124E-04    8.8346012606E-04    8.8876088574E-04    8.9409344995E-04
    8.9945800952E-04    9.0485475643E-04    9.1028388380E-04    9.1574558592E-04
    9.2124005823E-04    9.2676749734E-04    9.3232810107E-04    9.3792206840E-04
    9.4354959951E-04    9.4921089579E-04    9.5490615981E-04    9.6063559540E-04
    9.6639940757E-04    9.7219780260E-04    9.7803098796E-04    9.8389917242E-04
    9.8980256595E-04    9.9574137981E-04    1.0017158265E-03    1.0077261199E-03
    1.0137724750E-03    1.0198551082E-03    1.0259742372E-03    1.0321300809E-03
    1.0383228597E-03    1.0445527951E-03    1.0508201100E-03    1.0571250289E-03
    1.0634677772E-03    1.0698485819E-03    1.0762676715E-03    1.0827252755E-03
    1.0892216252E-03    1.0957569529E-03    1.1023314925E-03    1.1089454794E-03
    1.1155991501E-03    1.1222927428E-03    1.1290264970E-03    1.1358006537E-03
    1.1426154553E-03    1.1494711457E-03    1.1563679702E-03    1.1633061756E-03
    1.1702860101E-03    1.1773077237E-03    1.1843715674E-03    1.1914777942E-03
    1.1986266583E-03    1.2058184155E-03    1.2130533232E-03    1.2203316403E-03
    1.2276536273E-03    1.2350195461E-03    1.2424296604E-03    1.2498842354E-03
    1.2573835377E-03    1.2649278358E-03    1.2725173996E-03    1.2801525007E-03
    1.2878334124E-03    1.2955604095E-03    1.3033337685E-03    1.3111537676E-03
    1.3190206867E-03    1.3269348071E-03    1.3348964123E-03    1.3429057870E-03
    1.3509632179E-03    1.3590689933E-03    1.3672234033E-03    1.3754267396E-03
    1.3836792960E-03    1.3919813675E-03    1.4003332515E-03    1.4087352466E-03
    1.4171876537E-03    1.4256907751E-03    1.4342449152E-03    1.4428503800E-03
    1.4515074775E-03    1.4602165175E-03    1.4689778117E-03    1.4777916735E-03
    1.4866584185E-03    1.4955783638E-03    1.5045518286E-03    1.5135791342E-03
    1.5226606035E-03    1.5317965616E-03    1.5409873352E-03    1.5502332534E-03
    1.5595346471E-03    1.5688918489E-03    1.5783051939E-03    1.5877750188E-03
    1.5973016626E-03    1.6068854661E-03    1.6165267723E-03    1.6262259263E-03
    1.6359832750E-03    1.6457991677E-03    1.6556739557E-03    1.6656079922E-03
    1.6756016328E-03    1.6856552352E-03    1.6957691590E-03    1.7059437662E-03
    1.7161794209E-03    1.7264764895E-03    1.7368353402E-03    1.7472563440E-03
    1.7577398736E-03    1.7682863042E-03    1.7788960133E-03    1.7895693804E-03
    1.8003067876E-03    1.8111086191E-03    1.8219752614E-03    1.8329071033E-03
    1.8439045362E-03    1.8549679535E-03    1.8660977511E-03    1.8772943273E-03
    1.8885580827E-03    1.8998894206E-03    1.9112887462E-03    1.9227564676E-03
    1.9342929951E-03    1.9458987416E-03    1.9575741224E-03    1.9693195552E-03
    1.9811354605E-03    1.9930222609E-03    2.0049803819E-03    2.0170102514E-03
    2.0291122999E-03    2.0412869604E-03    2.0535346687E-03    2.0658558630E-03
    2.0782509842E-03    2.0907204758E-03    2.1032647842E-03    2.1158843581E-03
    2.1285796493E-03    2.1413511119E-03    2.1541992030E-03    2.1671243823E-03
    2.1801271125E-03    2.1932078587E-03    2.2063670891E-03    2.2196052746E-03
    2.2329228889E-03    2.2463204086E-03    2.2597983130E-03    2.2733570846E-03
    2.2869972085E-03    2.3007191727E-03    2.3145234685E-03    2.3284105896E-03
    2.3423810331E-03    2.3564352989E-03    2.3705738899E-03    2.3847973121E-03
    2.3991060745E-03    2.4135006890E-03    2.4279816709E-03    2.4425495382E-03
    2.4572048123E-03    2.4719480176E-03    2.4867796818E-03    2.5017003354E-03
    2.5167105126E-03    2.5318107504E-03    2.5470015891E-03    2.5622835725E-03
    2.5776572472E-03    2.5931231635E-03    2.6086818748E-03    2.6243339379E-03
    2.6400799128E-03    2.6559203631E-03    2.6718558556E-03    2.6878869604E-03
    2.7040142514E-03    2.7202383055E-03    2.7365597034E-03    2.7529790291E-03
    2.7694968702E-03    2.7861138177E-03    2.8028304662E-03    2.8196474141E-03
    2.8365652630E-03    2.8535846184E-03    2.8707060892E-03    2.8879302882E-03
    2.9052578317E-03    2.9226893398E-03    2.9402254362E-03    2.9578667485E-03
    2.9756139079E-03    2.9934675495E-03    3.0114283122E-03    3.0294968388E-03
    3.0476737757E-03    3.0659597734E-03    3.0843554863E-03    3.1028615726E-03
    3.1214786947E-03    3.1402075186E-03    3.1590487145E-03    3.1780029568E-03
    3.1970709236E-03    3.2162532973E-03    3.2355507642E-03    3.2549640151E-03
    3.2744937444E-03    3.2941406512E-03    3.3139054383E-03    3.3337888132E-03
    3.3537914873E-03    3.3739141763E-03    3.3941576004E-03    3.4145224840E-03
    3.4350095557E-03    3.4556195487E-03    3.4763532005E-03    3.4972112530E-03
    3.5181944526E-03    3.5393035502E-03    3.5605393012E-03    3.5819024653E-03
    3.6033938072E-03    3.6250140958E-03    3.6467641047E-03    3.6686446124E-03
    3.6906564017E-03    3.7128002603E-03    3.7350769806E-03    3.7574873598E-03
    3.7800321997E-03    3.8027123072E-03    3.8255284938E-03    3.8484815759E-03
    3.8715723749E-03    3.8948017170E-03    3.9181704335E-03    3.9416793606E-03
    3.9653293396E-03    3.9891212167E-03    4.0130558432E-03    4.0371340757E-03
    4.0613567757E-03    4.0857248100E-03    4.1102390506E-03    4.1349003747E-03
    4.1597096647E-03    4.1846678085E-03    4.2097756990E-03    4.2350342348E-03
    4.2604443196E-03    4.2860068628E-03    4.3117227790E-03    4.3375929884E-03
    4.3636184168E-03    4.3897999954E-03    4.4161386611E-03    4.4426353564E-03
    4.4692910293E-03    4.4961066338E-03    4.5230831293E-03    4.5502214812E-03
    4.5775226605E-03    4.6049876443E-03    4.6326174151E-03    4.6604129618E-03
    4.6883752789E-03    4.7165053670E-03    4.7448042326E-03    4.7732728885E-03
    4.8019123532E-03    4.8307236515E-03    4.8597078145E-03    4.8888658792E-03
    4.9181988890E-03    4.9477078935E-03    4.9773939486E-03    5.0072581165E-03
    5.0373014659E-03    5.0675250718E-03    5.0979300157E-03    5.1285173855E-03
    5.1592882757E-03    5.1902437873E-03    5.2213850281E-03    5.2527131123E-03
    5.2842291609E-03    5.3159343017E-03    5.3478296690E-03    5.3799164043E-03
    5.4121956555E-03    5.4446685778E-03    5.4773363330E-03    5.5102000902E-03
    5.5432610251E-03    5.5765203209E-03    5.6099791676E-03    5.6436387623E-03
    5.6775003095E-03    5.7115650209E-03    5.7458341152E-03    5.7803088188E-03
    5.8149903651E-03    5.8498799952E-03    5.8849789574E-03    5.9202885076E-03
    5.9558099092E-03    5.9915444333E-03    6.0274933585E-03    6.0636579710E-03
    6.1000395650E-03    6.1366394420E-03    6.1734589118E-03    6.2104992918E-03
    6.2477619073E-03    6.2852480916E-03    6.3229591860E-03    6.3608965398E-03
    6.3990615105E-03    6.4374554636E-03    6.4760797729E-03    6.5149358204E-03
    6.5540249964E-03    6.5933486995E-03    6.6329083367E-03    6.6727053234E-03
    6.7127410838E-03    6.7530170501E-03    6.7935346635E-03    6.8342953738E-03
    6.8753006393E-03    6.9165519272E-03    6.9580507135E-03    6.9997984831E-03
    7.0417967295E-03    7.0840469556E-03    7.1265506730E-03    7.1693094025E-03
    7.2123246739E-03    7.2555980264E-03    7.2991310082E-03    7.3429251769E-03
    7.3869820995E-03    7.4313033522E-03    7.4758905209E-03    7.5207452007E-03
    7.5658689967E-03    7.6112635231E-03    7.6569304043E-03    7.7028712741E-03
    7.7490877762E-03    7.7955815642E-03    7.8423543016E-03    7.8894076617E-03
    7.9367433281E-03    7.9843629945E-03    8.0322683644E-03    8.0804611519E-03
    8.1289430813E-03    8.1777158871E-03    8.2267813142E-03    8.2761411183E-03
    8.3257970651E-03    8.3757509313E-03    8.4260045041E-03    8.4765595815E-03
    8.5274179721E-03    8.5785814956E-03    8.6300519824E-03    8.6818312739E-03
    8.7339212228E-03    8.7863236925E-03    8.8390405578E-03    8.8920737049E-03
    8.9454250310E-03    8.9990964449E-03    9.0530898666E-03    9.1074072280E-03
    9.1620504721E-03    9.2170215541E-03    9.2723224404E-03    9.3279551095E-03
    9.3839215517E-03    9.4402237692E-03    9.4968637763E-03    9.5538435993E-03
    9.6111652765E-03    9.6688308588E-03    9.7268424090E-03    9.7852020026E-03
    9.8439117272E-03    9.9029736833E-03    9.9623899837E-03    1.0022162754E-02
    1.0082294132E-02    1.0142786270E-02    1.0203641331E-02    1.0264861493E-02
    1.0326448945E-02    1.0388405890E-02    1.0450734546E-02    1.0513437141E-02
    1.0576515919E-02    1.0639973137E-02    1.0703811063E-02    1.0768031983E-02
    1.0832638193E-02    1.0897632004E-02    1.0963015742E-02    1.1028791744E-02
    1.1094962365E-02    1.1161529971E-02    1.1228496944E-02    1.1295865678E-02
    1.1363638584E-02    1.1431818086E-02    1.1500406623E-02    1.1569406648E-02
    1.1638820629E-02    1.1708651050E-02    1.1778900408E-02    1.1849571216E-02
    1.1920666002E-02    1.1992187309E-02    1.2064137695E-02    1.2136519734E-02
    1.2209336015E-02    1.2282589141E-02    1.2356281735E-02    1.2430416430E-02
    1.2504995880E-02    1.2580022751E-02    1.2655499727E-02    1.2731429507E-02
    1.2807814808E-02    1.2884658362E-02    1.2961962916E-02    1.3039731236E-02
    1.3117966104E-02    1.3196670317E-02    1.3275846690E-02    1.3355498056E-02
    1.3435627263E-02    1.3516237176E-02    1.3597330679E-02    1.3678910672E-02
    1.3760980073E-02    1.3843541816E-02    1.3926598856E-02    1.4010154161E-02
    1.4094210720E-02    1.4178771540E-02    1.4263839644E-02    1.4349418074E-02
    1.4435509892E-02    1.4522118176E-02    1.4609246023E-02    1.4696896549E-02
    1.4785072889E-02    1.4873778195E-02    1.4963015641E-02    1.5052788416E-02
    1.5143099732E-02    1.5233952818E-02    1.5325350922E-02    1.5417297313E-02
    1.5509795279E-02    1.5602848128E-02    1.5696459187E-02    1.5790631802E-02
    1.5885369342E-02    1.5980675195E-02    1.6076552767E-02    1.6173005487E-02
    1.6270036804E-02    1.6367650187E-02    1.6465849127E-02    1.6564637135E-02
    1.6664017742E-02    1.6763994502E-02    1.6864570990E-02    1.6965750801E-02
    1.7067537553E-02    1.7169934885E-02    1.7272946459E-02    1.7376575956E-02
    1.7480827082E-02    1.7585703564E-02    1.7691209151E-02    1.7797347616E-02
    1.7904122752E-02    1.8011538377E-02    1.8119598331E-02    1.8228306476E-02
    1.8337666699E-02    1.8447682910E-02    1.8558359040E-02    1.8669699047E-02
    1.8781706910E-02    1.8894386634E-02    1.9007742245E-02    1.9121777796E-02
    1.9236497362E-02    1.9351905045E-02    1.9468004970E-02    1.9584801286E-02
    1.9702298167E-02    1.9820499814E-02    1.9939410451E-02    2.0059034328E-02
    2.0179375720E-02    2.0300438929E-02    2.0422228281E-02    2.0544748128E-02
    2.0668002849E-02    2.0791996850E-02    2.0916734560E-02    2.1042220439E-02
    2.1168458970E-02    2.1295454664E-02    2.1423212059E-02    2.1551735722E-02
    2.1681030243E-02    2.1811100244E-02    2.1941950372E-02    2.2073585303E-02
    2.2206009739E-02    2.2339228413E-02    2.2473246084E-02    2.2608067540E-02
    2.2743697600E-02    2.2880141107E-02    2.3017402937E-02    2.3155487993E-02
    2.3294401210E-02    2.3434147548E-02    2.3574732002E-02    2.3716159592E-02
    2.3858435371E-02    2.4001564421E-02    2.4145551855E-02    2.4290402817E-02
    2.4436122479E-02    2.4582716047E-02    2.4730188757E-02    2.4878545877E-02
    2.5027792704E-02    2.5177934569E-02    2.5328976835E-02    2.5480924896E-02
    2.5633784178E-02    2.5787560140E-02    2.5942258273E-02    2.6097884103E-02
    2.6254443185E-02    2.6411941111E-02    2.6570383504E-02    2.6729776022E-02
    2.6890124356E-02    2.7051434230E-02    2.7213711405E-02    2.7376961674E-02
    2.7541190865E-02    2.7706404841E-02    2.7872609500E-02    2.8039810776E-02
    2.8208014637E-02    2.8377227087E-02    2.8547454167E-02    2.8718701953E-02
    2.8890976556E-02    2.9064284126E-02    2.9238630848E-02    2.9414022944E-02
    2.9590466674E-02    2.9767968336E-02    2.9946534262E-02    3.0126170825E-02
    3.0306884436E-02    3.0488681542E-02    3.0671568630E-02    3.0855552227E-02
    3.1040638895E-02    3.1226835238E-02    3.1414147900E-02    3.1602583563E-02
    3.1792148948E-02    3.1982850818E-02    3.2174695975E-02    3.2367691263E-02
    3.2561843564E-02    3.2757159805E-02    3.2953646950E-02    3.3151312008E-02
    3.3350162027E-02    3.3550204099E-02    3.3751445357E-02    3.3953892976E-02
    3.4157554176E-02    3.4362436217E-02    3.4568546405E-02    3.4775892088E-02
    3.4984480657E-02    3.5194319548E-02    3.5405416241E-02    3.5617778261E-02
    3.5831413178E-02    3.6046328604E-02    3.6262532201E-02    3.6480031672E-02
    3.6698834769E-02    3.6918949289E-02    3.7140383075E-02    3.7363144016E-02
    3.7587240051E-02    3.7812679162E-02    3.8039469380E-02    3.8267618786E-02
    3.8497135505E-02    3.8728027713E-02    3.8960303634E-02    3.9193971541E-02
    3.9429039754E-02    3.9665516646E-02    3.9903410636E-02    4.0142730196E-02
    4.0383483846E-02    4.0625680158E-02    4.0869327755E-02    4.1114435309E-02
    4.1361011545E-02    4.1609065241E-02    4.1858605224E-02    4.2109640375E-02
    4.2362179629E-02    4.2616231971E-02    4.2871806441E-02    4.3128912133E-02
    4.3387558192E-02    4.3647753822E-02    4.3909508276E-02    4.4172830866E-02
    4.4437730958E-02    4.4704217971E-02    4.4972301383E-02    4.5241990727E-02
    4.5513295591E-02    4.5786225621E-02    4.6060790521E-02    4.6337000049E-02
    4.6614864025E-02    4.6894392324E-02    4.7175594880E-02    4.7458481685E-02
    4.7743062793E-02    4.8029348313E-02    4.8317348416E-02    4.8607073335E-02
    4.8898533359E-02    4.9191738840E-02    4.9486700192E-02    4.9783427889E-02
    5.0081932467E-02    5.0382224525E-02    5.0684314722E-02    5.0988213783E-02
    5.1293932493E-02    5.1601481704E-02    5.1910872329E-02    5.2222115346E-02
    5.2535221798E-02    5.2850202794E-02    5.3167069505E-02    5.3485833171E-02
    5.3806505097E-02    5.4129096654E-02    5.4453619280E-02    5.4780084481E-02
    5.5108503829E-02    5.5438888965E-02    5.5771251599E-02    5.6105603508E-02
    5.6441956540E-02    5.6780322610E-02    5.7120713705E-02    5.7463141882E-02
    5.7807619267E-02    5.8154158059E-02    5.8502770528E-02    5.8853469015E-02
    5.9206265934E-02    5.9561173771E-02    5.9918205085E-02    6.0277372510E-02
    6.0638688753E-02    6.1002166593E-02    6.1367818886E-02    6.1735658564E-02
    6.2105698633E-02    6.2477952174E-02    6.2852432345E-02    6.3229152383E-02
    6.3608125598E-02    6.3989365381E-02    6.4372885201E-02    6.4758698602E-02
    6.5146819210E-02    6.5537260729E-02    6.5930036945E-02    6.6325161719E-02
    6.6722648999E-02    6.7122512809E-02    6.7524767257E-02    6.7929426531E-02
    6.8336504904E-02    6.8746016730E-02    6.9157976446E-02    6.9572398574E-02
    6.9989297719E-02    7.0408688570E-02    7.0830585904E-02    7.1255004579E-02
    7.1681959543E-02    7.2111465828E-02    7.2543538554E-02    7.2978192927E-02
    7.3415444243E-02    7.3855307885E-02    7.4297799323E-02    7.4742934119E-02
    7.5190727924E-02    7.5641196477E-02    7.6094355610E-02    7.6550221245E-02
    7.7008809395E-02    7.7470136168E-02    7.7934217760E-02    7.8401070462E-02
    7.8870710660E-02    7.9343154833E-02    7.9818419552E-02    8.0296521486E-02
    8.0777477398E-02    8.1261304148E-02    8.1748018690E-02    8.2237638078E-02
    8.2730179460E-02    8.3225660085E-02    8.3724097299E-02    8.4225508545E-02
    8.4729911369E-02    8.5237323414E-02    8.5747762424E-02    8.6261246245E-02
    8.6777792823E-02    8.7297420207E-02    8.7820146546E-02    8.8345990095E-02
    8.8874969211E-02    8.9407102354E-02    8.9942408090E-02    9.0480905088E-02
    9.1022612125E-02    9.1567548081E-02    9.2115731944E-02    9.2667182810E-02
    9.3221919881E-02    9.3779962466E-02    9.4341329986E-02    9.4906041967E-02
    9.5474118047E-02    9.6045577973E-02    9.6620441604E-02    9.7198728909E-02
    9.7780459969E-02    9.8365654976E-02    9.8954334236E-02    9.9546518167E-02
    1.0014222730E-01    1.0074148229E-01    1.0134430389E-01    1.0195071298E-01
    1.0256073055E-01    1.0317437772E-01    1.0379167570E-01    1.0441264584E-01
    1.0503730960E-01    1.0566568857E-01    1.0629780443E-01    1.0693367901E-01
    1.0757333425E-01    1.0821679220E-01    1.0886407505E-01    1.0951520509E-01
    1.1017020475E-01    1.1082909658E-01    1.1149190324E-01    1.1215864753E-01
    1.1282935236E-01    1.1350404078E-01    1.1418273595E-01    1.1486546117E-01
    1.1555223985E-01    1.1624309554E-01    1.1693805191E-01    1.1763713277E-01
    1.1834036204E-01    1.1904776378E-01    1.1975936218E-01    1.2047518156E-01
    1.2119524636E-01    1.2191958116E-01    1.2264821067E-01    1.2338115973E-01
    1.2411845332E-01    1.2486011654E-01    1.2560617464E-01    1.2635665298E-01
    1.2711157708E-01    1.2787097257E-01    1.2863486524E-01    1.2940328099E-01
    1.3017624589E-01    1.3095378611E-01    1.3173592798E-01    1.3252269796E-01
    1.3331412265E-01    1.3411022879E-01    1.3491104326E-01    1.3571659306E-01
    1.3652690536E-01    1.3734200746E-01    1.3816192679E-01    1.3898669092E-01
    1.3981632759E-01    1.4065086465E-01    1.4149033010E-01    1.4233475210E-01
    1.4318415893E-01    1.4403857903E-01    1.4489804098E-01    1.4576257349E-01
    1.4663220544E-01    1.4750696584E-01    1.4838688384E-01    1.4927198876E-01
    1.5016231004E-01    1.5105787727E-01    1.5195872021E-01    1.5286486874E-01
    1.5377635291E-01    1.5469320289E-01    1.5561544902E-01    1.5654312180E-01
    1.5747625184E-01    1.5841486993E-01    1.5935900701E-01    1.6030869415E-01
    1.6126396258E-01    1.6222484368E-01    1.6319136898E-01    1.6416357018E-01
    1.6514147908E-01    1.6612512769E-01    1.6711454814E-01    1.6810977271E-01
    1.6911083383E-01    1.7011776410E-01    1.7113059626E-01    1.7214936320E-01
    1.7317409797E-01    1.7420483376E-01    1.7524160393E-01    1.7628444197E-01
    1.7733338154E-01    1.7838845644E-01    1.7944970064E-01    1.8051714825E-01
    1.8159083353E-01    1.8267079089E-01    1.8375705492E-01    1.8484966032E-01
    1.8594864197E-01    1.8705403491E-01    1.8816587430E-01    1.8928419548E-01
    1.9040903393E-01    1.9154042529E-01    1.9267840533E-01    1.9382301001E-01
    1.9497427539E-01    1.9613223774E-01    1.9729693342E-01    1.9846839899E-01
    1.9964667114E-01    2.0083178670E-01    2.0202378266E-01    2.0322269616E-01
    2.0442856449E-01    2.0564142509E-01    2.0686131552E-01    2.0808827354E-01
    2.0932233700E-01    2.1056354394E-01    2.1181193251E-01    2.1306754105E-01
    2.1433040799E-01    2.1560057195E-01    2.1687807166E-01    2.1816294602E-01
    2.1945523405E-01    2.2075497492E-01    2.2206220794E-01    2.2337697256E-01
    2.2469930836E-01    2.2602925507E-01    2.2736685255E-01    2.2871214078E-01
    2.3006515991E-01    2.3142595020E-01    2.3279455204E-01    2.3417100595E-01
    2.3555535260E-01    2.3694763277E-01    2.3834788737E-01    2.3975615744E-01
    2.4117248414E-01    2.4259690876E-01    2.4402947271E-01    2.4547021751E-01
    2.4691918482E-01    2.4837641640E-01    2.4984195413E-01    2.5131584000E-01
    2.5279811613E-01    2.5428882473E-01    2.5578800812E-01    2.5729570874E-01
    2.5881196912E-01    2.6033683191E-01    2.6187033985E-01    2.6341253578E-01
    2.6496346262E-01    2.6652316342E-01    2.6809168130E-01    2.6966905945E-01
    2.7125534120E-01    2.7285056991E-01    2.7445478905E-01    2.7606804217E-01
    2.7769037288E-01    2.7932182489E-01    2.8096244196E-01    2.8261226791E-01
    2.8427134666E-01    2.8593972216E-01    2.8761743843E-01    2.8930453954E-01
    2.9100106963E-01    2.9270707288E-01    2.9442259349E-01    2.9614767575E-01
    2.9788236395E-01    2.9962670242E-01    3.0138073555E-01    3.0314450771E-01
    3.0491806334E-01    3.0670144686E-01    3.0849470273E-01    3.1029787541E-01
    3.1211100936E-01    3.1393414906E-01    3.1576733897E-01    3.1761062354E-01
    3.1946404723E-01    3.2132765446E-01    3.2320148964E-01    3.2508559714E-01
    3.2698002130E-01    3.2888480644E-01    3.3079999681E-01    3.3272563663E-01
    3.3466177005E-01    3.3660844118E-01    3.3856569403E-01    3.4053357256E-01
    3.4251212066E-01    3.4450138212E-01    3.4650140062E-01    3.4851221978E-01
    3.5053388308E-01    3.5256643391E-01    3.5460991554E-01    3.5666437109E-01
    3.5872984357E-01    3.6080637583E-01    3.6289401059E-01    3.6499279040E-01
    3.6710275765E-01    3.6922395455E-01    3.7135642314E-01    3.7350020525E-01
    3.7565534253E-01    3.7782187642E-01    3.7999984814E-01    3.8218929867E-01
    3.8439026878E-01    3.8660279899E-01    3.8882692954E-01    3.9106270044E-01
    3.9331015140E-01    3.9556932187E-01    3.9784025097E-01    4.0012297755E-01
    4.0241754012E-01    4.0472397688E-01    4.0704232566E-01    4.0937262396E-01
    4.1171490893E-01    4.1406921733E-01    4.1643558552E-01    4.1881404948E-01
    4.2120464477E-01    4.2360740653E-01    4.2602236946E-01    4.2844956781E-01
    4.3088903535E-01    4.3334080538E-01    4.3580491072E-01    4.3828138367E-01
    4.4077025600E-01    4.4327155896E-01    4.4578532322E-01    4.4831157892E-01
    4.5085035559E-01    4.5340168216E-01    4.5596558695E-01    4.5854209765E-01
    4.6113124129E-01    4.6373304425E-01    4.6634753221E-01    4.6897473015E-01
    4.7161466232E-01    4.7426735227E-01    4.7693282274E-01    4.7961109573E-01
    4.8230219243E-01    4.8500613321E-01    4.8772293762E-01    4.9045262433E-01
    4.9319521116E-01    4.9595071500E-01    4.9871915185E-01    5.0150053676E-01
    5.0429488379E-01    5.0710220606E-01    5.0992251565E-01    5.1275582360E-01
    5.1560213992E-01    5.1846147352E-01    5.2133383222E-01    5.2421922270E-01
    5.2711765048E-01    5.3002911991E-01    5.3295363413E-01    5.3589119506E-01
    5.3884180333E-01    5.4180545830E-01    5.4478215803E-01    5.4777189921E-01
    5.5077467718E-01    5.5379048585E-01    5.5681931774E-01    5.5986116388E-01
    5.6291601382E-01    5.6598385558E-01    5.6906467563E-01    5.7215845888E-01
    5.7526518859E-01    5.7838484638E-01    5.8151741219E-01    5.8466286426E-01
    5.8782117904E-01    5.9099233124E-01    5.9417629371E-01    5.9737303747E-01
    6.0058253164E-01    6.0380474341E-01    6.0703963800E-01    6.1028717863E-01
    6.1354732649E-01    6.1682004067E-01    6.2010527814E-01    6.2340299373E-01
    6.2671314006E-01    6.3003566749E-01    6.3337052412E-01    6.3671765573E-01
    6.4007700570E-01    6.4344851504E-01    6.4683212229E-01    6.5022776347E-01
    6.5363537210E-01    6.5705487907E-01    6.6048621267E-01    6.6392929848E-01
    6.6738405939E-01    6.7085041547E-01    6.7432828400E-01    6.7781757938E-01
    6.8131821309E-01    6.8483009364E-01    6.8835312651E-01    6.9188721411E-01
    6.9543225574E-01    6.9898814752E-01    7.0255478233E-01    7.0613204978E-01
    7.0971983614E-01    7.1331802430E-01    7.1692649369E-01    7.2054512026E-01
    7.2417377638E-01    7.2781233083E-01    7.3146064871E-01    7.3511859140E-01
    7.3878601650E-01    7.4246277773E-01    7.4614872497E-01    7.4984370408E-01
    7.5354755693E-01    7.5726012130E-01    7.6098123082E-01    7.6471071491E-01
    7.6844839875E-01    7.7219410315E-01    7.7594764456E-01    7.7970883495E-01
    7.8347748178E-01    7.8725338792E-01    7.9103635160E-01    7.9482616631E-01
    7.9862262079E-01    8.0242549890E-01    8.0623457963E-01    8.1004963695E-01
    8.1387043980E-01    8.1769675200E-01    8.2152833221E-01    8.2536493381E-01
    8.2920630489E-01    8.3305218813E-01    8.3690232077E-01    8.4075643454E-01
    8.4461425555E-01    8.4847550429E-01    8.5233989548E-01    8.5620713806E-01
    8.6007693512E-01    8.6394898379E-01    8.6782297520E-01    8.7169859443E-01
    8.7557552040E-01    8.7945342580E-01    8.8333197709E-01    8.8721083434E-01
    8.9108965122E-01    8.9496807492E-01    8.9884574608E-01    9.0272229871E-01
    9.0659736017E-01    9.1047055103E-01    9.1434148506E-01    9.1820976916E-01
    9.2207500327E-01    9.2593678034E-01    9.2979468623E-01    9.3364829967E-01
    9.3749719221E-01    9.4134092813E-01    9.4517906441E-01    9.4901115062E-01
    9.5283672896E-01    9.5665533408E-01    9.6046649314E-01    9.6426972568E-01
    9.6806454359E-01    9.7185045108E-01    9.7562694460E-01    9.7939351280E-01
    9.8314963650E-01    9.8689478863E-01    9.9062843421E-01    9.9435003028E-01
    9.9805902586E-01    1.0017548619E+00    1.0054369715E+00    1.0091047792E+00
    1.0127577019E+00    1.0163951480E+00    1.0200165179E+00    1.0236212037E+00
    1.0272085893E+00    1.0307780503E+00    1.0343289542E+00    1.0378606602E+00
    1.0413725190E+00    1.0448638733E+00    1.0483340575E+00    1.0517823977E+00
    1.0552082116E+00    1.0586108090E+00    1.0619894911E+00    1.0653435512E+00
    1.0686722742E+00    1.0719749370E+00    1.0752508084E+00    1.0784991491E+00
    1.0817192116E+00    1.0849102408E+00    1.0880714733E+00    1.0912021381E+00
    1.0943014563E+00    1.0973686413E+00    1.1004028989E+00    1.1034034272E+00
    1.1063694171E+00    1.1093000518E+00    1.1121945074E+00    1.1150519530E+00
    1.1178715504E+00    1.1206524545E+00    1.1233938137E+00    1.1260947693E+00
    1.1287544566E+00    1.1313720042E+00    1.1339465346E+00    1.1364771643E+00
    1.1389630040E+00    1.1414031588E+00    1.1437967281E+00    1.1461428063E+00
    1.1484404827E+00    1.1506888417E+00    1.1528869633E+00    1.1550339230E+00
    1.1571287921E+00    1.1591706385E+00    1.1611585261E+00    1.1630915157E+00
    1.1649686652E+00    1.1667890296E+00    1.1685516617E+00    1.1702556123E+00
    1.1718999303E+00    1.1734836633E+00    1.1750058581E+00    1.1764655605E+00
    1.1778618163E+00    1.1791936713E+00    1.1804601720E+00    1.1816603656E+00
    1.1827933009E+00    1.1838580284E+00    1.1848536009E+00    1.1857790738E+00
    1.1866335060E+00    1.1874159598E+00    1.1881255019E+00    1.1887612035E+00
    1.1893221412E+00    1.1898073973E+00    1.1902160604E+00    1.1905472261E+00
    1.1907999973E+00    1.1909734850E+00    1.1910668089E+00    1.1910790979E+00
    1.1910094907E+00    1.1908571366E+00    1.1906211961E+00    1.1903008414E+00
    1.1898952573E+00    1.1894036417E+00    1.1888252065E+00    1.1881591779E+00
    1.1874047976E+00    1.1865613233E+00    1.1856280293E+00    1.1846042074E+00
    1.1834891679E+00    1.1822822399E+00    1.1809827721E+00    1.1795901341E+00
    1.1781037166E+00    1.1765229326E+00    1.1748472179E+00    1.1730760320E+00
    1.1712088593E+00    1.1692452091E+00    1.1671846172E+00    1.1650266464E+00
    1.1627708872E+00    1.1604169589E+00    1.1579645102E+00    1.1554132204E+00
    1.1527627996E+00    1.1500129903E+00    1.1471635675E+00    1.1442143400E+00
    1.1411651511E+00    1.1380158794E+00    1.1347664396E+00    1.1314167832E+00
    1.1279668995E+00    1.1244168164E+00    1.1207666009E+00    1.1170163600E+00
    1.1131662416E+00    1.1092164351E+00    1.1051671722E+00    1.1010187272E+00
    1.0967714183E+00    1.0924256081E+00    1.0879817038E+00    1.0834401582E+00
    1.0788014705E+00    1.0740661863E+00    1.0692348986E+00    1.0643082481E+00
    1.0592869237E+00    1.0541716631E+00    1.0489632529E+00    1.0436625294E+00
    1.0382703786E+00    1.0327877367E+00    1.0272155901E+00    1.0215549759E+00
    1.0158069821E+00    1.0099727474E+00    1.0040534617E+00    9.9805036574E-01
    9.9196475134E-01    9.8579796126E-01    9.7955138909E-01    9.7322647902E-01
    9.6682472566E-01    9.6034767371E-01    9.5379691765E-01    9.4717410127E-01
    9.4048091722E-01    9.3371910648E-01    9.2689045770E-01    9.1999680659E-01
    9.1304003514E-01    9.0602207080E-01    8.9894488562E-01    8.9181049527E-01
    8.8462095806E-01    8.7737837376E-01    8.7008488252E-01    8.6274266355E-01
    8.5535393384E-01    8.4792094674E-01    8.4044599049E-01    8.3293138670E-01
    8.2537948868E-01    8.1779267978E-01    8.1017337159E-01    8.0252400211E-01
    7.9484703382E-01    7.8714495166E-01    7.7942026100E-01    7.7167548547E-01
    7.6391316476E-01    7.5613585233E-01    7.4834611306E-01    7.4054652085E-01
    7.3273965612E-01    7.2492810329E-01    7.1711444814E-01    7.0930127522E-01
    7.0149116506E-01    6.9368669145E-01    6.8589041862E-01    6.7810489838E-01
    6.7033266722E-01    6.6257624335E-01    6.5483812379E-01    6.4712078128E-01
    6.3942666135E-01    6.3175817920E-01    6.2411771666E-01    6.1650761914E-01
    6.0893019253E-01    6.0138770014E-01    5.9388235962E-01    5.8641633990E-01
    5.7899175819E-01    5.7161067692E-01    5.6427510082E-01    5.5698697395E-01
    5.4974817683E-01    5.4256052360E-01    5.3542575928E-01    5.2834555704E-01
    5.2132151563E-01    5.1435515682E-01    5.0744792303E-01    5.0060117496E-01
    4.9381618943E-01    4.8709415729E-01    4.8043618151E-01    4.7384327539E-01
    4.6731636091E-01    4.6085626732E-01    4.5446372981E-01    4.4813938847E-01
    4.4188378737E-01    4.3569737387E-01    4.2958049822E-01    4.2353341329E-01
    4.1755627462E-01    4.1164914067E-01    4.0581197343E-01    4.0004463916E-01
    3.9434690957E-01    3.8871846318E-01    3.8315888709E-01    3.7766767895E-01
    3.7224424938E-01    3.6688792461E-01    3.6159794957E-01    3.5637349125E-01
    3.5121364242E-01    3.4611742579E-01    3.4108379842E-01    3.3611165662E-01
    3.3119984110E-01    3.2634714258E-01    3.2155230772E-01    3.1681404549E-01
    3.1213103375E-01    3.0750192639E-01    3.0292536065E-01    2.9839996483E-01
    2.9392436638E-01    2.8949720020E-01    2.8511711733E-01    2.8078279378E-01
    2.7649293977E-01    2.7224630902E-01    2.6804170833E-01    2.6387800730E-01
    2.5975414811E-01    2.5566915546E-01    2.5162214645E-01    2.4761234057E-01
    2.4363906952E-01    2.3970178686E-01    2.3580007751E-01    2.3193366700E-01
    2.2810243038E-01    2.2430640082E-01    2.2054576548E-01    2.1682080970E-01
    2.1313182229E-01    2.0947909618E-01    2.0586292640E-01    2.0228360863E-01
    1.9874143747E-01    1.9523670410E-01    1.9176969354E-01    1.8834068140E-01
    1.8494993029E-01    1.8159768579E-01    1.7828417235E-01    1.7500958906E-01
    1.7177410554E-01    1.6857785834E-01    1.6542094780E-01    1.6230343583E-01
    1.5922534465E-01    1.5618665669E-01    1.5318731565E-01    1.5022722863E-01
    1.4730626926E-01    1.4442428158E-01    1.4158108439E-01    1.3877647576E-01
    1.3601023757E-01    1.3328213964E-01    1.3059194349E-01    1.2793940555E-01
    1.2532427964E-01    1.2274631901E-01    1.2020527770E-01    1.1770091145E-01
    1.1523297820E-01    1.1280123825E-01    1.1040545414E-01    1.0804539038E-01
    1.0572081306E-01    1.0343148935E-01    1.0117718701E-01    9.8957673844E-02
    9.6772717235E-02    9.4622083640E-02    9.2505538174E-02    9.0422844225E-02
    8.8373763111E-02    8.6358053790E-02    8.4375472614E-02    8.2425773124E-02
    8.0508705888E-02    7.8624018371E-02    7.6771454845E-02    7.4950756320E-02
    7.3161660508E-02    7.1403901806E-02    6.9677211304E-02    6.7981316803E-02
    6.6315942860E-02    6.4680810840E-02    6.3075638974E-02    6.1500142445E-02
    5.9954033463E-02    5.8437021360E-02    5.6948812692E-02    5.5489111339E-02
    5.4057618615E-02    5.2654033385E-02    5.1278052176E-02    4.9929369304E-02
    4.8607676990E-02    4.7312665490E-02    4.6044023215E-02    4.4801436865E-02
    4.3584591553E-02    4.2393170934E-02    4.1226857335E-02    4.0085331885E-02
    3.8968274644E-02    3.7875364732E-02    3.6806280457E-02    3.5760699444E-02
    3.4738298762E-02    3.3738755052E-02    3.2761744651E-02    3.1806943715E-02
    3.0874028349E-02    2.9962674719E-02    2.9072559183E-02    2.8203358403E-02
    2.7354749466E-02    2.6526410001E-02    2.5718018292E-02    2.4929253389E-02
    2.4159795224E-02    2.3409324717E-02    2.2677523885E-02    2.1964075943E-02
    2.1268665416E-02    2.0590978231E-02    1.9930701825E-02    1.9287525236E-02
    1.8661139201E-02    1.8051236249E-02    1.7457510791E-02    1.6879659209E-02
    1.6317379942E-02    1.5770373571E-02    1.5238342899E-02    1.4720993032E-02
    1.4218031454E-02    1.3729168103E-02    1.3254115443E-02    1.2792588532E-02
    1.2344305092E-02    1.1908985570E-02    1.1486353203E-02    1.1076134078E-02
    1.0678057185E-02    1.0291854476E-02    9.9172609171E-03    9.5540145327E-03
    9.2018564585E-03    8.8605309827E-03    8.5297855885E-03    8.2093709935E-03
    7.8990411865E-03    7.5985534613E-03    7.3076684490E-03    7.0261501464E-03
    6.7537659437E-03    6.4902866476E-03    6.2354865041E-03    5.9891432169E-03
    5.7510379649E-03    5.5209554164E-03    5.2986837413E-03    5.0840146211E-03
    4.8767432562E-03    4.6766683709E-03    4.4835922172E-03    4.2973205747E-03
    4.1176627498E-03    3.9444315722E-03    3.7774433894E-03    3.6165180587E-03
    3.4614789386E-03    3.3121528764E-03    3.1683701954E-03    3.0299646797E-03
    2.8967735571E-03    2.7686374805E-03    2.6454005074E-03    2.5269100783E-03
    2.4130169928E-03    2.3035753844E-03    2.1984426944E-03    2.0974796436E-03
    2.0005502031E-03    1.9075215637E-03    1.8182641040E-03    1.7326513574E-03
    1.6505599777E-03    1.5718697042E-03    1.4964633251E-03    1.4242266400E-03
    1.3550484224E-03    1.2888203799E-03    1.2254371145E-03    1.1647960821E-03
    1.1067975509E-03    1.0513445595E-03    9.9834287388E-04    9.4770094453E-04
    8.9932986245E-04    8.5314331496E-04    8.0905754100E-04    7.6699128608E-04
    7.2686575693E-04    6.8860457577E-04    6.5213373443E-04    6.1738154823E-04
    5.8427860971E-04    5.5275774228E-04    5.2275395375E-04    4.9420438988E-04
    4.6704828790E-04    4.4122693014E-04    4.1668359772E-04    3.9336352435E-04
    3.7121385031E-04    3.5018357671E-04    3.3022351985E-04    3.1128626597E-04
    2.9332612628E-04    2.7629909224E-04    2.6016279139E-04    2.4487644338E-04
    2.3040081659E-04    2.1669818511E-04    2.0373228624E-04    1.9146827847E-04
    1.7987270007E-04    1.6891342810E-04    1.5855963815E-04    1.4878176452E-04
    1.3955146116E-04    1.3084156316E-04    1.2262604886E-04    1.1488000271E-04
    1.0757957876E-04    1.0070196481E-04    9.4225347323E-05    8.8128876987E-05
    8.2392635040E-05    7.6997600293E-05    7.1925616892E-05    6.7159362818E-05
    6.2682319117E-05    5.8478739883E-05    5.4533622979E-05    5.0832681495E-05
    4.7362315960E-05    4.4109587289E-05    4.1062190464E-05    3.8208428958E-05
    3.5537189883E-05    3.3037919866E-05    3.0700601641E-05    2.8515731355E-05
    2.6474296576E-05    2.4567755001E-05    2.2788013843E-05    2.1127409905E-05
    1.9578690311E-05    1.8134993905E-05    1.6789833284E-05    1.5537077475E-05
    1.4370935226E-05    1.3285938912E-05    1.2276929038E-05    1.1339039324E-05
    1.0467682364E-05    9.6585358398E-06    8.9075292836E-06    8.2108313685E-06
    7.5648377180E-06    6.9661592177E-06    6.4116108183E-06    5.8982008126E-06
    5.4231205770E-06    4.9837347582E-06    4.5775718969E-06    4.2023154716E-06
    3.8557953489E-06    3.5359796285E-06    3.2409668683E-06    2.9689786773E-06
    2.7183526625E-06    2.4875357180E-06    2.2750776426E-06    2.0796250748E-06
    1.8999157324E-06    1.7347729445E-06    1.5831004653E-06    1.4438775577E-06
    1.3161543348E-06    1.1990473507E-06    1.0917354281E-06    9.9345571241E-07
    9.0349994413E-07    8.2121093806E-07    7.4597926068E-07    6.7724009651E-07
    6.1447029456E-07    5.5718558636E-07    5.0493796728E-07    4.5731323316E-07
    4.1392866461E-07    3.7443085152E-07    3.3849365061E-07    3.0581626924E-07
    2.7612146881E-07    2.4915388143E-07    2.2467843374E-07    2.0247887220E-07
    1.8235638398E-07    1.6412830847E-07    1.4762693397E-07    1.3269837491E-07
    1.1920152484E-07    1.0700708075E-07    9.5996634573E-08    8.6061827706E-08
    7.7103564888E-08    6.9031283652E-08    6.1762275974E-08    5.5221058831E-08
    4.9338790546E-08    4.4052729992E-08    3.9305735877E-08    3.5045803453E-08
    3.1225636204E-08    2.7802250124E-08    2.4736608414E-08    2.1993284479E-08
    1.9540151291E-08    1.7348095252E-08    1.5390752838E-08    1.3644268388E-08
    1.2087071513E-08    1.0699672692E-08    9.4644757147E-09    8.3656057207E-09
    7.3887516529E-09    6.5210220392E-09    5.7508130737E-09    5.0676880479E-09
    4.4622672406E-09    3.9261274431E-09    3.4517103480E-09    3.0322390891E-09
    2.6616422693E-09    2.3344848605E-09    2.0459054069E-09    1.7915590036E-09
    1.5675655619E-09    1.3704629122E-09    1.1971643265E-09    1.0449200768E-09
    9.1128267712E-10    7.9407548052E-10    6.9136433427E-10    6.0143201579E-10
    5.2275519751E-10    4.5398370832E-10    3.9392187909E-10    3.4151177783E-10
    2.9581815630E-10    2.5601494556E-10    2.2137315189E-10    1.9125001776E-10
    1.6507932438E-10    1.4236272354E-10    1.2266199660E-10    1.0559214790E-10
    9.0815248291E-11    7.8034952451E-11    6.6991620859E-11    5.7457983805E-11
    4.9235290869E-11    4.2149894770E-11    3.6050223490E-11    3.0804099126E-11
    2.6296366066E-11    2.2426794838E-11    1.9108231417E-11    1.6264964840E-11
    1.3831288812E-11    1.1750235504E-11    9.9724620478E-12    8.4552722947E-12
    7.1617582763E-12    6.0600474862E-12    5.1226436127E-12    4.3258497145E-12
    3.6492640491E-12    3.0753398628E-12    2.5890014271E-12    2.1773094876E-12
    1.8291700728E-12    1.5350813137E-12    1.2869135455E-12    1.0777185220E-12
    9.0156406749E-13    7.5339092817E-13    6.2888897986E-13    5.2439029048E-13
    4.3677684506E-13    3.6340101089E-13    3.0201706032E-13    2.5072227989E-13
    2.0790638110E-13    1.7220808435E-13    1.4247796029E-13    0.0000000000E+00
    0.0000000000E+00    0.0000000000E+00    0.0000000000E+00    0.0000000000E+00
    0.0000000000E+00    0.0000000000E+00    0.0000000000E+00    0.0000000000E+00
    0.0000000000E+00    0.0000000000E+00    0.0000000000E+00    0.0000000000E+00
    0.0000000000E+00    0.0000000000E+00    0.0000000000E+00    0.0000000000E+00
    0.0000000000E+00    0.0000000000E+00    0.0000000000E+00    0.0000000000E+00
    0.0000000000E+00    0.0000000000E+00    0.0000000000E+00    0.0000000000E+00
    0.0000000000E+00    0.0000000000E+00    0.0000000000E+00    0.0000000000E+00
    0.0000000000E+00    0.0000000000E+00    0.0000000000E+00    0.0000000000E+00
    0.0000000000E+00    0.0000000000E+00    0.0000000000E+00    0.0000000000E+00
    0.0000000000E+00    0.0000000000E+00    0.0000000000E+00    0.0000000000E+00
    0.0000000000E+00    0.0000000000E+00    0.0000000000E+00    0.0000000000E+00
    0.0000000000E+00    0.0000000000E+00    0.0000000000E+00    0.0000000000E+00
    0.0000000000E+00    0.0000000000E+00    0.0000000000E+00    0.0000000000E+00
    0.0000000000E+00    0.0000000000E+00    0.0000000000E+00    0.0000000000E+00
    0.0000000000E+00    0.0000000000E+00    0.0000000000E+00    0.0000000000E+00
    0.0000000000E+00    0.0000000000E+00    0.0000000000E+00    0.0000000000E+00
    0.0000000000E+00    0.0000000000E+00    0.0000000000E+00    0.0000000000E+00
    0.0000000000E+00    0.0000000000E+00    0.0000000000E+00    0.0000000000E+00
    0.0000000000E+00    0.0000000000E+00    0.0000000000E+00    0.0000000000E+00
    0.0000000000E+00    0.0000000000E+00    0.0000000000E+00    0.0000000000E+00
    0.0000000000E+00    0.0000000000E+00    0.0000000000E+00    0.0000000000E+00
    0.0000000000E+00    0.0000000000E+00    0.0000000000E+00    0.0000000000E+00
    0.0000000000E+00    0.0000000000E+00    0.0000000000E+00    0.0000000000E+00
    0.0000000000E+00    0.0000000000E+00    0.0000000000E+00    0.0000000000E+00
    0.0000000000E+00    0.0000000000E+00    0.0000000000E+00    0.0000000000E+00
    0.0000000000E+00    0.0000000000E+00    0.0000000000E+00    0.0000000000E+00
    0.0000000000E+00    0.0000000000E+00    0.0000000000E+00    0.0000000000E+00
    0.0000000000E+00    0.0000000000E+00    0.0000000000E+00    0.0000000000E+00
    0.0000000000E+00    0.0000000000E+00    0.0000000000E+00    0.0000000000E+00
    0.0000000000E+00    0.0000000000E+00    0.0000000000E+00    0.0000000000E+00
    0.0000000000E+00    0.0000000000E+00    0.0000000000E+00    0.0000000000E+00
    0.0000000000E+00    0.0000000000E+00    0.0000000000E+00    0.0000000000E+00
    0.0000000000E+00    0.0000000000E+00    0.0000000000E+00    0.0000000000E+00
    0.0000000000E+00    0.0000000000E+00    0.0000000000E+00    0.0000000000E+00
    0.0000000000E+00    0.0000000000E+00    0.0000000000E+00    0.0000000000E+00
    0.0000000000E+00    0.0000000000E+00    0.0000000000E+00    0.0000000000E+00
    0.0000000000E+00    0.0000000000E+00    0.0000000000E+00    0.0000000000E+00
    0.0000000000E+00    0.0000000000E+00    0.0000000000E+00    0.0000000000E+00
    0.0000000000E+00    0.0000000000E+00    0.0000000000E+00    0.0000000000E+00
    0.0000000000E+00    0.0000000000E+00    0.0000000000E+00    0.0000000000E+00
    0.0000000000E+00    0.0000000000E+00    0.0000000000E+00    0.0000000000E+00
    0.0000000000E+00    0.0000000000E+00    0.0000000000E+00
   </PP_CHI.1>
   <PP_CHI.2
       type="real"
       size="  2291"
       columns="4"
       index="2"
       occupation=" 1.000"
       pseudo_energy="   -0.2112489340E+00"
       label="2S"
       l="0" >
   -3.5997912907E-05   -3.6213900384E-05   -3.6431183786E-05   -3.6649770888E-05
   -3.6869669513E-05   -3.7090887530E-05   -3.7313432855E-05   -3.7537313451E-05
   -3.7762537331E-05   -3.7989112555E-05   -3.8217047229E-05   -3.8446349512E-05
   -3.8677027608E-05   -3.8909089773E-05   -3.9142544311E-05   -3.9377399575E-05
   -3.9613663972E-05   -3.9851345954E-05   -4.0090454029E-05   -4.0330996752E-05
   -4.0572982731E-05   -4.0816420626E-05   -4.1061319148E-05   -4.1307687062E-05
   -4.1555533182E-05   -4.1804866380E-05   -4.2055695576E-05   -4.2308029748E-05
   -4.2561877924E-05   -4.2817249190E-05   -4.3074152683E-05   -4.3332597597E-05
   -4.3592593180E-05   -4.3854148737E-05   -4.4117273627E-05   -4.4381977266E-05
   -4.4648269127E-05   -4.4916158739E-05   -4.5185655689E-05   -4.5456769620E-05
   -4.5729510234E-05   -4.6003887293E-05   -4.6279910613E-05   -4.6557590074E-05
   -4.6836935611E-05   -4.7117957221E-05   -4.7400664960E-05   -4.7685068946E-05
   -4.7971179356E-05   -4.8259006428E-05   -4.8548560463E-05   -4.8839851821E-05
   -4.9132890928E-05   -4.9427688269E-05   -4.9724254394E-05   -5.0022599915E-05
   -5.0322735510E-05   -5.0624671918E-05   -5.0928419945E-05   -5.1233990459E-05
   -5.1541394396E-05   -5.1850642757E-05   -5.2161746608E-05   -5.2474717082E-05
   -5.2789565378E-05   -5.3106302764E-05   -5.3424940574E-05   -5.3745490211E-05
   -5.4067963146E-05   -5.4392370918E-05   -5.4718725137E-05   -5.5047037480E-05
   -5.5377319698E-05   -5.5709583608E-05   -5.6043841102E-05   -5.6380104141E-05
   -5.6718384758E-05   -5.7058695058E-05   -5.7401047220E-05   -5.7745453495E-05
   -5.8091926207E-05   -5.8440477755E-05   -5.8791120612E-05   -5.9143867326E-05
   -5.9498730521E-05   -5.9855722894E-05   -6.0214857221E-05   -6.0576146354E-05
   -6.0939603221E-05   -6.1305240830E-05   -6.1673072264E-05   -6.2043110686E-05
   -6.2415369338E-05   -6.2789861543E-05   -6.3166600700E-05   -6.3545600291E-05
   -6.3926873881E-05   -6.4310435111E-05   -6.4696297708E-05   -6.5084475481E-05
   -6.5474982320E-05   -6.5867832200E-05   -6.6263039179E-05   -6.6660617399E-05
   -6.7060581089E-05   -6.7462944560E-05   -6.7867722211E-05   -6.8274928529E-05
   -6.8684578084E-05   -6.9096685535E-05   -6.9511265632E-05   -6.9928333208E-05
   -7.0347903190E-05   -7.0769990591E-05   -7.1194610516E-05   -7.1621778160E-05
   -7.2051508810E-05   -7.2483817843E-05   -7.2918720730E-05   -7.3356233034E-05
   -7.3796370411E-05   -7.4239148612E-05   -7.4684583482E-05   -7.5132690961E-05
   -7.5583487084E-05   -7.6036987984E-05   -7.6493209888E-05   -7.6952169124E-05
   -7.7413882114E-05   -7.7878365382E-05   -7.8345635548E-05   -7.8815709336E-05
   -7.9288603565E-05   -7.9764335160E-05   -8.0242921143E-05   -8.0724378642E-05
   -8.1208724885E-05   -8.1695977205E-05   -8.2186153039E-05   -8.2679269927E-05
   -8.3175345515E-05   -8.3674397557E-05   -8.4176443910E-05   -8.4681502541E-05
   -8.5189591522E-05   -8.5700729037E-05   -8.6214933377E-05   -8.6732222942E-05
   -8.7252616243E-05   -8.7776131904E-05   -8.8302788658E-05   -8.8832605351E-05
   -8.9365600945E-05   -8.9901794510E-05   -9.0441205237E-05   -9.0983852427E-05
   -9.1529755500E-05   -9.2078933990E-05   -9.2631407550E-05   -9.3187195951E-05
   -9.3746319081E-05   -9.4308796949E-05   -9.4874649684E-05   -9.5443897534E-05
   -9.6016560870E-05   -9.6592660185E-05   -9.7172216095E-05   -9.7755249340E-05
   -9.8341780783E-05   -9.8931831414E-05   -9.9525422348E-05   -1.0012257483E-04
   -1.0072331022E-04   -1.0132765002E-04   -1.0193561586E-04   -1.0254722950E-04
   -1.0316251281E-04   -1.0378148783E-04   -1.0440417669E-04   -1.0503060169E-04
   -1.0566078523E-04   -1.0629474987E-04   -1.0693251830E-04   -1.0757411334E-04
   -1.0821955795E-04   -1.0886887523E-04   -1.0952208841E-04   -1.1017922086E-04
   -1.1084029611E-04   -1.1150533781E-04   -1.1217436976E-04   -1.1284741589E-04
   -1.1352450031E-04   -1.1420564722E-04   -1.1489088102E-04   -1.1558022622E-04
   -1.1627370749E-04   -1.1697134964E-04   -1.1767317765E-04   -1.1837921662E-04
   -1.1908949182E-04   -1.1980402868E-04   -1.2052285275E-04   -1.2124598976E-04
   -1.2197346560E-04   -1.2270530629E-04   -1.2344153802E-04   -1.2418218714E-04
   -1.2492728015E-04   -1.2567684372E-04   -1.2643090467E-04   -1.2718948998E-04
   -1.2795262680E-04   -1.2872034244E-04   -1.2949266437E-04   -1.3026962023E-04
   -1.3105123782E-04   -1.3183754512E-04   -1.3262857025E-04   -1.3342434154E-04
   -1.3422488745E-04   -1.3503023663E-04   -1.3584041791E-04   -1.3665546027E-04
   -1.3747539289E-04   -1.3830024509E-04   -1.3913004641E-04   -1.3996482653E-04
   -1.4080461533E-04   -1.4164944286E-04   -1.4249933935E-04   -1.4335433522E-04
   -1.4421446105E-04   -1.4507974765E-04   -1.4595022595E-04   -1.4682592713E-04
   -1.4770688250E-04   -1.4859312361E-04   -1.4948468216E-04   -1.5038159006E-04
   -1.5128387940E-04   -1.5219158247E-04   -1.5310473176E-04   -1.5402335994E-04
   -1.5494749989E-04   -1.5587718467E-04   -1.5681244756E-04   -1.5775332202E-04
   -1.5869984172E-04   -1.5965204053E-04   -1.6060995254E-04   -1.6157361201E-04
   -1.6254305343E-04   -1.6351831150E-04   -1.6449942112E-04   -1.6548641738E-04
   -1.6647933562E-04   -1.6747821136E-04   -1.6848308035E-04   -1.6949397856E-04
   -1.7051094214E-04   -1.7153400750E-04   -1.7256321125E-04   -1.7359859022E-04
   -1.7464018145E-04   -1.7568802223E-04   -1.7674215004E-04   -1.7780260262E-04
   -1.7886941790E-04   -1.7994263407E-04   -1.8102228953E-04   -1.8210842292E-04
   -1.8320107310E-04   -1.8430027918E-04   -1.8540608049E-04   -1.8651851660E-04
   -1.8763762731E-04   -1.8876345269E-04   -1.8989603301E-04   -1.9103540880E-04
   -1.9218162084E-04   -1.9333471015E-04   -1.9449471799E-04   -1.9566168586E-04
   -1.9683565553E-04   -1.9801666902E-04   -1.9920476858E-04   -2.0039999672E-04
   -2.0160239623E-04   -2.0281201012E-04   -2.0402888169E-04   -2.0525305448E-04
   -2.0648457230E-04   -2.0772347921E-04   -2.0896981956E-04   -2.1022363794E-04
   -2.1148497922E-04   -2.1275388853E-04   -2.1403041130E-04   -2.1531459318E-04
   -2.1660648016E-04   -2.1790611844E-04   -2.1921355454E-04   -2.2052883524E-04
   -2.2185200762E-04   -2.2318311902E-04   -2.2452221708E-04   -2.2586934971E-04
   -2.2722456513E-04   -2.2858791183E-04   -2.2995943859E-04   -2.3133919451E-04
   -2.3272722894E-04   -2.3412359157E-04   -2.3552833236E-04   -2.3694150159E-04
   -2.3836314981E-04   -2.3979332791E-04   -2.4123208706E-04   -2.4267947875E-04
   -2.4413555478E-04   -2.4560036725E-04   -2.4707396858E-04   -2.4855641150E-04
   -2.5004774906E-04   -2.5154803463E-04   -2.5305732190E-04   -2.5457566487E-04
   -2.5610311789E-04   -2.5763973560E-04   -2.5918557300E-04   -2.6074068541E-04
   -2.6230512848E-04   -2.6387895818E-04   -2.6546223084E-04   -2.6705500312E-04
   -2.6865733201E-04   -2.7026927486E-04   -2.7189088934E-04   -2.7352223349E-04
   -2.7516336568E-04   -2.7681434464E-04   -2.7847522945E-04   -2.8014607955E-04
   -2.8182695473E-04   -2.8351791513E-04   -2.8521902128E-04   -2.8693033403E-04
   -2.8865191464E-04   -2.9038382470E-04   -2.9212612620E-04   -2.9387888148E-04
   -2.9564215327E-04   -2.9741600466E-04   -2.9920049913E-04   -3.0099570054E-04
   -3.0280167313E-04   -3.0461848153E-04   -3.0644619075E-04   -3.0828486619E-04
   -3.1013457365E-04   -3.1199537933E-04   -3.1386734981E-04   -3.1575055207E-04
   -3.1764505352E-04   -3.1955092195E-04   -3.2146822555E-04   -3.2339703293E-04
   -3.2533741313E-04   -3.2728943557E-04   -3.2925317011E-04   -3.3122868702E-04
   -3.3321605699E-04   -3.3521535114E-04   -3.3722664102E-04   -3.3924999859E-04
   -3.4128549627E-04   -3.4333320690E-04   -3.4539320374E-04   -3.4746556052E-04
   -3.4955035140E-04   -3.5164765098E-04   -3.5375753431E-04   -3.5588007690E-04
   -3.5801535469E-04   -3.6016344410E-04   -3.6232442200E-04   -3.6449836572E-04
   -3.6668535304E-04   -3.6888546224E-04   -3.7109877204E-04   -3.7332536165E-04
   -3.7556531074E-04   -3.7781869946E-04   -3.8008560847E-04   -3.8236611886E-04
   -3.8466031227E-04   -3.8696827077E-04   -3.8929007696E-04   -3.9162581393E-04
   -3.9397556526E-04   -3.9633941503E-04   -3.9871744783E-04   -4.0110974876E-04
   -4.0351640343E-04   -4.0593749796E-04   -4.0837311899E-04   -4.1082335367E-04
   -4.1328828968E-04   -4.1576801524E-04   -4.1826261907E-04   -4.2077219045E-04
   -4.2329681918E-04   -4.2583659561E-04   -4.2839161060E-04   -4.3096195561E-04
   -4.3354772260E-04   -4.3614900411E-04   -4.3876589322E-04   -4.4139848358E-04
   -4.4404686938E-04   -4.4671114541E-04   -4.4939140700E-04   -4.5208775007E-04
   -4.5480027110E-04   -4.5752906715E-04   -4.6027423588E-04   -4.6303587552E-04
   -4.6581408489E-04   -4.6860896341E-04   -4.7142061109E-04   -4.7424912855E-04
   -4.7709461701E-04   -4.7995717827E-04   -4.8283691479E-04   -4.8573392961E-04
   -4.8864832640E-04   -4.9158020945E-04   -4.9452968367E-04   -4.9749685460E-04
   -5.0048182843E-04   -5.0348471198E-04   -5.0650561269E-04   -5.0954463866E-04
   -5.1260189866E-04   -5.1567750207E-04   -5.1877155896E-04   -5.2188418004E-04
   -5.2501547670E-04   -5.2816556098E-04   -5.3133454562E-04   -5.3452254400E-04
   -5.3772967022E-04   -5.4095603903E-04   -5.4420176588E-04   -5.4746696692E-04
   -5.5075175900E-04   -5.5405625966E-04   -5.5738058714E-04   -5.6072486040E-04
   -5.6408919912E-04   -5.6747372367E-04   -5.7087855519E-04   -5.7430381549E-04
   -5.7774962716E-04   -5.8121611350E-04   -5.8470339855E-04   -5.8821160709E-04
   -5.9174086467E-04   -5.9529129758E-04   -5.9886303287E-04   -6.0245619834E-04
   -6.0607092257E-04   -6.0970733491E-04   -6.1336556549E-04   -6.1704574521E-04
   -6.2074800576E-04   -6.2447247962E-04   -6.2821930007E-04   -6.3198860118E-04
   -6.3578051782E-04   -6.3959518570E-04   -6.4343274131E-04   -6.4729332197E-04
   -6.5117706583E-04   -6.5508411186E-04   -6.5901459988E-04   -6.6296867051E-04
   -6.6694646527E-04   -6.7094812648E-04   -6.7497379734E-04   -6.7902362190E-04
   -6.8309774508E-04   -6.8719631266E-04   -6.9131947130E-04   -6.9546736855E-04
   -6.9964015283E-04   -7.0383797345E-04   -7.0806098063E-04   -7.1230932547E-04
   -7.1658316001E-04   -7.2088263716E-04   -7.2520791078E-04   -7.2955913564E-04
   -7.3393646744E-04   -7.3834006282E-04   -7.4277007934E-04   -7.4722667553E-04
   -7.5171001086E-04   -7.5622024575E-04   -7.6075754160E-04   -7.6532206075E-04
   -7.6991396655E-04   -7.7453342330E-04   -7.7918059631E-04   -7.8385565185E-04
   -7.8855875722E-04   -7.9329008070E-04   -7.9804979160E-04   -8.0283806022E-04
   -8.0765505792E-04   -8.1250095704E-04   -8.1737593100E-04   -8.2228015422E-04
   -8.2721380219E-04   -8.3217705146E-04   -8.3717007961E-04   -8.4219306532E-04
   -8.4724618830E-04   -8.5232962939E-04   -8.5744357047E-04   -8.6258819453E-04
   -8.6776368566E-04   -8.7297022905E-04   -8.7820801099E-04   -8.8347721892E-04
   -8.8877804136E-04   -8.9411066800E-04   -8.9947528965E-04   -9.0487209825E-04
   -9.1030128693E-04   -9.1576304995E-04   -9.2125758273E-04   -9.2678508189E-04
   -9.3234574520E-04   -9.3793977164E-04   -9.4356736136E-04   -9.4922871574E-04
   -9.5492403735E-04   -9.6065352996E-04   -9.6641739860E-04   -9.7221584950E-04
   -9.7804909013E-04   -9.8391732922E-04   -9.8982077674E-04   -9.9575964392E-04
   -1.0017341433E-03   -1.0077444886E-03   -1.0137908948E-03   -1.0198735784E-03
   -1.0259927570E-03   -1.0321486496E-03   -1.0383414763E-03   -1.0445714588E-03
   -1.0508388200E-03   -1.0571437842E-03   -1.0634865768E-03   -1.0698674250E-03
   -1.0762865570E-03   -1.0827442024E-03   -1.0892405924E-03   -1.0957759594E-03
   -1.1023505371E-03   -1.1089645610E-03   -1.1156182675E-03   -1.1223118948E-03
   -1.1290456824E-03   -1.1358198712E-03   -1.1426347036E-03   -1.1494904234E-03
   -1.1563872759E-03   -1.1633255079E-03   -1.1703053676E-03   -1.1773271048E-03
   -1.1843909708E-03   -1.1914972181E-03   -1.1986461012E-03   -1.2058378757E-03
   -1.2130727990E-03   -1.2203511300E-03   -1.2276731291E-03   -1.2350390582E-03
   -1.2424491809E-03   -1.2499037623E-03   -1.2574030691E-03   -1.2649473697E-03
   -1.2725369340E-03   -1.2801720334E-03   -1.2878529413E-03   -1.2955799323E-03
   -1.3033532830E-03   -1.3111732715E-03   -1.3190401775E-03   -1.3269542826E-03
   -1.3349158698E-03   -1.3429252240E-03   -1.3509826318E-03   -1.3590883815E-03
   -1.3672427630E-03   -1.3754460681E-03   -1.3836985902E-03   -1.3920006248E-03
   -1.4003524686E-03   -1.4087544207E-03   -1.4172067815E-03   -1.4257098535E-03
   -1.4342639408E-03   -1.4428693496E-03   -1.4515263877E-03   -1.4602353647E-03
   -1.4689965924E-03   -1.4778103840E-03   -1.4866770551E-03   -1.4955969226E-03
   -1.5045703059E-03   -1.5135975258E-03   -1.5226789055E-03   -1.5318147697E-03
   -1.5410054452E-03   -1.5502512610E-03   -1.5595525477E-03   -1.5689096382E-03
   -1.5783228671E-03   -1.5877925713E-03   -1.5973190895E-03   -1.6069027625E-03
   -1.6165439331E-03   -1.6262429463E-03   -1.6360001491E-03   -1.6458158904E-03
   -1.6556905216E-03   -1.6656243957E-03   -1.6756178681E-03   -1.6856712965E-03
   -1.6957850404E-03   -1.7059594616E-03   -1.7161949241E-03   -1.7264917940E-03
   -1.7368504398E-03   -1.7472712319E-03   -1.7577545431E-03   -1.7683007484E-03
   -1.7789102252E-03   -1.7895833529E-03   -1.8003205133E-03   -1.8111220905E-03
   -1.8219884709E-03   -1.8329200433E-03   -1.8439171985E-03   -1.8549803301E-03
   -1.8661098338E-03   -1.8773061076E-03   -1.8885695521E-03   -1.8999005702E-03
   -1.9112995671E-03   -1.9227669507E-03   -1.9343031310E-03   -1.9459085208E-03
   -1.9575835352E-03   -1.9693285918E-03   -1.9811441107E-03   -1.9930305144E-03
   -2.0049882283E-03   -2.0170176799E-03   -2.0291192996E-03   -2.0412935202E-03
   -2.0535407772E-03   -2.0658615085E-03   -2.0782561550E-03   -2.0907251599E-03
   -2.1032689692E-03   -2.1158880315E-03   -2.1285827982E-03   -2.1413537234E-03
   -2.1542012637E-03   -2.1671258787E-03   -2.1801280308E-03   -2.1932081847E-03
   -2.2063668085E-03   -2.2196043728E-03   -2.2329213508E-03   -2.2463182190E-03
   -2.2597954565E-03   -2.2733535452E-03   -2.2869929701E-03   -2.3007142189E-03
   -2.3145177824E-03   -2.3284041541E-03   -2.3423738308E-03   -2.3564273121E-03
   -2.3705651004E-03   -2.3847877013E-03   -2.3990956236E-03   -2.4134893789E-03
   -2.4279694819E-03   -2.4425364504E-03   -2.4571908053E-03   -2.4719330708E-03
   -2.4867637739E-03   -2.5016834450E-03   -2.5166926177E-03   -2.5317918285E-03
   -2.5469816176E-03   -2.5622625279E-03   -2.5776351060E-03   -2.5930999015E-03
   -2.6086574673E-03   -2.6243083599E-03   -2.6400531388E-03   -2.6558923669E-03
   -2.6718266106E-03   -2.6878564397E-03   -2.7039824274E-03   -2.7202051500E-03
   -2.7365251879E-03   -2.7529431243E-03   -2.7694595463E-03   -2.7860750445E-03
   -2.8027902129E-03   -2.8196056491E-03   -2.8365219542E-03   -2.8535397332E-03
   -2.8706595943E-03   -2.8878821496E-03   -2.9052080149E-03   -2.9226378095E-03
   -2.9401721566E-03   -2.9578116829E-03   -2.9755570191E-03   -2.9934087996E-03
   -3.0113676625E-03   -3.0294342498E-03   -3.0476092072E-03   -3.0658931846E-03
   -3.0842868355E-03   -3.1027908173E-03   -3.1214057915E-03   -3.1401324235E-03
   -3.1589713827E-03   -3.1779233424E-03   -3.1969889800E-03   -3.2161689770E-03
   -3.2354640188E-03   -3.2548747953E-03   -3.2744020000E-03   -3.2940463310E-03
   -3.3138084902E-03   -3.3336891841E-03   -3.3536891230E-03   -3.3738090218E-03
   -3.3940495995E-03   -3.4144115795E-03   -3.4348956894E-03   -3.4555026612E-03
   -3.4762332313E-03   -3.4970881406E-03   -3.5180681342E-03   -3.5391739619E-03
   -3.5604063778E-03   -3.5817661406E-03   -3.6032540136E-03   -3.6248707645E-03
   -3.6466171656E-03   -3.6684939941E-03   -3.6905020314E-03   -3.7126420640E-03
   -3.7349148829E-03   -3.7573212837E-03   -3.7798620670E-03   -3.8025380380E-03
   -3.8253500070E-03   -3.8482987887E-03   -3.8713852030E-03   -3.8946100746E-03
   -3.9179742332E-03   -3.9414785133E-03   -3.9651237545E-03   -3.9889108015E-03
   -4.0128405038E-03   -4.0369137162E-03   -4.0611312985E-03   -4.0854941157E-03
   -4.1100030379E-03   -4.1346589404E-03   -4.1594627039E-03   -4.1844152140E-03
   -4.2095173619E-03   -4.2347700441E-03   -4.2601741623E-03   -4.2857306237E-03
   -4.3114403408E-03   -4.3373042318E-03   -4.3633232201E-03   -4.3894982347E-03
   -4.4158302102E-03   -4.4423200868E-03   -4.4689688103E-03   -4.4957773319E-03
   -4.5227466089E-03   -4.5498776040E-03   -4.5771712858E-03   -4.6046286285E-03
   -4.6322506124E-03   -4.6600382233E-03   -4.6879924532E-03   -4.7161142999E-03
   -4.7444047670E-03   -4.7728648644E-03   -4.8014956077E-03   -4.8302980187E-03
   -4.8592731254E-03   -4.8884219617E-03   -4.9177455679E-03   -4.9472449903E-03
   -4.9769212815E-03   -5.0067755005E-03   -5.0368087125E-03   -5.0670219891E-03
   -5.0974164081E-03   -5.1279930540E-03   -5.1587530175E-03   -5.1896973961E-03
   -5.2208272936E-03   -5.2521438204E-03   -5.2836480936E-03   -5.3153412369E-03
   -5.3472243807E-03   -5.3792986621E-03   -5.4115652251E-03   -5.4440252204E-03
   -5.4766798055E-03   -5.5095301449E-03   -5.5425774100E-03   -5.5758227791E-03
   -5.6092674377E-03   -5.6429125781E-03   -5.6767593998E-03   -5.7108091096E-03
   -5.7450629213E-03   -5.7795220559E-03   -5.8141877417E-03   -5.8490612143E-03
   -5.8841437168E-03   -5.9194364995E-03   -5.9549408201E-03   -5.9906579440E-03
   -6.0265891439E-03   -6.0627357002E-03   -6.0990989008E-03   -6.1356800414E-03
   -6.1724804252E-03   -6.2095013633E-03   -6.2467441746E-03   -6.2842101857E-03
   -6.3219007311E-03   -6.3598171534E-03   -6.3979608029E-03   -6.4363330381E-03
   -6.4749352256E-03   -6.5137687399E-03   -6.5528349638E-03   -6.5921352884E-03
   -6.6316711128E-03   -6.6714438445E-03   -6.7114548995E-03   -6.7517057020E-03
   -6.7921976847E-03   -6.8329322889E-03   -6.8739109642E-03   -6.9151351690E-03
   -6.9566063703E-03   -6.9983260438E-03   -7.0402956738E-03   -7.0825167536E-03
   -7.1249907852E-03   -7.1677192795E-03   -7.2107037563E-03   -7.2539457446E-03
   -7.2974467823E-03   -7.3412084163E-03   -7.3852322028E-03   -7.4295197073E-03
   -7.4740725042E-03   -7.5188921775E-03   -7.5639803206E-03   -7.6093385361E-03
   -7.6549684361E-03   -7.7008716424E-03   -7.7470497863E-03   -7.7935045086E-03
   -7.8402374600E-03   -7.8872503007E-03   -7.9345447010E-03   -7.9821223407E-03
   -8.0299849099E-03   -8.0781341083E-03   -8.1265716458E-03   -8.1752992425E-03
   -8.2243186284E-03   -8.2736315439E-03   -8.3232397394E-03   -8.3731449759E-03
   -8.4233490245E-03   -8.4738536670E-03   -8.5246606955E-03   -8.5757719127E-03
   -8.6271891319E-03   -8.6789141770E-03   -8.7309488828E-03   -8.7832950947E-03
   -8.8359546691E-03   -8.8889294732E-03   -8.9422213851E-03   -8.9958322942E-03
   -9.0497641008E-03   -9.1040187163E-03   -9.1585980635E-03   -9.2135040763E-03
   -9.2687387000E-03   -9.3243038914E-03   -9.3802016186E-03   -9.4364338615E-03
   -9.4930026113E-03   -9.5499098711E-03   -9.6071576554E-03   -9.6647479910E-03
   -9.7226829161E-03   -9.7809644810E-03   -9.8395947481E-03   -9.8985757916E-03
   -9.9579096980E-03   -1.0017598566E-02   -1.0077644506E-02   -1.0138049643E-02
   -1.0198816110E-02   -1.0259946057E-02   -1.0321441644E-02   -1.0383305045E-02
   -1.0445538444E-02   -1.0508144041E-02   -1.0571124048E-02   -1.0634480688E-02
   -1.0698216198E-02   -1.0762332830E-02   -1.0826832845E-02   -1.0891718522E-02
   -1.0956992149E-02   -1.1022656030E-02   -1.1088712480E-02   -1.1155163831E-02
   -1.1222012424E-02   -1.1289260617E-02   -1.1356910782E-02   -1.1424965301E-02
   -1.1493426573E-02   -1.1562297011E-02   -1.1631579039E-02   -1.1701275099E-02
   -1.1771387645E-02   -1.1841919143E-02   -1.1912872078E-02   -1.1984248947E-02
   -1.2056052259E-02   -1.2128284542E-02   -1.2200948335E-02   -1.2274046194E-02
   -1.2347580688E-02   -1.2421554401E-02   -1.2495969934E-02   -1.2570829900E-02
   -1.2646136929E-02   -1.2721893664E-02   -1.2798102767E-02   -1.2874766910E-02
   -1.2951888786E-02   -1.3029471099E-02   -1.3107516571E-02   -1.3186027937E-02
   -1.3265007951E-02   -1.3344459381E-02   -1.3424385010E-02   -1.3504787639E-02
   -1.3585670082E-02   -1.3667035173E-02   -1.3748885758E-02   -1.3831224702E-02
   -1.3914054886E-02   -1.3997379206E-02   -1.4081200576E-02   -1.4165521926E-02
   -1.4250346202E-02   -1.4335676367E-02   -1.4421515401E-02   -1.4507866302E-02
   -1.4594732083E-02   -1.4682115776E-02   -1.4770020427E-02   -1.4858449103E-02
   -1.4947404886E-02   -1.5036890876E-02   -1.5126910191E-02   -1.5217465965E-02
   -1.5308561351E-02   -1.5400199519E-02   -1.5492383658E-02   -1.5585116973E-02
   -1.5678402688E-02   -1.5772244046E-02   -1.5866644307E-02   -1.5961606749E-02
   -1.6057134669E-02   -1.6153231381E-02   -1.6249900221E-02   -1.6347144539E-02
   -1.6444967707E-02   -1.6543373113E-02   -1.6642364168E-02   -1.6741944298E-02
   -1.6842116949E-02   -1.6942885586E-02   -1.7044253695E-02   -1.7146224779E-02
   -1.7248802362E-02   -1.7351989985E-02   -1.7455791212E-02   -1.7560209623E-02
   -1.7665248821E-02   -1.7770912426E-02   -1.7877204080E-02   -1.7984127443E-02
   -1.8091686196E-02   -1.8199884041E-02   -1.8308724699E-02   -1.8418211912E-02
   -1.8528349441E-02   -1.8639141069E-02   -1.8750590598E-02   -1.8862701853E-02
   -1.8975478678E-02   -1.9088924938E-02   -1.9203044518E-02   -1.9317841326E-02
   -1.9433319290E-02   -1.9549482358E-02   -1.9666334500E-02   -1.9783879710E-02
   -1.9902121998E-02   -2.0021065400E-02   -2.0140713972E-02   -2.0261071791E-02
   -2.0382142956E-02   -2.0503931588E-02   -2.0626441830E-02   -2.0749677847E-02
   -2.0873643825E-02   -2.0998343974E-02   -2.1123782524E-02   -2.1249963728E-02
   -2.1376891863E-02   -2.1504571226E-02   -2.1633006138E-02   -2.1762200941E-02
   -2.1892160002E-02   -2.2022887708E-02   -2.2154388471E-02   -2.2286666725E-02
   -2.2419726925E-02   -2.2553573553E-02   -2.2688211112E-02   -2.2823644126E-02
   -2.2959877146E-02   -2.3096914743E-02   -2.3234761514E-02   -2.3373422078E-02
   -2.3512901078E-02   -2.3653203178E-02   -2.3794333070E-02   -2.3936295467E-02
   -2.4079095106E-02   -2.4222736747E-02   -2.4367225176E-02   -2.4512565201E-02
   -2.4658761654E-02   -2.4805819392E-02   -2.4953743296E-02   -2.5102538271E-02
   -2.5252209244E-02   -2.5402761170E-02   -2.5554199025E-02   -2.5706527811E-02
   -2.5859752554E-02   -2.6013878305E-02   -2.6168910138E-02   -2.6324853153E-02
   -2.6481712472E-02   -2.6639493246E-02   -2.6798200645E-02   -2.6957839869E-02
   -2.7118416139E-02   -2.7279934702E-02   -2.7442400830E-02   -2.7605819819E-02
   -2.7770196990E-02   -2.7935537689E-02   -2.8101847287E-02   -2.8269131179E-02
   -2.8437394786E-02   -2.8606643553E-02   -2.8776882950E-02   -2.8948118472E-02
   -2.9120355639E-02   -2.9293599996E-02   -2.9467857112E-02   -2.9643132582E-02
   -2.9819432025E-02   -2.9996761086E-02   -3.0175125434E-02   -3.0354530763E-02
   -3.0534982792E-02   -3.0716487265E-02   -3.0899049950E-02   -3.1082676640E-02
   -3.1267373154E-02   -3.1453145334E-02   -3.1639999048E-02   -3.1827940188E-02
   -3.2016974671E-02   -3.2207108437E-02   -3.2398347454E-02   -3.2590697711E-02
   -3.2784165223E-02   -3.2978756030E-02   -3.3174476193E-02   -3.3371331801E-02
   -3.3569328967E-02   -3.3768473824E-02   -3.3968772534E-02   -3.4170231280E-02
   -3.4372856269E-02   -3.4576653733E-02   -3.4781629926E-02   -3.4987791127E-02
   -3.5195143637E-02   -3.5403693782E-02   -3.5613447910E-02   -3.5824412392E-02
   -3.6036593622E-02   -3.6249998017E-02   -3.6464632017E-02   -3.6680502084E-02
   -3.6897614702E-02   -3.7115976378E-02   -3.7335593640E-02   -3.7556473039E-02
   -3.7778621147E-02   -3.8002044557E-02   -3.8226749885E-02   -3.8452743766E-02
   -3.8680032857E-02   -3.8908623836E-02   -3.9138523401E-02   -3.9369738270E-02
   -3.9602275181E-02   -3.9836140892E-02   -4.0071342180E-02   -4.0307885842E-02
   -4.0545778694E-02   -4.0785027571E-02   -4.1025639324E-02   -4.1267620825E-02
   -4.1510978963E-02   -4.1755720644E-02   -4.2001852791E-02   -4.2249382345E-02
   -4.2498316263E-02   -4.2748661517E-02   -4.3000425097E-02   -4.3253614007E-02
   -4.3508235267E-02   -4.3764295911E-02   -4.4021802986E-02   -4.4280763557E-02
   -4.4541184698E-02   -4.4803073499E-02   -4.5066437061E-02   -4.5331282497E-02
   -4.5597616935E-02   -4.5865447508E-02   -4.6134781367E-02   -4.6405625667E-02
   -4.6677987576E-02   -4.6951874270E-02   -4.7227292935E-02   -4.7504250764E-02
   -4.7782754957E-02   -4.8062812722E-02   -4.8344431272E-02   -4.8627617828E-02
   -4.8912379613E-02   -4.9198723858E-02   -4.9486657794E-02   -4.9776188659E-02
   -5.0067323689E-02   -5.0360070125E-02   -5.0654435209E-02   -5.0950426181E-02
   -5.1248050283E-02   -5.1547314753E-02   -5.1848226829E-02   -5.2150793745E-02
   -5.2455022732E-02   -5.2760921017E-02   -5.3068495820E-02   -5.3377754354E-02
   -5.3688703828E-02   -5.4001351440E-02   -5.4315704380E-02   -5.4631769828E-02
   -5.4949554951E-02   -5.5269066906E-02   -5.5590312838E-02   -5.5913299874E-02
   -5.6238035128E-02   -5.6564525698E-02   -5.6892778664E-02   -5.7222801087E-02
   -5.7554600008E-02   -5.7888182447E-02   -5.8223555402E-02   -5.8560725849E-02
   -5.8899700735E-02   -5.9240486986E-02   -5.9583091496E-02   -5.9927521133E-02
   -6.0273782733E-02   -6.0621883103E-02   -6.0971829014E-02   -6.1323627204E-02
   -6.1677284373E-02   -6.2032807187E-02   -6.2390202270E-02   -6.2749476204E-02
   -6.3110635533E-02   -6.3473686753E-02   -6.3838636315E-02   -6.4205490624E-02
   -6.4574256033E-02   -6.4944938847E-02   -6.5317545315E-02   -6.5692081633E-02
   -6.6068553940E-02   -6.6446968315E-02   -6.6827330779E-02   -6.7209647287E-02
   -6.7593923731E-02   -6.7980165936E-02   -6.8368379657E-02   -6.8758570578E-02
   -6.9150744311E-02   -6.9544906389E-02   -6.9941062270E-02   -7.0339217329E-02
   -7.0739376861E-02   -7.1141546073E-02   -7.1545730084E-02   -7.1951933924E-02
   -7.2360162530E-02   -7.2770420742E-02   -7.3182713303E-02   -7.3597044854E-02
   -7.4013419931E-02   -7.4431842965E-02   -7.4852318278E-02   -7.5274850075E-02
   -7.5699442451E-02   -7.6126099378E-02   -7.6554824708E-02   -7.6985622167E-02
   -7.7418495353E-02   -7.7853447734E-02   -7.8290482640E-02   -7.8729603264E-02
   -7.9170812659E-02   -7.9614113728E-02   -8.0059509231E-02   -8.0507001770E-02
   -8.0956593792E-02   -8.1408287587E-02   -8.1862085275E-02   -8.2317988814E-02
   -8.2775999986E-02   -8.3236120398E-02   -8.3698351477E-02   -8.4162694464E-02
   -8.4629150414E-02   -8.5097720186E-02   -8.5568404444E-02   -8.6041203647E-02
   -8.6516118050E-02   -8.6993147695E-02   -8.7472292408E-02   -8.7953551794E-02
   -8.8436925232E-02   -8.8922411872E-02   -8.9410010625E-02   -8.9899720162E-02
   -9.0391538909E-02   -9.0885465039E-02   -9.1381496468E-02   -9.1879630848E-02
   -9.2379865565E-02   -9.2882197730E-02   -9.3386624174E-02   -9.3893141441E-02
   -9.4401745787E-02   -9.4912433167E-02   -9.5425199233E-02   -9.5940039327E-02
   -9.6456948473E-02   -9.6975921376E-02   -9.7496952406E-02   -9.8020035600E-02
   -9.8545164652E-02   -9.9072332904E-02   -9.9601533342E-02   -1.0013275859E-01
   -1.0066600089E-01   -1.0120125213E-01   -1.0173850378E-01   -1.0227774695E-01
   -1.0281897231E-01   -1.0336217015E-01   -1.0390733034E-01   -1.0445444232E-01
   -1.0500349508E-01   -1.0555447721E-01   -1.0610737680E-01   -1.0666218153E-01
   -1.0721887857E-01   -1.0777745465E-01   -1.0833789599E-01   -1.0890018833E-01
   -1.0946431690E-01   -1.1003026642E-01   -1.1059802109E-01   -1.1116756459E-01
   -1.1173888003E-01   -1.1231195000E-01   -1.1288675652E-01   -1.1346328104E-01
   -1.1404150441E-01   -1.1462140692E-01   -1.1520296824E-01   -1.1578616743E-01
   -1.1637098294E-01   -1.1695739257E-01   -1.1754537349E-01   -1.1813490219E-01
   -1.1872595453E-01   -1.1931850565E-01   -1.1991253004E-01   -1.2050800146E-01
   -1.2110489297E-01   -1.2170317690E-01   -1.2230282483E-01   -1.2290380762E-01
   -1.2350609534E-01   -1.2410965729E-01   -1.2471446200E-01   -1.2532047718E-01
   -1.2592766972E-01   -1.2653600571E-01   -1.2714545038E-01   -1.2775596811E-01
   -1.2836752241E-01   -1.2898007592E-01   -1.2959359037E-01   -1.3020802660E-01
   -1.3082334450E-01   -1.3143950304E-01   -1.3205646024E-01   -1.3267417315E-01
   -1.3329259784E-01   -1.3391168937E-01   -1.3453140181E-01   -1.3515168819E-01
   -1.3577250051E-01   -1.3639378969E-01   -1.3701550561E-01   -1.3763759703E-01
   -1.3826001163E-01   -1.3888269596E-01   -1.3950559544E-01   -1.4012865433E-01
   -1.4075181572E-01   -1.4137502153E-01   -1.4199821246E-01   -1.4262132802E-01
   -1.4324430645E-01   -1.4386708478E-01   -1.4448959873E-01   -1.4511178277E-01
   -1.4573357006E-01   -1.4635489242E-01   -1.4697568036E-01   -1.4759586303E-01
   -1.4821536821E-01   -1.4883412228E-01   -1.4945205024E-01   -1.5006907565E-01
   -1.5068512064E-01   -1.5130010586E-01   -1.5191395053E-01   -1.5252657232E-01
   -1.5313788745E-01   -1.5374781057E-01   -1.5435625480E-01   -1.5496313171E-01
   -1.5556835126E-01   -1.5617182186E-01   -1.5677345025E-01   -1.5737314158E-01
   -1.5797079933E-01   -1.5856632534E-01   -1.5915961973E-01   -1.5975058095E-01
   -1.6033910571E-01   -1.6092508901E-01   -1.6150842409E-01   -1.6208900241E-01
   -1.6266671367E-01   -1.6324144575E-01   -1.6381308473E-01   -1.6438151485E-01
   -1.6494661852E-01   -1.6550827626E-01   -1.6606636674E-01   -1.6662076673E-01
   -1.6717135109E-01   -1.6771799276E-01   -1.6826056275E-01   -1.6879893013E-01
   -1.6933296200E-01   -1.6986252348E-01   -1.7038747773E-01   -1.7090768588E-01
   -1.7142300709E-01   -1.7193329845E-01   -1.7243841508E-01   -1.7293821000E-01
   -1.7343253423E-01   -1.7392123670E-01   -1.7440416428E-01   -1.7488116178E-01
   -1.7535207191E-01   -1.7581673529E-01   -1.7627499047E-01   -1.7672667387E-01
   -1.7717161983E-01   -1.7760966058E-01   -1.7804062622E-01   -1.7846434477E-01
   -1.7888064210E-01   -1.7928934200E-01   -1.7969026614E-01   -1.8008323406E-01
   -1.8046806322E-01   -1.8084456894E-01   -1.8121256448E-01   -1.8157186098E-01
   -1.8192226751E-01   -1.8226359103E-01   -1.8259563646E-01   -1.8291820666E-01
   -1.8323110241E-01   -1.8353412250E-01   -1.8382706366E-01   -1.8410972063E-01
   -1.8438188616E-01   -1.8464335104E-01   -1.8489390409E-01   -1.8513333220E-01
   -1.8536142038E-01   -1.8557795173E-01   -1.8578270751E-01   -1.8597546713E-01
   -1.8615600823E-01   -1.8632410666E-01   -1.8647953654E-01   -1.8662207028E-01
   -1.8675147865E-01   -1.8686753076E-01   -1.8696999415E-01   -1.8705863483E-01
   -1.8713321728E-01   -1.8719350453E-01   -1.8723925823E-01   -1.8727023863E-01
   -1.8728620472E-01   -1.8728691421E-01   -1.8727212362E-01   -1.8724158834E-01
   -1.8719506268E-01   -1.8713229994E-01   -1.8705305247E-01   -1.8695707176E-01
   -1.8684410846E-01   -1.8671391250E-01   -1.8656623316E-01   -1.8640081911E-01
   -1.8621741853E-01   -1.8601577918E-01   -1.8579564847E-01   -1.8555677357E-01
   -1.8529890146E-01   -1.8502177909E-01   -1.8472515341E-01   -1.8440877148E-01
   -1.8407238060E-01   -1.8371572839E-01   -1.8333856289E-01   -1.8294063267E-01
   -1.8252168694E-01   -1.8208147568E-01   -1.8161974973E-01   -1.8113626092E-01
   -1.8063076218E-01   -1.8010300766E-01   -1.7955275289E-01   -1.7897975485E-01
   -1.7838377214E-01   -1.7776456511E-01   -1.7712189598E-01   -1.7645552896E-01
   -1.7576523044E-01   -1.7505076909E-01   -1.7431191600E-01   -1.7354844486E-01
   -1.7276013208E-01   -1.7194675695E-01   -1.7110810177E-01   -1.7024395206E-01
   -1.6935409663E-01   -1.6843832783E-01   -1.6749644165E-01   -1.6652823788E-01
   -1.6553352032E-01   -1.6451209689E-01   -1.6346377982E-01   -1.6238838585E-01
   -1.6128573632E-01   -1.6015565743E-01   -1.5899798034E-01   -1.5781254138E-01
   -1.5659918221E-01   -1.5535775003E-01   -1.5408809768E-01   -1.5279008390E-01
   -1.5146357345E-01   -1.5010843731E-01   -1.4872455287E-01   -1.4731180407E-01
   -1.4587008163E-01   -1.4439928320E-01   -1.4289931352E-01   -1.4137008465E-01
   -1.3981151610E-01   -1.3822353506E-01   -1.3660607652E-01   -1.3495908350E-01
   -1.3328250719E-01   -1.3157630717E-01   -1.2984045153E-01   -1.2807491711E-01
   -1.2627968959E-01   -1.2445476378E-01   -1.2260014367E-01   -1.2071584268E-01
   -1.1880188381E-01   -1.1685829980E-01   -1.1488513328E-01   -1.1288243697E-01
   -1.1085027381E-01   -1.0878871713E-01   -1.0669785083E-01   -1.0457776946E-01
   -1.0242857846E-01   -1.0025039424E-01   -9.8043344352E-02   -9.5807567626E-02
   -9.3543214298E-02   -9.1250446148E-02   -8.8929436618E-02   -8.6580370941E-02
   -8.4203446249E-02   -8.1798871690E-02   -7.9366868524E-02   -7.6907670226E-02
   -7.4421522575E-02   -7.1908683734E-02   -6.9369424328E-02   -6.6804027508E-02
   -6.4212789012E-02   -6.1596017206E-02   -5.8954033131E-02   -5.6287170519E-02
   -5.3595775816E-02   -5.0880208182E-02   -4.8140839479E-02   -4.5378054248E-02
   -4.2592249669E-02   -3.9783835508E-02   -3.6953234042E-02   -3.4100879973E-02
   -3.1227220317E-02   -2.8332714280E-02   -2.5417833107E-02   -2.2483059915E-02
   -1.9528889497E-02   -1.6555828108E-02   -1.3564393221E-02   -1.0555113259E-02
   -7.5285273015E-03   -4.4851847558E-03   -1.4256450053E-03    1.6495229767E-03
    4.7397410453E-03    7.8444223344E-03    1.0962971742E-02    1.4094786451E-02
    1.7239256487E-02    2.0395765309E-02    2.3563690447E-02    2.6742404164E-02
    2.9931274174E-02    3.3129664382E-02    3.6336935679E-02    3.9552446765E-02
    4.2775555017E-02    4.6005617396E-02    4.9241991389E-02    5.2484035991E-02
    5.5731112725E-02    5.8982586691E-02    6.2237827655E-02    6.5496211164E-02
    6.8757119690E-02    7.2019943805E-02    7.5284083368E-02    7.8548948745E-02
    8.1813962029E-02    8.5078558283E-02    8.8342186781E-02    9.1604312251E-02
    9.4864416118E-02    9.8121997724E-02    1.0137657555E-01    1.0462768838E-01
    1.0787489647E-01    1.1111778267E-01    1.1435595346E-01    1.1758903998E-01
    1.2081669897E-01    1.2403861364E-01    1.2725449446E-01    1.3046407985E-01
    1.3366713677E-01    1.3686346125E-01    1.4005287870E-01    1.4323524419E-01
    1.4641044252E-01    1.4957838824E-01    1.5273902540E-01    1.5589232722E-01
    1.5903829561E-01    1.6217696044E-01    1.6530837872E-01    1.6843263355E-01
    1.7154983292E-01    1.7466010831E-01    1.7776361313E-01    1.8086052098E-01
    1.8395102373E-01    1.8703532943E-01    1.9011366008E-01    1.9318624925E-01
    1.9625333957E-01    1.9931518006E-01    2.0237202341E-01    2.0542412315E-01
    2.0847173074E-01    2.1151509265E-01    2.1455444739E-01    2.1759002257E-01
    2.2062203200E-01    2.2365067283E-01    2.2667612281E-01    2.2969853769E-01
    2.3271804877E-01    2.3573476061E-01    2.3874874904E-01    2.4176005940E-01
    2.4476870503E-01    2.4777466616E-01    2.5077788911E-01    2.5377828584E-01
    2.5677573401E-01    2.5977007733E-01    2.6276112640E-01    2.6574866006E-01
    2.6873242707E-01    2.7171214836E-01    2.7468751963E-01    2.7765821444E-01
    2.8062388771E-01    2.8358417955E-01    2.8653871948E-01    2.8948713096E-01
    2.9242903611E-01    2.9536406071E-01    2.9829183921E-01    3.0121201993E-01
    3.0412427012E-01    3.0702828089E-01    3.0992377195E-01    3.1281049604E-01
    3.1568824297E-01    3.1855684308E-01    3.2141616903E-01    3.2426613149E-01
    3.2710667153E-01    3.2993775997E-01    3.3275939955E-01    3.3557162371E-01
    3.3837449552E-01    3.4116810533E-01    3.4395256725E-01    3.4672801438E-01
    3.4949459261E-01    3.5225245319E-01    3.5500174400E-01    3.5774259982E-01
    3.6047513197E-01    3.6319941767E-01    3.6591548973E-01    3.6862332714E-01
    3.7132284717E-01    3.7401389952E-01    3.7669626291E-01    3.7936964431E-01
    3.8203368094E-01    3.8468794462E-01    3.8733194825E-01    3.8996515380E-01
    3.9258698118E-01    3.9519681754E-01    3.9779402624E-01    4.0037795533E-01
    4.0294794505E-01    4.0550333421E-01    4.0804346549E-01    4.1056768954E-01
    4.1307536800E-01    4.1556587563E-01    4.1803860159E-01    4.2049295013E-01
    4.2292834064E-01    4.2534420741E-01    4.2773999909E-01    4.3011517787E-01
    4.3246921866E-01    4.3480160807E-01    4.3711184350E-01    4.3939943215E-01
    4.4166389011E-01    4.4390474145E-01    4.4612151749E-01    4.4831375595E-01
    4.5048100036E-01    4.5262279943E-01    4.5473870646E-01    4.5682827893E-01
    4.5889107805E-01    4.6092666838E-01    4.6293461753E-01    4.6491449592E-01
    4.6686587649E-01    4.6878833459E-01    4.7068144776E-01    4.7254479567E-01
    4.7437795999E-01    4.7618052434E-01    4.7795207426E-01    4.7969219717E-01
    4.8140048242E-01    4.8307652123E-01    4.8471990681E-01    4.8633023437E-01
    4.8790710120E-01    4.8945010673E-01    4.9095885264E-01    4.9243294298E-01
    4.9387198424E-01    4.9527558549E-01    4.9664335853E-01    4.9797491801E-01
    4.9926988156E-01    5.0052787000E-01    5.0174850742E-01    5.0293142141E-01
    5.0407624321E-01    5.0518260788E-01    5.0625015449E-01    5.0727852630E-01
    5.0826737094E-01    5.0921634064E-01    5.1012509237E-01    5.1099328811E-01
    5.1182059498E-01    5.1260668552E-01    5.1335123782E-01    5.1405393580E-01
    5.1471446940E-01    5.1533253478E-01    5.1590783455E-01    5.1644007801E-01
    5.1692898132E-01    5.1737426780E-01    5.1777566807E-01    5.1813292034E-01
    5.1844577061E-01    5.1871397292E-01    5.1893728955E-01    5.1911549128E-01
    5.1924835761E-01    5.1933567700E-01    5.1937724710E-01    5.1937287502E-01
    5.1932237750E-01    5.1922558124E-01    5.1908232305E-01    5.1889245017E-01
    5.1865582046E-01    5.1837230267E-01    5.1804177667E-01    5.1766413370E-01
    5.1723927665E-01    5.1676712022E-01    5.1624759125E-01    5.1568062895E-01
    5.1506618508E-01    5.1440422428E-01    5.1369472427E-01    5.1293767607E-01
    5.1213308428E-01    5.1128096730E-01    5.1038135756E-01    5.0943430173E-01
    5.0843986098E-01    5.0739811119E-01    5.0630914313E-01    5.0517306273E-01
    5.0398999119E-01    5.0276006528E-01    5.0148343743E-01    5.0016027595E-01
    4.9879076519E-01    4.9737510566E-01    4.9591351420E-01    4.9440622411E-01
    4.9285348522E-01    4.9125556400E-01    4.8961274368E-01    4.8792532422E-01
    4.8619362246E-01    4.8441797204E-01    4.8259872349E-01    4.8073624412E-01
    4.7883091809E-01    4.7688314623E-01    4.7489334606E-01    4.7286195161E-01
    4.7078941331E-01    4.6867619787E-01    4.6652278802E-01    4.6432968239E-01
    4.6209739523E-01    4.5982645620E-01    4.5751741003E-01    4.5517081629E-01
    4.5278724903E-01    4.5036729643E-01    4.4791156047E-01    4.4542065649E-01
    4.4289521285E-01    4.4033587043E-01    4.3774328224E-01    4.3511811292E-01
    4.3246103830E-01    4.2977274486E-01    4.2705392928E-01    4.2430529787E-01
    4.2152756606E-01    4.1872145787E-01    4.1588770534E-01    4.1302704802E-01
    4.1014023236E-01    4.0722801115E-01    4.0429114302E-01    4.0133039177E-01
    3.9834652590E-01    3.9534031798E-01    3.9231254413E-01    3.8926398341E-01
    3.8619541733E-01    3.8310762924E-01    3.8000140386E-01    3.7687752666E-01
    3.7373678341E-01    3.7057995965E-01    3.6740784018E-01    3.6422120854E-01
    3.6102084661E-01    3.5780753407E-01    3.5458204799E-01    3.5134516239E-01
    3.4809764782E-01    3.4484027093E-01    3.4157379411E-01    3.3829897510E-01
    3.3501656667E-01    3.3172731619E-01    3.2843196541E-01    3.2513125009E-01
    3.2182589971E-01    3.1851663723E-01    3.1520417878E-01    3.1188923350E-01
    3.0857250321E-01    3.0525468229E-01    3.0193645746E-01    2.9861850757E-01
    2.9530150349E-01    2.9198610795E-01    2.8867297538E-01    2.8536275184E-01
    2.8205607487E-01    2.7875357346E-01    2.7545586792E-01    2.7216356986E-01
    2.6887728210E-01    2.6559759867E-01    2.6232510478E-01    2.5906037677E-01
    2.5580398214E-01    2.5255647954E-01    2.4931841878E-01    2.4609034085E-01
    2.4287277796E-01    2.3966625354E-01    2.3647128234E-01    2.3328837041E-01
    2.3011801519E-01    2.2696070556E-01    2.2381692188E-01    2.2068713608E-01
    2.1757181167E-01    2.1447140386E-01    2.1138635960E-01    2.0831711761E-01
    2.0526410851E-01    2.0222775482E-01    1.9920847104E-01    1.9620666371E-01
    1.9322273147E-01    1.9025706508E-01    1.8731004749E-01    1.8438205385E-01
    1.8147345160E-01    1.7858460043E-01    1.7571585234E-01    1.7286755167E-01
    1.7004003508E-01    1.6723363157E-01    1.6444866247E-01    1.6168544144E-01
    1.5894427444E-01    1.5622545972E-01    1.5352928778E-01    1.5085604134E-01
    1.4820599532E-01    1.4557941674E-01    1.4297656469E-01    1.4039769031E-01
    1.3784303666E-01    1.3531283870E-01    1.3280732318E-01    1.3032670860E-01
    1.2787120510E-01    1.2544101438E-01    1.2303632966E-01    1.2065733551E-01
    1.1830420785E-01    1.1597711380E-01    1.1367621164E-01    1.1140165067E-01
    1.0915357119E-01    1.0693210438E-01    1.0473737222E-01    1.0256948744E-01
    1.0042855342E-01    9.8314664157E-02    9.6227904171E-02    9.4168348480E-02
    9.2136062536E-02    9.0131102188E-02    8.8153513650E-02    8.6203333474E-02
    8.4280588531E-02    8.2385296006E-02    8.0517463389E-02    7.8677088495E-02
    7.6864159470E-02    7.5078654825E-02    7.3320543470E-02    7.1589784760E-02
    6.9886328551E-02    6.8210115264E-02    6.6561075962E-02    6.4939132430E-02
    6.3344197275E-02    6.1776174027E-02    6.0234957248E-02    5.8720432659E-02
    5.7232477269E-02    5.5770959514E-02    5.4335739403E-02    5.2926668678E-02
    5.1543590974E-02    5.0186341994E-02    4.8854749684E-02    4.7548634420E-02
    4.6267809201E-02    4.5012079847E-02    4.3781245199E-02    4.2575097337E-02
    4.1393421783E-02    4.0235997730E-02    3.9102598259E-02    3.7992990570E-02
    3.6906936207E-02    3.5844191298E-02    3.4804506785E-02    3.3787628667E-02
    3.2793298234E-02    3.1821252315E-02    3.0871223516E-02    2.9942940463E-02
    2.9036128048E-02    2.8150507669E-02    2.7285797475E-02    2.6441712605E-02
    2.5617965432E-02    2.4814265803E-02    2.4030321271E-02    2.3265837336E-02
    2.2520517677E-02    2.1794064381E-02    2.1086178170E-02    2.0396558632E-02
    1.9724904432E-02    1.9070913540E-02    1.8434283436E-02    1.7814711326E-02
    1.7211894346E-02    1.6625529760E-02    1.6055315163E-02    1.5500948667E-02
    1.4962129092E-02    1.4438556147E-02    1.3929930607E-02    1.3435954487E-02
    1.2956331207E-02    1.2490765753E-02    1.2038964836E-02    1.1600637040E-02
    1.1175492968E-02    1.0763245383E-02    1.0363609342E-02    9.9763023211E-03
    9.6010443436E-03    9.2375580943E-03    8.8855690320E-03    8.5448054964E-03
    8.2149988082E-03    7.8958833648E-03    7.5871967301E-03    7.2886797191E-03
    7.0000764767E-03    6.7211345518E-03    6.4516049658E-03    6.1912422763E-03
    5.9398046351E-03    5.6970538419E-03    5.4627553928E-03    5.2366785240E-03
    5.0185962507E-03    4.8082854015E-03    4.6055266484E-03    4.4101045321E-03
    4.2218074833E-03    4.0404278394E-03    3.8657618578E-03    3.6976097246E-03
    3.5357755597E-03    3.3800674180E-03    3.2302972876E-03    3.0862810837E-03
    2.9478386396E-03    2.8147936944E-03    2.6869738775E-03    2.5642106901E-03
    2.4463394840E-03    2.3331994373E-03    2.2246335278E-03    2.1204885038E-03
    2.0206148522E-03    1.9248667650E-03    1.8331021026E-03    1.7451823564E-03
    1.6609726082E-03    1.5803414886E-03    1.5031611331E-03    1.4293071377E-03
    1.3586585111E-03    1.2910976279E-03    1.2265101785E-03    1.1647851186E-03
    1.1058146185E-03    1.0494940095E-03    9.9572173137E-04    9.4439927776E-04
    8.9543114145E-04    8.4872475890E-04    8.0419045429E-04    7.6174138305E-04
    7.2129347514E-04    6.8276537801E-04    6.4607839933E-04    6.1115644964E-04
    5.7792598493E-04    5.4631594921E-04    5.1625771718E-04    4.8768503700E-04
    4.6053397333E-04    4.3474285055E-04    4.1025219632E-04    3.8700468550E-04
    3.6494508448E-04    3.4402019596E-04    3.2417880425E-04    3.0537162108E-04
    2.8755123200E-04    2.7067204345E-04    2.5469023042E-04    2.3956368479E-04
    2.2525196446E-04    2.1171624316E-04    1.9891926104E-04    1.8682527606E-04
    1.7540001620E-04    1.6461063249E-04    1.5442565291E-04    1.4481493714E-04
    1.3574963217E-04    1.2720212884E-04    1.1914601931E-04    1.1155605530E-04
    1.0440810744E-04    9.7679125396E-05    9.1347098980E-05    8.5391020181E-05
    7.9790846125E-05    7.4527462960E-05    6.9582650670E-05    6.4939048812E-05
    6.0580123171E-05    5.6490133335E-05    5.2654101166E-05    4.9057780188E-05
    4.5687625854E-05    4.2530766700E-05    3.9574976380E-05    3.6808646555E-05
    3.4220760633E-05    3.1800868360E-05    2.9539061225E-05    2.7425948686E-05
    2.5452635195E-05    2.3610698007E-05    2.1892165764E-05    2.0289497832E-05
    1.8795564379E-05    1.7403627183E-05    1.6107321145E-05    1.4900636497E-05
    1.3777901688E-05    1.2733766932E-05    1.1763188398E-05    1.0861413028E-05
    1.0023963972E-05    9.2466266097E-06    8.5254351543E-06    7.8566598202E-06
    7.2367945322E-06    6.6625451649E-06    6.1308182951E-06    5.6387104499E-06
    5.1834978358E-06    4.7626265324E-06    4.3737031349E-06    4.0144858310E-06
    3.6828758962E-06    3.3769095923E-06    3.0947504560E-06    2.8346819618E-06
    2.5951005450E-06    2.3745089729E-06    2.1715100483E-06    1.9848006334E-06
    1.8131659815E-06    1.6554743628E-06    1.5106719729E-06    1.3777781124E-06
    1.2558806242E-06    1.1441315797E-06    1.0417432011E-06    9.4798401001E-07
    8.6217519134E-07    7.8368716386E-07    7.1193634633E-07    6.4638211062E-07
    5.8652391283E-07    5.3189859343E-07    4.8207783827E-07    4.3666579234E-07
    3.9529681848E-07    3.5763339362E-07    3.2336413536E-07    2.9220195200E-07
    2.6388230944E-07    2.3816160866E-07    2.1481566759E-07    1.9363830177E-07
    1.7443999760E-07    1.5704667740E-07    1.4129853096E-07    1.2704896656E-07
    1.1416358917E-07    1.0251925183E-07    9.2003194491E-08    8.2512238330E-08
    7.3952033487E-08    6.6236360398E-08    5.9286481392E-08    5.3030539356E-08
    4.7403000428E-08    4.2344137860E-08    3.7799554354E-08    3.3719740305E-08
    3.0059665551E-08    2.6778402352E-08    2.3838777470E-08    2.1207051319E-08
    1.8852622314E-08    1.6747754609E-08    1.4867327687E-08   -0.0000000000E+00
   -0.0000000000E+00   -0.0000000000E+00   -0.0000000000E+00
   </PP_CHI.2>
 </PP_PSWFC>
 <PP_RHOATOM type="real"  size="  2291" columns="4">
    7.0043529411E-08    7.0886573331E-08    7.1739764126E-08    7.2603223927E-08
    7.3477076329E-08    7.4361446419E-08    7.5256460787E-08    7.6162247547E-08
    7.7078936357E-08    7.8006658433E-08    7.8945546572E-08    7.9895735169E-08
    8.0857360235E-08    8.1830559420E-08    8.2815472031E-08    8.3812239049E-08
    8.4821003155E-08    8.5841908746E-08    8.6875101956E-08    8.7920730680E-08
    8.8978944590E-08    9.0049895163E-08    9.1133735697E-08    9.2230621335E-08
    9.3340709088E-08    9.4464157857E-08    9.5601128456E-08    9.6751783632E-08
    9.7916288093E-08    9.9094808530E-08    1.0028751364E-07    1.0149457415E-07
    1.0271616283E-07    1.0395245456E-07    1.0520362630E-07    1.0646985713E-07
    1.0775132833E-07    1.0904822330E-07    1.1036072771E-07    1.1168902942E-07
    1.1303331857E-07    1.1439378758E-07    1.1577063119E-07    1.1716404650E-07
    1.1857423295E-07    1.2000139241E-07    1.2144572915E-07    1.2290744993E-07
    1.2438676399E-07    1.2588388306E-07    1.2739902146E-07    1.2893239607E-07
    1.3048422637E-07    1.3205473451E-07    1.3364414527E-07    1.3525268619E-07
    1.3688058750E-07    1.3852808223E-07    1.4019540621E-07    1.4188279810E-07
    1.4359049943E-07    1.4531875466E-07    1.4706781117E-07    1.4883791932E-07
    1.5062933250E-07    1.5244230712E-07    1.5427710270E-07    1.5613398188E-07
    1.5801321046E-07    1.5991505743E-07    1.6183979503E-07    1.6378769878E-07
    1.6575904749E-07    1.6775412335E-07    1.6977321195E-07    1.7181660229E-07
    1.7388458688E-07    1.7597746173E-07    1.7809552642E-07    1.8023908414E-07
    1.8240844172E-07    1.8460390968E-07    1.8682580230E-07    1.8907443761E-07
    1.9135013750E-07    1.9365322771E-07    1.9598403791E-07    1.9834290174E-07
    2.0073015686E-07    2.0314614497E-07    2.0559121192E-07    2.0806570769E-07
    2.1056998650E-07    2.1310440680E-07    2.1566933138E-07    2.1826512739E-07
    2.2089216640E-07    2.2355082445E-07    2.2624148211E-07    2.2896452452E-07
    2.3172034147E-07    2.3450932743E-07    2.3733188162E-07    2.4018840807E-07
    2.4307931567E-07    2.4600501823E-07    2.4896593455E-07    2.5196248846E-07
    2.5499510888E-07    2.5806422992E-07    2.6117029090E-07    2.6431373643E-07
    2.6749501647E-07    2.7071458639E-07    2.7397290705E-07    2.7727044485E-07
    2.8060767182E-07    2.8398506565E-07    2.8740310978E-07    2.9086229350E-07
    2.9436311194E-07    2.9790606624E-07    3.0149166353E-07    3.0512041706E-07
    3.0879284627E-07    3.1250947683E-07    3.1627084076E-07    3.2007747645E-07
    3.2392992881E-07    3.2782874929E-07    3.3177449596E-07    3.3576773363E-07
    3.3980903391E-07    3.4389897528E-07    3.4803814318E-07    3.5222713009E-07
    3.5646653565E-07    3.6075696669E-07    3.6509903735E-07    3.6949336917E-07
    3.7394059116E-07    3.7844133992E-07    3.8299625967E-07    3.8760600244E-07
    3.9227122807E-07    3.9699260434E-07    4.0177080710E-07    4.0660652029E-07
    4.1150043613E-07    4.1645325513E-07    4.2146568625E-07    4.2653844699E-07
    4.3167226347E-07    4.3686787055E-07    4.4212601196E-07    4.4744744035E-07
    4.5283291744E-07    4.5828321413E-07    4.6379911059E-07    4.6938139636E-07
    4.7503087052E-07    4.8074834174E-07    4.8653462843E-07    4.9239055887E-07
    4.9831697127E-07    5.0431471396E-07    5.1038464548E-07    5.1652763468E-07
    5.2274456089E-07    5.2903631401E-07    5.3540379467E-07    5.4184791431E-07
    5.4836959536E-07    5.5496977136E-07    5.6164938706E-07    5.6840939860E-07
    5.7525077364E-07    5.8217449145E-07    5.8918154311E-07    5.9627293164E-07
    6.0344967210E-07    6.1071279180E-07    6.1806333040E-07    6.2550234006E-07
    6.3303088563E-07    6.4065004476E-07    6.4836090807E-07    6.5616457932E-07
    6.6406217554E-07    6.7205482721E-07    6.8014367842E-07    6.8832988703E-07
    6.9661462482E-07    7.0499907770E-07    7.1348444584E-07    7.2207194385E-07
    7.3076280097E-07    7.3955826122E-07    7.4845958361E-07    7.5746804230E-07
    7.6658492677E-07    7.7581154205E-07    7.8514920884E-07    7.9459926377E-07
    8.0416305954E-07    8.1384196513E-07    8.2363736600E-07    8.3355066429E-07
    8.4358327901E-07    8.5373664626E-07    8.6401221941E-07    8.7441146933E-07
    8.8493588459E-07    8.9558697169E-07    9.0636625524E-07    9.1727527822E-07
    9.2831560216E-07    9.3948880742E-07    9.5079649334E-07    9.6224027853E-07
    9.7382180109E-07    9.8554271882E-07    9.9740470947E-07    1.0094094710E-06
    1.0215587218E-06    1.0338542010E-06    1.0462976685E-06    1.0588909055E-06
    1.0716357147E-06    1.0845339204E-06    1.0975873688E-06    1.1107979285E-06
    1.1241674905E-06    1.1376979684E-06    1.1513912992E-06    1.1652494428E-06
    1.1792743830E-06    1.1934681273E-06    1.2078327074E-06    1.2223701796E-06
    1.2370826248E-06    1.2519721489E-06    1.2670408832E-06    1.2822909848E-06
    1.2977246365E-06    1.3133440476E-06    1.3291514539E-06    1.3451491180E-06
    1.3613393300E-06    1.3777244072E-06    1.3943066952E-06    1.4110885676E-06
    1.4280724265E-06    1.4452607030E-06    1.4626558576E-06    1.4802603801E-06
    1.4980767906E-06    1.5161076394E-06    1.5343555073E-06    1.5528230065E-06
    1.5715127805E-06    1.5904275044E-06    1.6095698859E-06    1.6289426650E-06
    1.6485486148E-06    1.6683905416E-06    1.6884712858E-06    1.7087937218E-06
    1.7293607584E-06    1.7501753398E-06    1.7712404454E-06    1.7925590905E-06
    1.8141343267E-06    1.8359692423E-06    1.8580669628E-06    1.8804306513E-06
    1.9030635091E-06    1.9259687758E-06    1.9491497302E-06    1.9726096904E-06
    1.9963520145E-06    2.0203801011E-06    2.0446973896E-06    2.0693073608E-06
    2.0942135375E-06    2.1194194847E-06    2.1449288106E-06    2.1707451665E-06
    2.1968722480E-06    2.2233137948E-06    2.2500735918E-06    2.2771554696E-06
    2.3045633047E-06    2.3323010203E-06    2.3603725868E-06    2.3887820225E-06
    2.4175333940E-06    2.4466308167E-06    2.4760784558E-06    2.5058805265E-06
    2.5360412946E-06    2.5665650775E-06    2.5974562445E-06    2.6287192172E-06
    2.6603584708E-06    2.6923785343E-06    2.7247839909E-06    2.7575794793E-06
    2.7907696940E-06    2.8243593858E-06    2.8583533628E-06    2.8927564910E-06
    2.9275736950E-06    2.9628099585E-06    2.9984703253E-06    3.0345599000E-06
    3.0710838485E-06    3.1080473988E-06    3.1454558421E-06    3.1833145330E-06
    3.2216288908E-06    3.2604043998E-06    3.2996466104E-06    3.3393611399E-06
    3.3795536730E-06    3.4202299630E-06    3.4613958324E-06    3.5030571738E-06
    3.5452199506E-06    3.5878901982E-06    3.6310740243E-06    3.6747776105E-06
    3.7190072125E-06    3.7637691616E-06    3.8090698649E-06    3.8549158069E-06
    3.9013135502E-06    3.9482697361E-06    3.9957910860E-06    4.0438844024E-06
    4.0925565693E-06    4.1418145538E-06    4.1916654067E-06    4.2421162639E-06
    4.2931743468E-06    4.3448469642E-06    4.3971415125E-06    4.4500654773E-06
    4.5036264342E-06    4.5578320500E-06    4.6126900838E-06    4.6682083881E-06
    4.7243949099E-06    4.7812576918E-06    4.8388048734E-06    4.8970446919E-06
    4.9559854840E-06    5.0156356866E-06    5.0760038380E-06    5.1370985796E-06
    5.1989286565E-06    5.2615029192E-06    5.3248303247E-06    5.3889199377E-06
    5.4537809323E-06    5.5194225927E-06    5.5858543150E-06    5.6530856083E-06
    5.7211260963E-06    5.7899855184E-06    5.8596737312E-06    5.9302007101E-06
    6.0015765504E-06    6.0738114689E-06    6.1469158056E-06    6.2209000246E-06
    6.2957747162E-06    6.3715505982E-06    6.4482385172E-06    6.5258494504E-06
    6.6043945072E-06    6.6838849306E-06    6.7643320992E-06    6.8457475282E-06
    6.9281428715E-06    7.0115299233E-06    7.0959206199E-06    7.1813270411E-06
    7.2677614120E-06    7.3552361050E-06    7.4437636414E-06    7.5333566931E-06
    7.6240280848E-06    7.7157907951E-06    7.8086579591E-06    7.9026428701E-06
    7.9977589812E-06    8.0940199073E-06    8.1914394276E-06    8.2900314866E-06
    8.3898101971E-06    8.4907898416E-06    8.5929848744E-06    8.6964099238E-06
    8.8010797943E-06    8.9070094684E-06    9.0142141092E-06    9.1227090620E-06
    9.2325098569E-06    9.3436322110E-06    9.4560920305E-06    9.5699054131E-06
    9.6850886501E-06    9.8016582290E-06    9.9196308358E-06    1.0039023357E-05
    1.0159852883E-05    1.0282136710E-05    1.0405892340E-05    1.0531137490E-05
    1.0657890085E-05    1.0786168271E-05    1.0915990409E-05    1.1047375081E-05
    1.1180341095E-05    1.1314907483E-05    1.1451093508E-05    1.1588918662E-05
    1.1728402675E-05    1.1869565513E-05    1.2012427381E-05    1.2157008729E-05
    1.2303330253E-05    1.2451412897E-05    1.2601277857E-05    1.2752946587E-05
    1.2906440795E-05    1.3061782454E-05    1.3218993798E-05    1.3378097332E-05
    1.3539115829E-05    1.3702072337E-05    1.3866990184E-05    1.4033892974E-05
    1.4202804599E-05    1.4373749237E-05    1.4546751356E-05    1.4721835721E-05
    1.4899027394E-05    1.5078351737E-05    1.5259834420E-05    1.5443501419E-05
    1.5629379026E-05    1.5817493846E-05    1.6007872807E-05    1.6200543160E-05
    1.6395532483E-05    1.6592868687E-05    1.6792580020E-05    1.6994695068E-05
    1.7199242762E-05    1.7406252381E-05    1.7615753556E-05    1.7827776276E-05
    1.8042350889E-05    1.8259508111E-05    1.8479279024E-05    1.8701695087E-05
    1.8926788137E-05    1.9154590393E-05    1.9385134464E-05    1.9618453349E-05
    1.9854580446E-05    2.0093549554E-05    2.0335394879E-05    2.0580151038E-05
    2.0827853068E-05    2.1078536422E-05    2.1332236985E-05    2.1588991071E-05
    2.1848835431E-05    2.2111807261E-05    2.2377944201E-05    2.2647284347E-05
    2.2919866251E-05    2.3195728932E-05    2.3474911876E-05    2.3757455045E-05
    2.4043398883E-05    2.4332784319E-05    2.4625652776E-05    2.4922046175E-05
    2.5222006942E-05    2.5525578013E-05    2.5832802842E-05    2.6143725403E-05
    2.6458390203E-05    2.6776842282E-05    2.7099127223E-05    2.7425291159E-05
    2.7755380776E-05    2.8089443322E-05    2.8427526616E-05    2.8769679050E-05
    2.9115949600E-05    2.9466387831E-05    2.9821043904E-05    3.0179968584E-05
    3.0543213248E-05    3.0910829889E-05    3.1282871129E-05    3.1659390221E-05
    3.2040441059E-05    3.2426078186E-05    3.2816356803E-05    3.3211332773E-05
    3.3611062632E-05    3.4015603598E-05    3.4425013576E-05    3.4839351168E-05
    3.5258675682E-05    3.5683047140E-05    3.6112526284E-05    3.6547174591E-05
    3.6987054275E-05    3.7432228300E-05    3.7882760388E-05    3.8338715025E-05
    3.8800157478E-05    3.9267153796E-05    3.9739770825E-05    4.0218076212E-05
    4.0702138424E-05    4.1192026745E-05    4.1687811300E-05    4.2189563052E-05
    4.2697353822E-05    4.3211256294E-05    4.3731344026E-05    4.4257691463E-05
    4.4790373944E-05    4.5329467717E-05    4.5875049946E-05    4.6427198723E-05
    4.6985993083E-05    4.7551513010E-05    4.8123839450E-05    4.8703054324E-05
    4.9289240540E-05    4.9882482003E-05    5.0482863627E-05    5.1090471349E-05
    5.1705392140E-05    5.2327714018E-05    5.2957526060E-05    5.3594918415E-05
    5.4239982317E-05    5.4892810098E-05    5.5553495202E-05    5.6222132197E-05
    5.6898816788E-05    5.7583645834E-05    5.8276717359E-05    5.8978130566E-05
    5.9687985853E-05    6.0406384824E-05    6.1133430309E-05    6.1869226375E-05
    6.2613878339E-05    6.3367492787E-05    6.4130177589E-05    6.4902041912E-05
    6.5683196236E-05    6.6473752373E-05    6.7273823478E-05    6.8083524071E-05
    6.8902970046E-05    6.9732278696E-05    7.0571568724E-05    7.1420960260E-05
    7.2280574882E-05    7.3150535631E-05    7.4030967027E-05    7.4921995091E-05
    7.5823747360E-05    7.6736352904E-05    7.7659942348E-05    7.8594647890E-05
    7.9540603317E-05    8.0497944027E-05    8.1466807048E-05    8.2447331057E-05
    8.3439656398E-05    8.4443925108E-05    8.5460280929E-05    8.6488869337E-05
    8.7529837555E-05    8.8583334581E-05    8.9649511204E-05    9.0728520028E-05
    9.1820515495E-05    9.2925653906E-05    9.4044093439E-05    9.5175994180E-05
    9.6321518141E-05    9.7480829281E-05    9.8654093536E-05    9.9841478836E-05
    1.0104315513E-04    1.0225929442E-04    1.0349007078E-04    1.0473566036E-04
    1.0599624144E-04    1.0727199446E-04    1.0856310201E-04    1.0986974889E-04
    1.1119212213E-04    1.1253041099E-04    1.1388480701E-04    1.1525550407E-04
    1.1664269834E-04    1.1804658837E-04    1.1946737510E-04    1.2090526189E-04
    1.2236045453E-04    1.2383316132E-04    1.2532359303E-04    1.2683196299E-04
    1.2835848710E-04    1.2990338383E-04    1.3146687430E-04    1.3304918231E-04
    1.3465053431E-04    1.3627115951E-04    1.3791128986E-04    1.3957116011E-04
    1.4125100783E-04    1.4295107345E-04    1.4467160029E-04    1.4641283462E-04
    1.4817502565E-04    1.4995842558E-04    1.5176328968E-04    1.5358987626E-04
    1.5543844675E-04    1.5730926574E-04    1.5920260098E-04    1.6111872346E-04
    1.6305790742E-04    1.6502043041E-04    1.6700657330E-04    1.6901662037E-04
    1.7105085930E-04    1.7310958123E-04    1.7519308083E-04    1.7730165628E-04
    1.7943560937E-04    1.8159524551E-04    1.8378087381E-04    1.8599280706E-04
    1.8823136186E-04    1.9049685857E-04    1.9278962145E-04    1.9510997864E-04
    1.9745826222E-04    1.9983480829E-04    2.0223995698E-04    2.0467405250E-04
    2.0713744324E-04    2.0963048175E-04    2.1215352483E-04    2.1470693357E-04
    2.1729107342E-04    2.1990631421E-04    2.2255303024E-04    2.2523160029E-04
    2.2794240771E-04    2.3068584048E-04    2.3346229121E-04    2.3627215727E-04
    2.3911584079E-04    2.4199374875E-04    2.4490629303E-04    2.4785389045E-04
    2.5083696285E-04    2.5385593717E-04    2.5691124546E-04    2.6000332497E-04
    2.6313261822E-04    2.6629957307E-04    2.6950464273E-04    2.7274828591E-04
    2.7603096679E-04    2.7935315517E-04    2.8271532650E-04    2.8611796194E-04
    2.8956154845E-04    2.9304657883E-04    2.9657355183E-04    3.0014297219E-04
    3.0375535073E-04    3.0741120441E-04    3.1111105642E-04    3.1485543624E-04
    3.1864487970E-04    3.2247992912E-04    3.2636113331E-04    3.3028904770E-04
    3.3426423439E-04    3.3828726225E-04    3.4235870701E-04    3.4647915129E-04
    3.5064918477E-04    3.5486940417E-04    3.5914041343E-04    3.6346282375E-04
    3.6783725366E-04    3.7226432915E-04    3.7674468376E-04    3.8127895861E-04
    3.8586780256E-04    3.9051187228E-04    3.9521183233E-04    3.9996835527E-04
    4.0478212174E-04    4.0965382059E-04    4.1458414894E-04    4.1957381230E-04
    4.2462352468E-04    4.2973400866E-04    4.3490599553E-04    4.4014022537E-04
    4.4543744717E-04    4.5079841892E-04    4.5622390774E-04    4.6171468997E-04
    4.6727155130E-04    4.7289528685E-04    4.7858670134E-04    4.8434660913E-04
    4.9017583442E-04    4.9607521129E-04    5.0204558387E-04    5.0808780645E-04
    5.1420274357E-04    5.2039127021E-04    5.2665427184E-04    5.3299264460E-04
    5.3940729541E-04    5.4589914208E-04    5.5246911350E-04    5.5911814970E-04
    5.6584720202E-04    5.7265723326E-04    5.7954921779E-04    5.8652414170E-04
    5.9358300296E-04    6.0072681151E-04    6.0795658946E-04    6.1527337122E-04
    6.2267820363E-04    6.3017214612E-04    6.3775627088E-04    6.4543166297E-04
    6.5319942053E-04    6.6106065488E-04    6.6901649073E-04    6.7706806631E-04
    6.8521653354E-04    6.9346305818E-04    7.0180882004E-04    7.1025501309E-04
    7.1880284569E-04    7.2745354070E-04    7.3620833572E-04    7.4506848322E-04
    7.5403525072E-04    7.6310992100E-04    7.7229379227E-04    7.8158817834E-04
    7.9099440882E-04    8.0051382934E-04    8.1014780167E-04    8.1989770398E-04
    8.2976493102E-04    8.3975089429E-04    8.4985702228E-04    8.6008476066E-04
    8.7043557247E-04    8.8091093836E-04    8.9151235677E-04    9.0224134418E-04
    9.1309943528E-04    9.2408818324E-04    9.3520915987E-04    9.4646395592E-04
    9.5785418125E-04    9.6938146506E-04    9.8104745618E-04    9.9285382322E-04
    1.0048022549E-03    1.0168944602E-03    1.0291321686E-03    1.0415171306E-03
    1.0540511174E-03    1.0667359219E-03    1.0795733581E-03    1.0925652622E-03
    1.1057134923E-03    1.1190199289E-03    1.1324864749E-03    1.1461150564E-03
    1.1599076224E-03    1.1738661456E-03    1.1879926220E-03    1.2022890721E-03
    1.2167575402E-03    1.2314000955E-03    1.2462188320E-03    1.2612158688E-03
    1.2763933506E-03    1.2917534476E-03    1.3072983565E-03    1.3230303001E-03
    1.3389515280E-03    1.3550643169E-03    1.3713709707E-03    1.3878738211E-03
    1.4045752280E-03    1.4214775793E-03    1.4385832918E-03    1.4558948114E-03
    1.4734146133E-03    1.4911452025E-03    1.5090891140E-03    1.5272489134E-03
    1.5456271970E-03    1.5642265925E-03    1.5830497589E-03    1.6020993873E-03
    1.6213782012E-03    1.6408889568E-03    1.6606344432E-03    1.6806174834E-03
    1.7008409339E-03    1.7213076858E-03    1.7420206650E-03    1.7629828322E-03
    1.7841971840E-03    1.8056667528E-03    1.8273946077E-03    1.8493838542E-03
    1.8716376357E-03    1.8941591328E-03    1.9169515647E-03    1.9400181890E-03
    1.9633623027E-03    1.9869872422E-03    2.0108963840E-03    2.0350931452E-03
    2.0595809840E-03    2.0843634000E-03    2.1094439349E-03    2.1348261730E-03
    2.1605137415E-03    2.1865103112E-03    2.2128195971E-03    2.2394453587E-03
    2.2663914007E-03    2.2936615734E-03    2.3212597734E-03    2.3491899441E-03
    2.3774560763E-03    2.4060622086E-03    2.4350124280E-03    2.4643108709E-03
    2.4939617230E-03    2.5239692205E-03    2.5543376504E-03    2.5850713510E-03
    2.6161747128E-03    2.6476521791E-03    2.6795082464E-03    2.7117474651E-03
    2.7443744405E-03    2.7773938329E-03    2.8108103585E-03    2.8446287904E-03
    2.8788539588E-03    2.9134907518E-03    2.9485441162E-03    2.9840190581E-03
    3.0199206440E-03    3.0562540007E-03    3.0930243168E-03    3.1302368432E-03
    3.1678968936E-03    3.2060098456E-03    3.2445811412E-03    3.2836162877E-03
    3.3231208585E-03    3.3631004939E-03    3.4035609018E-03    3.4445078586E-03
    3.4859472097E-03    3.5278848711E-03    3.5703268293E-03    3.6132791428E-03
    3.6567479427E-03    3.7007394337E-03    3.7452598948E-03    3.7903156803E-03
    3.8359132206E-03    3.8820590233E-03    3.9287596741E-03    3.9760218374E-03
    4.0238522576E-03    4.0722577601E-03    4.1212452518E-03    4.1708217225E-03
    4.2209942460E-03    4.2717699804E-03    4.3231561701E-03    4.3751601458E-03
    4.4277893265E-03    4.4810512197E-03    4.5349534230E-03    4.5895036251E-03
    4.6447096067E-03    4.7005792417E-03    4.7571204984E-03    4.8143414403E-03
    4.8722502278E-03    4.9308551188E-03    4.9901644700E-03    5.0501867385E-03
    5.1109304824E-03    5.1724043623E-03    5.2346171425E-03    5.2975776922E-03
    5.3612949868E-03    5.4257781092E-03    5.4910362507E-03    5.5570787130E-03
    5.6239149089E-03    5.6915543637E-03    5.7600067171E-03    5.8292817236E-03
    5.8993892549E-03    5.9703393003E-03    6.0421419690E-03    6.1148074909E-03
    6.1883462184E-03    6.2627686274E-03    6.3380853194E-03    6.4143070225E-03
    6.4914445930E-03    6.5695090173E-03    6.6485114128E-03    6.7284630299E-03
    6.8093752534E-03    6.8912596044E-03    6.9741277414E-03    7.0579914623E-03
    7.1428627060E-03    7.2287535541E-03    7.3156762322E-03    7.4036431125E-03
    7.4926667143E-03    7.5827597070E-03    7.6739349109E-03    7.7662052996E-03
    7.8595840014E-03    7.9540843015E-03    8.0497196437E-03    8.1465036320E-03
    8.2444500330E-03    8.3435727776E-03    8.4438859627E-03    8.5454038535E-03
    8.6481408855E-03    8.7521116662E-03    8.8573309774E-03    8.9638137772E-03
    9.0715752020E-03    9.1806305687E-03    9.2909953768E-03    9.4026853105E-03
    9.5157162410E-03    9.6301042287E-03    9.7458655253E-03    9.8630165759E-03
    9.9815740220E-03    1.0101554703E-02    1.0222975658E-02    1.0345854132E-02
    1.0470207571E-02    1.0596053632E-02    1.0723410181E-02    1.0852295297E-02
    1.0982727274E-02    1.1114724622E-02    1.1248306075E-02    1.1383490586E-02
    1.1520297336E-02    1.1658745733E-02    1.1798855415E-02    1.1940646255E-02
    1.2084138362E-02    1.2229352083E-02    1.2376308008E-02    1.2525026970E-02
    1.2675530051E-02    1.2827838583E-02    1.2981974151E-02    1.3137958597E-02
    1.3295814021E-02    1.3455562786E-02    1.3617227521E-02    1.3780831123E-02
    1.3946396761E-02    1.4113947877E-02    1.4283508194E-02    1.4455101714E-02
    1.4628752724E-02    1.4804485799E-02    1.4982325807E-02    1.5162297906E-02
    1.5344427558E-02    1.5528740521E-02    1.5715262863E-02    1.5904020956E-02
    1.6095041488E-02    1.6288351459E-02    1.6483978193E-02    1.6681949333E-02
    1.6882292852E-02    1.7085037051E-02    1.7290210569E-02    1.7497842380E-02
    1.7707961802E-02    1.7920598499E-02    1.8135782487E-02    1.8353544134E-02
    1.8573914167E-02    1.8796923676E-02    1.9022604119E-02    1.9250987324E-02
    1.9482105494E-02    1.9715991213E-02    1.9952677447E-02    2.0192197552E-02
    2.0434585277E-02    2.0679874769E-02    2.0928100575E-02    2.1179297651E-02
    2.1433501364E-02    2.1690747495E-02    2.1951072248E-02    2.2214512253E-02
    2.2481104569E-02    2.2750886691E-02    2.3023896556E-02    2.3300172545E-02
    2.3579753490E-02    2.3862678679E-02    2.4148987861E-02    2.4438721251E-02
    2.4731919537E-02    2.5028623881E-02    2.5328875931E-02    2.5632717821E-02
    2.5940192178E-02    2.6251342129E-02    2.6566211306E-02    2.6884843851E-02
    2.7207284422E-02    2.7533578200E-02    2.7863770893E-02    2.8197908743E-02
    2.8536038534E-02    2.8878207593E-02    2.9224463803E-02    2.9574855603E-02
    2.9929431996E-02    3.0288242560E-02    3.0651337447E-02    3.1018767395E-02
    3.1390583731E-02    3.1766838383E-02    3.2147583878E-02    3.2532873358E-02
    3.2922760580E-02    3.3317299927E-02    3.3716546414E-02    3.4120555692E-02
    3.4529384060E-02    3.4943088469E-02    3.5361726530E-02    3.5785356523E-02
    3.6214037400E-02    3.6647828798E-02    3.7086791043E-02    3.7530985158E-02
    3.7980472872E-02    3.8435316627E-02    3.8895579585E-02    3.9361325639E-02
    3.9832619416E-02    4.0309526291E-02    4.0792112389E-02    4.1280444599E-02
    4.1774590579E-02    4.2274618764E-02    4.2780598378E-02    4.3292599438E-02
    4.3810692766E-02    4.4334949996E-02    4.4865443585E-02    4.5402246819E-02
    4.5945433824E-02    4.6495079573E-02    4.7051259899E-02    4.7614051500E-02
    4.8183531952E-02    4.8759779715E-02    4.9342874144E-02    4.9932895501E-02
    5.0529924961E-02    5.1134044621E-02    5.1745337517E-02    5.2363887624E-02
    5.2989779875E-02    5.3623100164E-02    5.4263935362E-02    5.4912373322E-02
    5.5568502896E-02    5.6232413937E-02    5.6904197317E-02    5.7583944935E-02
    5.8271749726E-02    5.8967705675E-02    5.9671907824E-02    6.0384452289E-02
    6.1105436263E-02    6.1834958037E-02    6.2573117001E-02    6.3320013665E-02
    6.4075749662E-02    6.4840427766E-02    6.5614151900E-02    6.6397027151E-02
    6.7189159777E-02    6.7990657224E-02    6.8801628135E-02    6.9622182363E-02
    7.0452430984E-02    7.1292486308E-02    7.2142461891E-02    7.3002472551E-02
    7.3872634377E-02    7.4753064741E-02    7.5643882316E-02    7.6545207083E-02
    7.7457160347E-02    7.8379864750E-02    7.9313444283E-02    8.0258024302E-02
    8.1213731536E-02    8.2180694106E-02    8.3159041534E-02    8.4148904763E-02
    8.5150416161E-02    8.6163709544E-02    8.7188920185E-02    8.8226184828E-02
    8.9275641704E-02    9.0337430544E-02    9.1411692593E-02    9.2498570625E-02
    9.3598208954E-02    9.4710753456E-02    9.5836351575E-02    9.6975152342E-02
    9.8127306391E-02    9.9292965967E-02    1.0047228495E-01    1.0166541886E-01
    1.0287252489E-01    1.0409376189E-01    1.0532929041E-01    1.0657927270E-01
    1.0784387275E-01    1.0912325625E-01    1.1041759067E-01    1.1172704523E-01
    1.1305179095E-01    1.1439200063E-01    1.1574784888E-01    1.1711951215E-01
    1.1850716873E-01    1.1991099878E-01    1.2133118430E-01    1.2276790921E-01
    1.2422135934E-01    1.2569172241E-01    1.2717918812E-01    1.2868394809E-01
    1.3020619592E-01    1.3174612719E-01    1.3330393949E-01    1.3487983243E-01
    1.3647400762E-01    1.3808666876E-01    1.3971802159E-01    1.4136827394E-01
    1.4303763571E-01    1.4472631894E-01    1.4643453778E-01    1.4816250854E-01
    1.4991044967E-01    1.5167858178E-01    1.5346712771E-01    1.5527631247E-01
    1.5710636330E-01    1.5895750968E-01    1.6082998332E-01    1.6272401822E-01
    1.6463985065E-01    1.6657771917E-01    1.6853786465E-01    1.7052053030E-01
    1.7252596165E-01    1.7455440659E-01    1.7660611538E-01    1.7868134067E-01
    1.8078033748E-01    1.8290336328E-01    1.8505067792E-01    1.8722254373E-01
    1.8941922545E-01    1.9164099031E-01    1.9388810801E-01    1.9616085075E-01
    1.9845949321E-01    2.0078431260E-01    2.0313558865E-01    2.0551360363E-01
    2.0791864236E-01    2.1035099221E-01    2.1281094315E-01    2.1529878770E-01
    2.1781482098E-01    2.2035934073E-01    2.2293264727E-01    2.2553504357E-01
    2.2816683521E-01    2.3082833042E-01    2.3351984007E-01    2.3624167768E-01
    2.3899415942E-01    2.4177760416E-01    2.4459233340E-01    2.4743867136E-01
    2.5031694490E-01    2.5322748361E-01    2.5617061973E-01    2.5914668824E-01
    2.6215602677E-01    2.6519897568E-01    2.6827587804E-01    2.7138707959E-01
    2.7453292879E-01    2.7771377681E-01    2.8092997750E-01    2.8418188744E-01
    2.8746986587E-01    2.9079427474E-01    2.9415547869E-01    2.9755384505E-01
    3.0098974380E-01    3.0446354762E-01    3.0797563182E-01    3.1152637440E-01
    3.1511615598E-01    3.1874535981E-01    3.2241437178E-01    3.2612358035E-01
    3.2987337662E-01    3.3366415424E-01    3.3749630942E-01    3.4137024093E-01
    3.4528635005E-01    3.4924504058E-01    3.5324671879E-01    3.5729179341E-01
    3.6138067563E-01    3.6551377903E-01    3.6969151957E-01    3.7391431559E-01
    3.7818258774E-01    3.8249675896E-01    3.8685725446E-01    3.9126450168E-01
    3.9571893025E-01    4.0022097194E-01    4.0477106064E-01    4.0936963232E-01
    4.1401712495E-01    4.1871397852E-01    4.2346063491E-01    4.2825753791E-01
    4.3310513314E-01    4.3800386800E-01    4.4295419159E-01    4.4795655472E-01
    4.5301140975E-01    4.5811921061E-01    4.6328041271E-01    4.6849547286E-01
    4.7376484921E-01    4.7908900116E-01    4.8446838933E-01    4.8990347544E-01
    4.9539472222E-01    5.0094259339E-01    5.0654755350E-01    5.1221006788E-01
    5.1793060255E-01    5.2370962411E-01    5.2954759965E-01    5.3544499665E-01
    5.4140228285E-01    5.4741992620E-01    5.5349839468E-01    5.5963815623E-01
    5.6583967862E-01    5.7210342934E-01    5.7842987542E-01    5.8481948340E-01
    5.9127271909E-01    5.9779004752E-01    6.0437193272E-01    6.1101883766E-01
    6.1773122402E-01    6.2450955210E-01    6.3135428063E-01    6.3826586661E-01
    6.4524476514E-01    6.5229142927E-01    6.5940630982E-01    6.6658985516E-01
    6.7384251108E-01    6.8116472057E-01    6.8855692364E-01    6.9601955710E-01
    7.0355305437E-01    7.1115784527E-01    7.1883435581E-01    7.2658300793E-01
    7.3440421934E-01    7.4229840324E-01    7.5026596809E-01    7.5830731738E-01
    7.6642284936E-01    7.7461295682E-01    7.8287802679E-01    7.9121844031E-01
    7.9963457212E-01    8.0812679041E-01    8.1669545652E-01    8.2534092465E-01
    8.3406354156E-01    8.4286364629E-01    8.5174156981E-01    8.6069763471E-01
    8.6973215490E-01    8.7884543526E-01    8.8803777128E-01    8.9730944877E-01
    9.0666074345E-01    9.1609192061E-01    9.2560323476E-01    9.3519492923E-01
    9.4486723580E-01    9.5462037430E-01    9.6445455221E-01    9.7436996429E-01
    9.8436679212E-01    9.9444520371E-01    1.0046053530E+00    1.0148473797E+00
    1.0251714083E+00    1.0355775481E+00    1.0460658928E+00    1.0566365195E+00
    1.0672894887E+00    1.0780248437E+00    1.0888426100E+00    1.0997427950E+00
    1.1107253872E+00    1.1217903559E+00    1.1329376507E+00    1.1441672009E+00
    1.1554789147E+00    1.1668726793E+00    1.1783483596E+00    1.1899057982E+00
    1.2015448144E+00    1.2132652040E+00    1.2250667383E+00    1.2369491641E+00
    1.2489122024E+00    1.2609555481E+00    1.2730788697E+00    1.2852818081E+00
    1.2975639762E+00    1.3099249585E+00    1.3223643101E+00    1.3348815561E+00
    1.3474761911E+00    1.3601476785E+00    1.3728954496E+00    1.3857189032E+00
    1.3986174047E+00    1.4115902855E+00    1.4246368424E+00    1.4377563366E+00
    1.4509479933E+00    1.4642110007E+00    1.4775445095E+00    1.4909476322E+00
    1.5044194421E+00    1.5179589727E+00    1.5315652171E+00    1.5452371272E+00
    1.5589736127E+00    1.5727735406E+00    1.5866357345E+00    1.6005589738E+00
    1.6145419927E+00    1.6285834799E+00    1.6426820772E+00    1.6568363796E+00
    1.6710449339E+00    1.6853062381E+00    1.6996187408E+00    1.7139808403E+00
    1.7283908839E+00    1.7428471675E+00    1.7573479341E+00    1.7718913738E+00
    1.7864756228E+00    1.8010987628E+00    1.8157588201E+00    1.8304537651E+00
    1.8451815115E+00    1.8599399156E+00    1.8747267759E+00    1.8895398322E+00
    1.9043767651E+00    1.9192351951E+00    1.9341126826E+00    1.9490067266E+00
    1.9639147646E+00    1.9788341721E+00    1.9937622616E+00    2.0086962827E+00
    2.0236334211E+00    2.0385707984E+00    2.0535054718E+00    2.0684344333E+00
    2.0833546097E+00    2.0982628621E+00    2.1131559855E+00    2.1280307086E+00
    2.1428836937E+00    2.1577115363E+00    2.1725107647E+00    2.1872778406E+00
    2.2020091580E+00    2.2167010442E+00    2.2313497588E+00    2.2459514945E+00
    2.2605023767E+00    2.2749984639E+00    2.2894357478E+00    2.3038101532E+00
    2.3181175392E+00    2.3323536982E+00    2.3465143577E+00    2.3605951797E+00
    2.3745917617E+00    2.3884996373E+00    2.4023142764E+00    2.4160310868E+00
    2.4296454140E+00    2.4431525427E+00    2.4565476973E+00    2.4698260436E+00
    2.4829826888E+00    2.4960126837E+00    2.5089110234E+00    2.5216726486E+00
    2.5342924472E+00    2.5467652558E+00    2.5590858610E+00    2.5712490014E+00
    2.5832493692E+00    2.5950816120E+00    2.6067403349E+00    2.6182201024E+00
    2.6295154406E+00    2.6406208393E+00    2.6515307547E+00    2.6622396115E+00
    2.6727418054E+00    2.6830317060E+00    2.6931036596E+00    2.7029519917E+00
    2.7125710102E+00    2.7219550084E+00    2.7310982684E+00    2.7399950640E+00
    2.7486396645E+00    2.7570263378E+00    2.7651493545E+00    2.7730029912E+00
    2.7805815345E+00    2.7878792851E+00    2.7948905617E+00    2.8016097051E+00
    2.8080310828E+00    2.8141490928E+00    2.8199581689E+00    2.8254527844E+00
    2.8306274577E+00    2.8354767562E+00    2.8399953021E+00    2.8441777765E+00
    2.8480189253E+00    2.8515135639E+00    2.8546565824E+00    2.8574429515E+00
    2.8598677273E+00    2.8619260571E+00    2.8636131851E+00    2.8649244580E+00
    2.8658553305E+00    2.8664013714E+00    2.8665582692E+00    2.8663218380E+00
    2.8656880237E+00    2.8646529097E+00    2.8632127229E+00    2.8613638400E+00
    2.8591027930E+00    2.8564262760E+00    2.8533311505E+00    2.8498144519E+00
    2.8458733955E+00    2.8415053824E+00    2.8367080052E+00    2.8314790548E+00
    2.8258165251E+00    2.8197186199E+00    2.8131837578E+00    2.8062105786E+00
    2.7987979482E+00    2.7909449647E+00    2.7826509633E+00    2.7739155215E+00
    2.7647384648E+00    2.7551198710E+00    2.7450600751E+00    2.7345596744E+00
    2.7236195321E+00    2.7122407824E+00    2.7004248340E+00    2.6881733739E+00
    2.6754883712E+00    2.6623720803E+00    2.6488270440E+00    2.6348560961E+00
    2.6204623642E+00    2.6056492718E+00    2.5904205400E+00    2.5747801891E+00
    2.5587325404E+00    2.5422822162E+00    2.5254341410E+00    2.5081935415E+00
    2.4905659462E+00    2.4725571850E+00    2.4541733882E+00    2.4354209850E+00
    2.4163067019E+00    2.3968375600E+00    2.3770208728E+00    2.3568642429E+00
    2.3363755585E+00    2.3155629891E+00    2.2944349814E+00    2.2730002545E+00
    2.2512677937E+00    2.2292468458E+00    2.2069469117E+00    2.1843777404E+00
    2.1615493214E+00    2.1384718769E+00    2.1151558540E+00    2.0916119157E+00
    2.0678509320E+00    2.0438839705E+00    2.0197222860E+00    1.9953773107E+00
    1.9708606430E+00    1.9461840365E+00    1.9213593882E+00    1.8963987267E+00
    1.8713142000E+00    1.8461180624E+00    1.8208226618E+00    1.7954404263E+00
    1.7699838506E+00    1.7444654823E+00    1.7188979074E+00    1.6932937363E+00
    1.6676655891E+00    1.6420260810E+00    1.6163878075E+00    1.5907633294E+00
    1.5651651576E+00    1.5396057384E+00    1.5140974381E+00    1.4886525280E+00
    1.4632831694E+00    1.4380013988E+00    1.4128191126E+00    1.3877480529E+00
    1.3627997926E+00    1.3379857214E+00    1.3133170316E+00    1.2888047041E+00
    1.2644594955E+00    1.2402919245E+00    1.2163122594E+00    1.1925305058E+00
    1.1689563947E+00    1.1455993712E+00    1.1224685836E+00    1.0995728731E+00
    1.0769207642E+00    1.0545204554E+00    1.0323798107E+00    1.0105063517E+00
    9.8890725082E-01    9.6758932410E-01    9.4655902592E-01    9.2582244377E-01
    9.0538529386E-01    8.8525291759E-01    8.6543027869E-01    8.4592196116E-01
    8.2673216794E-01    8.0786472040E-01    7.8932305856E-01    7.7111024209E-01
    7.5322895205E-01    7.3568149340E-01    7.1846979823E-01    7.0159542973E-01
    6.8505958685E-01    6.6886310961E-01    6.5300648517E-01    6.3748985443E-01
    6.2231301931E-01    6.0747545057E-01    5.9297629623E-01    5.7881439046E-01
    5.6498826299E-01    5.5149614893E-01    5.3833599906E-01    5.2550549044E-01
    5.1300203736E-01    5.0082280263E-01    4.8896470909E-01    4.7742445130E-01
    4.6619850752E-01    4.5528315168E-01    4.4467446558E-01    4.3436835106E-01
    4.2436054221E-01    4.1464661765E-01    4.0522201265E-01    3.9608203125E-01
    3.8722185823E-01    3.7863657103E-01    3.7032115141E-01    3.6227049701E-01
    3.5447943269E-01    3.4694272166E-01    3.3965507641E-01    3.3261116937E-01
    3.2580564339E-01    3.1923312190E-01    3.1288821892E-01    3.0676554874E-01
    3.0085973546E-01    2.9516542222E-01    2.8967728026E-01    2.8439001776E-01
    2.7929838846E-01    2.7439720013E-01    2.6968132287E-01    2.6514569720E-01
    2.6078534204E-01    2.5659536255E-01    2.5257095779E-01    2.4870742834E-01
    2.4500018366E-01    2.4144474941E-01    2.3803677462E-01    2.3477203862E-01
    2.3164645784E-01    2.2865609244E-01    2.2579715257E-01    2.2306600446E-01
    2.2045917609E-01    2.1797336246E-01    2.1560543050E-01    2.1335242335E-01
    2.1121156407E-01    2.0918025851E-01    2.0725609752E-01    2.0543685821E-01
    2.0372050424E-01    2.0210518517E-01    2.0058922305E-01    1.9917105107E-01
    1.9784912190E-01    1.9662190893E-01    1.9548790691E-01    1.9444563128E-01
    1.9349361715E-01    1.9263041735E-01    1.9185459924E-01    1.9116474050E-01
    1.9055942369E-01    1.9003722975E-01    1.8959673046E-01    1.8923648025E-01
    1.8895500743E-01    1.8875080564E-01    1.8862232556E-01    1.8856796787E-01
    1.8858607759E-01    1.8867494049E-01    1.8883278184E-01    1.8905776747E-01
    1.8934800730E-01    1.8970156096E-01    1.9011644505E-01    1.9059064163E-01
    1.9112210724E-01    1.9170878208E-01    1.9234859872E-01    1.9303949010E-01
    1.9377939655E-01    1.9456627171E-01    1.9539808730E-01    1.9627283681E-01
    1.9718853818E-01    1.9814323569E-01    1.9913500103E-01    2.0016193387E-01
    2.0122216194E-01    2.0231384076E-01    2.0343515316E-01    2.0458430866E-01
    2.0575954269E-01    2.0695911580E-01    2.0818131291E-01    2.0942444249E-01
    2.1068683584E-01    2.1196684639E-01    2.1326284912E-01    2.1457323992E-01
    2.1589643514E-01    2.1723087109E-01    2.1857500371E-01    2.1992730818E-01
    2.2128627865E-01    2.2265042801E-01    2.2401828766E-01    2.2538840738E-01
    2.2675935519E-01    2.2812971723E-01    2.2949809773E-01    2.3086311896E-01
    2.3222342118E-01    2.3357766269E-01    2.3492451982E-01    2.3626268698E-01
    2.3759087673E-01    2.3890781982E-01    2.4021226533E-01    2.4150298070E-01
    2.4277875192E-01    2.4403838361E-01    2.4528069914E-01    2.4650454082E-01
    2.4770877006E-01    2.4889226747E-01    2.5005393310E-01    2.5119268663E-01
    2.5230746749E-01    2.5339723515E-01    2.5446096926E-01    2.5549766989E-01
    2.5650635777E-01    2.5748607449E-01    2.5843588275E-01    2.5935486658E-01
    2.6024213162E-01    2.6109680533E-01    2.6191803726E-01    2.6270499934E-01
    2.6345688609E-01    2.6417291489E-01    2.6485232630E-01    2.6549438426E-01
    2.6609837642E-01    2.6666361437E-01    2.6718943393E-01    2.6767519543E-01
    2.6812028399E-01    2.6852410975E-01    2.6888610819E-01    2.6920574040E-01
    2.6948249330E-01    2.6971587997E-01    2.6990543985E-01    2.7005073908E-01
    2.7015137065E-01    2.7020695477E-01    2.7021713900E-01    2.7018159857E-01
    2.7010003661E-01    2.6997218433E-01    2.6979780126E-01    2.6957667549E-01
    2.6930862384E-01    2.6899349205E-01    2.6863115499E-01    2.6822151682E-01
    2.6776451112E-01    2.6726010107E-01    2.6670827960E-01    2.6610906946E-01
    2.6546252334E-01    2.6476872398E-01    2.6402778423E-01    2.6323984707E-01
    2.6240508572E-01    2.6152370355E-01    2.6059593418E-01    2.5962204135E-01
    2.5860231894E-01    2.5753709088E-01    2.5642671101E-01    2.5527156298E-01
    2.5407206010E-01    2.5282864514E-01    2.5154179012E-01    2.5021199605E-01
    2.4883979269E-01    2.4742573818E-01    2.4597041877E-01    2.4447444837E-01
    2.4293846818E-01    2.4136314624E-01    2.3974917693E-01    2.3809728042E-01
    2.3640820219E-01    2.3468271235E-01    2.3292160505E-01    2.3112569779E-01
    2.2929583071E-01    2.2743286587E-01    2.2553768642E-01    2.2361119583E-01
    2.2165431699E-01    2.1966799136E-01    2.1765317804E-01    2.1561085279E-01
    2.1354200708E-01    2.1144764710E-01    2.0932879265E-01    2.0718647616E-01
    2.0502174158E-01    2.0283564324E-01    2.0062924480E-01    1.9840361807E-01
    1.9615984188E-01    1.9389900091E-01    1.9162218454E-01    1.8933048569E-01
    1.8702499965E-01    1.8470682288E-01    1.8237705189E-01    1.8003678207E-01
    1.7768710653E-01    1.7532911498E-01    1.7296389260E-01    1.7059251895E-01
    1.6821606687E-01    1.6583560142E-01    1.6345217888E-01    1.6106684568E-01
    1.5868063746E-01    1.5629457810E-01    1.5390967882E-01    1.5152693725E-01
    1.4914733663E-01    1.4677184495E-01    1.4440141418E-01    1.4203697957E-01
    1.3967945887E-01    1.3732975175E-01    1.3498873912E-01    1.3265728255E-01
    1.3033622377E-01    1.2802638412E-01    1.2572856413E-01    1.2344354307E-01
    1.2117207859E-01    1.1891490637E-01    1.1667273983E-01    1.1444626988E-01
    1.1223616465E-01    1.1004306937E-01    1.0786760619E-01    1.0571037406E-01
    1.0357194867E-01    1.0145288243E-01    9.9353704397E-02    9.7274920366E-02
    9.5217012883E-02    9.3180441343E-02    9.1165642098E-02    8.9173028596E-02
    8.7202991543E-02    8.5255899094E-02    8.3332097063E-02    8.1431909157E-02
    7.9555637231E-02    7.7703561557E-02    7.5875941121E-02    7.4073013925E-02
    7.2294997315E-02    7.0542088312E-02    6.8814463970E-02    6.7112281733E-02
    6.5435679806E-02    6.3784777542E-02    6.2159675829E-02    6.0560457487E-02
    5.8987187674E-02    5.7439914294E-02    5.5918668409E-02    5.4423464660E-02
    5.2954301681E-02    5.1511162526E-02    5.0094015086E-02    4.8702812513E-02
    4.7337493647E-02    4.5997983428E-02    4.4684193325E-02    4.3396021747E-02
    4.2133354462E-02    4.0896065005E-02    3.9684015092E-02    3.8497055021E-02
    3.7335024073E-02    3.6197750911E-02    3.5085053972E-02    3.3996741852E-02
    3.2932613693E-02    3.1892459559E-02    3.0876060806E-02    2.9883190456E-02
    2.8913613561E-02    2.7967087554E-02    2.7043362611E-02    2.6142181992E-02
    2.5263282392E-02    2.4406394276E-02    2.3571242216E-02    2.2757545219E-02
    2.1965017056E-02    2.1193366583E-02    2.0442298056E-02    1.9711511449E-02
    1.9000702760E-02    1.8309564320E-02    1.7637785093E-02    1.6985050976E-02
    1.6351045095E-02    1.5735448091E-02    1.5137938417E-02    1.4558192614E-02
    1.3995885596E-02    1.3450690927E-02    1.2922281092E-02    1.2410327772E-02
    1.1914502104E-02    1.1434474947E-02    1.0969917140E-02    1.0520499754E-02
    1.0085894343E-02    9.6657731884E-03    9.2598095413E-03    8.8676778556E-03
    8.4890540197E-03    8.1236155817E-03    7.7710419689E-03    7.4310147021E-03
    7.1032176032E-03    6.7873369979E-03    6.4830619107E-03    6.1900842540E-03
    5.9080990110E-03    5.6368044103E-03    5.3759020947E-03    5.1250972820E-03
    4.8840989184E-03    4.6526198244E-03    4.4303768332E-03    4.2170909207E-03
    4.0124873285E-03    3.8162956774E-03    3.6282500746E-03    3.4480892117E-03
    3.2755564544E-03    3.1103999251E-03    2.9523725764E-03    2.8012322573E-03
    2.6567417705E-03    2.5186689227E-03    2.3867865667E-03    2.2608726352E-03
    2.1407101683E-03    2.0260873321E-03    1.9167974312E-03    1.8126389132E-03
    1.7134153669E-03    1.6189355133E-03    1.5290131906E-03    1.4434673324E-03
    1.3621219402E-03    1.2848060498E-03    1.2113536926E-03    1.1416038509E-03
    1.0754004091E-03    1.0125920989E-03    9.5303244138E-04    8.9657968359E-04
    8.4309673204E-04    7.9245108204E-04    7.4451474382E-04    6.9916416547E-04
    6.5628015290E-04    6.1574778734E-04    5.7745634039E-04    5.4129918696E-04
    5.0717371644E-04    4.7498124222E-04    4.4462690983E-04    4.1601960402E-04
    3.8907185487E-04    3.6369974325E-04    3.3982280580E-04    3.1736393965E-04
    2.9624930698E-04    2.7640823982E-04    2.5777314499E-04    2.4027940958E-04
    2.2386530697E-04    2.0847190361E-04    1.9404296672E-04    1.8052487299E-04
    1.6786651835E-04    1.5601922910E-04    1.4493667432E-04    1.3457477973E-04
    1.2489164308E-04    1.1584745118E-04    1.0740439859E-04    9.9526608002E-05
    9.2180052488E-05    8.5332479545E-05    7.8953337023E-05    7.3013700971E-05
    6.7486205418E-05    6.2344974110E-05    5.7565554222E-05    5.3124852048E-05
    4.9001070680E-05    4.5173649663E-05    4.1623206635E-05    3.8331480924E-05
    3.5281279103E-05    3.2456422478E-05    2.9841696482E-05    2.7422801964E-05
    2.5186308328E-05    2.3119608503E-05    2.1210875709E-05    1.9449021984E-05
    1.7823658426E-05    1.6325057125E-05    1.4944114741E-05    1.3672317676E-05
    1.2501708808E-05    1.1424855750E-05    1.0434820566E-05    9.5251309277E-06
    8.6897526453E-06    7.9230635422E-06    7.2198286185E-06    6.5751764634E-06
    5.9845768711E-06    5.4438196143E-06    4.9489943332E-06    4.4964714948E-06
    4.0828843811E-06    3.7051120629E-06    3.3602633186E-06    3.0456614572E-06
    2.7588300052E-06    2.4974792204E-06    2.2594933922E-06    2.0429188938E-06
    1.8459529499E-06    1.6669330849E-06    1.5043272179E-06    1.3567243726E-06
    1.2228259704E-06    1.1014376760E-06    9.9146176633E-07    8.9188999583E-07
    8.0179692907E-07    7.2033371637E-07    6.4672228677E-07    5.8024993464E-07
    5.2026427728E-07    4.6616856140E-07    4.1741729808E-07    3.7351220594E-07
    3.3399844406E-07    2.9846111637E-07    2.6652203055E-07    2.3783669531E-07
    2.1209154059E-07    1.8900134611E-07    1.6830686459E-07    1.4977262660E-07
    1.3318491469E-07    1.1834989523E-07    1.0509189713E-07    9.3251826958E-08
    8.2685711024E-08    7.3263355106E-08    6.4867113469E-08    5.7390759069E-08
    5.0738447493E-08    4.4823767618E-08    3.9568872412E-08    3.4903683774E-08
    3.0765165681E-08    2.7096660329E-08    2.3847282278E-08    2.0971366019E-08
    1.8427962633E-08    1.6180381583E-08    1.4195773916E-08    1.2444753473E-08
    1.0901052899E-08    9.5412115381E-09    8.3442924920E-09    7.2916263275E-09
    6.3665791253E-09    5.5543427352E-09    4.8417452742E-09    4.2170800606E-09
    3.6699513235E-09    3.1911351642E-09    2.7724543696E-09    2.4066657970E-09
    2.0873591561E-09    1.8088661161E-09    1.5661787555E-09    1.3548764612E-09
    1.1710604583E-09    1.0112952285E-09    8.7255613805E-10    7.5218266133E-10
    6.4783663837E-10    5.5746506039E-10    4.7926692186E-10    4.1166372227E-10
    3.5327324033E-10    3.0288623913E-10    2.5944579447E-10    2.2202896801E-10
    1.8983057492E-10    1.6214882028E-10    1.3837260128E-10    1.1797029297E-10
    1.0047985372E-10    8.5500103660E-11    7.2683044570E-11    6.1727103530E-11
    5.2371195101E-11    4.4389508074E-11    3.7586932968E-11    3.1795055538E-11
    2.6868649814E-11    2.2682611487E-11    1.9129279112E-11    1.6116096487E-11
    1.3563574867E-11    1.1403518394E-11    9.5774803852E-12    8.0354218244E-12
    6.7345468386E-12    5.6382928625E-12    4.7154558898E-12    3.9394335544E-12
    3.2875708765E-12    2.7405953658E-12    2.2821298098E-12    1.8982725270E-12
    1.5772361422E-12    1.3090370716E-12    1.0852288971E-12    8.9867368324E-13
    7.4334606056E-13    6.1416557081E-13    5.0685336122E-13    4.1780983293E-13
    3.4401030033E-13    2.8291611369E-13    2.3239904215E-13    1.9067701420E-13
    1.5625957470E-13    1.2790164423E-13    1.0456436404E-13    8.5381980750E-14
    6.9633873235E-14    5.6720951839E-14    4.6145771041E-14    3.7495791913E-14
    3.0429312762E-14    2.4663658883E-14    1.9965274851E-14    1.6141439904E-14
    1.3033325092E-14    1.0510196996E-14    8.4645877966E-15    6.8082694742E-15
    5.4689032569E-15    4.3872554387E-15    3.5148868758E-15    2.8122381044E-15
    2.2470444495E-15    1.7930260111E-15    1.4288063094E-15    1.1370208863E-15
    9.0358349302E-16    7.1708283252E-16    5.6828731124E-16    4.4973902566E-16
    3.5542136813E-16    2.8048728445E-16    2.2103743256E-16    0.0000000000E+00
    0.0000000000E+00    0.0000000000E+00    0.0000000000E+00
 </PP_RHOATOM>
 <PP_GIPAW gipaw_data_format="2">
   <PP_GIPAW_CORE_ORBITALS number_of_core_orbitals="0">
   </PP_GIPAW_CORE_ORBITALS>
   <PP_GIPAW_ORBITALS number_of_valence_orbitals="2">
     <PP_GIPAW_ORBITAL.1 index="1" label="1S" l="0" cutoff_radius="  1.62803041748366" ultrasoft_cutoff_radius="  1.62803041748366">
       <PP_GIPAW_WFS_AE size="2291">
   4.6629413967896259E-04   4.6909123199820297E-04   4.7190510283721580E-04
   4.7473585284292074E-04   4.7758357918188844E-04   4.8044837723981059E-04
   4.8333035553573304E-04   4.8622961316578884E-04   4.8914625421499138E-04
   4.9208038490164787E-04   4.9503210737055284E-04   4.9800152899689108E-04
   5.0098875540435025E-04   5.0399389266287396E-04   5.0701704927166489E-04
   5.1005833236554944E-04   5.1311785093528719E-04   5.1619571451912442E-04
   5.1929203263380308E-04   5.2240691630182608E-04   5.2554047667728099E-04
   5.2869282566023396E-04   5.3186407603710614E-04   5.3505434098561743E-04
   5.3826373457561559E-04   5.4149237145749820E-04   5.4474036695637430E-04
   5.4800783719516789E-04   5.5129489885070505E-04   5.5460166939011262E-04
   5.5792826699156554E-04   5.6127481046029117E-04   5.6464141939468896E-04
   5.6802821408186209E-04   5.7143531550250294E-04   5.7486284540521099E-04
   5.7831092624333036E-04   5.8177968120084783E-04   5.8526923421557285E-04
   5.8877970995484924E-04   5.9231123383539060E-04   5.9586393202902652E-04
   5.9943793145848313E-04   6.0303335980867374E-04   6.0665034552961265E-04
   6.1028901783929132E-04   6.1394950673038739E-04   6.1763194297389623E-04
   6.2133645812371854E-04   6.2506318452179859E-04   6.2881225530249862E-04
   6.3258380439743043E-04   6.3637796654027504E-04   6.4019487727150291E-04
   6.4403467294323828E-04   6.4789749072410711E-04   6.5178346860410860E-04
   6.5569274539953554E-04   6.5962546075791018E-04   6.6358175516295431E-04
   6.6756176993958897E-04   6.7156564725896273E-04   6.7559353014351041E-04
   6.7964556247204224E-04   6.8372188898486357E-04   6.8782265528892354E-04
   6.9194800786299591E-04   6.9609809406289064E-04   7.0027306212669599E-04
   7.0447306118005175E-04   7.0869824124145412E-04   7.1294875322759177E-04
   7.1722474895871550E-04   7.2152638116403675E-04   7.2585380348716064E-04
   7.3020717049155108E-04   7.3458663766602704E-04   7.3899236143029265E-04
   7.4342449914050097E-04   7.4788320909484883E-04   7.5236865053920595E-04
   7.5688098367277890E-04   7.6142036965380655E-04   7.6598697060529033E-04
   7.7058094962075940E-04   7.7520247077006888E-04   7.7985169910523250E-04
   7.8452880066629210E-04   7.8923394248721888E-04   7.9396729260185217E-04
   7.9872902004987276E-04   8.0351929488281125E-04   8.0833828817009328E-04
   8.1318617200511916E-04   8.1806311951138121E-04   8.2296930484861705E-04
   8.2790490321899815E-04   8.3287009087335722E-04   8.3786504511745190E-04
   8.4288994431826430E-04   8.4794496791034020E-04   8.5303029640216503E-04
   8.5814611138257662E-04   8.6329259552721791E-04   8.6846993260502714E-04
   8.7367830748476683E-04   8.7891790614159102E-04   8.8418891566365151E-04
   8.8949152425874553E-04   8.9482592126099926E-04   9.0019229713759368E-04
   9.0559084349553075E-04   9.1102175308843735E-04   9.1648521982341140E-04
   9.2198143876790861E-04   9.2751060615666933E-04   9.3307291939868833E-04
   9.3866857708422300E-04   9.4429777899184583E-04   9.4996072609553799E-04
   9.5565762057182445E-04   9.6138866580695176E-04   9.6715406640410923E-04
   9.7295402819069202E-04   9.7878875822560792E-04   9.8465846480662658E-04
   9.9056335747777402E-04   9.9650364703677001E-04   1.0024795455425084E-03
   1.0084912663225855E-03   1.0145390239808686E-03   1.0206230344051127E-03
   1.0267435147746210E-03   1.0329006835679520E-03   1.0390947605706702E-03
   1.0453259668831447E-03   1.0515945249283945E-03   1.0579006584599778E-03
   1.0642445925699304E-03   1.0706265536967511E-03   1.0770467696334318E-03
   1.0835054695355398E-03   1.0900028839293432E-03   1.0965392447199887E-03
   1.1031147851997243E-03   1.1097297400561737E-03   1.1163843453806574E-03
   1.1230788386765653E-03   1.1298134588677766E-03   1.1365884463071325E-03
   1.1434040427849557E-03   1.1502604915376233E-03   1.1571580372561889E-03
   1.1640969260950571E-03   1.1710774056807073E-03   1.1780997251204716E-03
   1.1851641350113633E-03   1.1922708874489570E-03   1.1994202360363245E-03
   1.2066124358930186E-03   1.2138477436641156E-03   1.2211264175293068E-03
   1.2284487172120465E-03   1.2358149039887550E-03   1.2432252406980703E-03
   1.2506799917501629E-03   1.2581794231361005E-03   1.2657238024372680E-03
   1.2733133988348457E-03   1.2809484831193432E-03   1.2886293277001863E-03
   1.2963562066153659E-03   1.3041293955411409E-03   1.3119491718017972E-03
   1.3198158143794692E-03   1.3277296039240140E-03   1.3356908227629472E-03
   1.3436997549114377E-03   1.3517566860823586E-03   1.3598619036964020E-03
   1.3680156968922494E-03   1.3762183565368051E-03   1.3844701752354883E-03
   1.3927714473425871E-03   1.4011224689716734E-03   1.4095235380060800E-03
   1.4179749541094373E-03   1.4264770187362760E-03   1.4350300351426890E-03
   1.4436343083970580E-03   1.4522901453908443E-03   1.4609978548494401E-03
   1.4697577473430875E-03   1.4785701352978606E-03   1.4874353330067121E-03
   1.4963536566405850E-03   1.5053254242595908E-03   1.5143509558242535E-03
   1.5234305732068189E-03   1.5325646002026319E-03   1.5417533625415808E-03
   1.5509971878996092E-03   1.5602964059102942E-03   1.5696513481764946E-03
   1.5790623482820696E-03   1.5885297418036610E-03   1.5980538663225516E-03
   1.6076350614365874E-03   1.6172736687721763E-03   1.6269700319963519E-03
   1.6367244968289109E-03   1.6465374110546244E-03   1.6564091245355155E-03
   1.6663399892232152E-03   1.6763303591713875E-03   1.6863805905482283E-03
   1.6964910416490395E-03   1.7066620729088758E-03   1.7168940469152643E-03
   1.7271873284210051E-03   1.7375422843570389E-03   1.7479592838453976E-03
   1.7584386982122276E-03   1.7689809010008894E-03   1.7795862679851366E-03
   1.7902551771823714E-03   1.8009880088669758E-03   1.8117851455837278E-03
   1.8226469721612871E-03   1.8335738757257686E-03   1.8445662457143919E-03
   1.8556244738892110E-03   1.8667489543509259E-03   1.8779400835527735E-03
   1.8891982603145038E-03   1.9005238858364358E-03   1.9119173637135935E-03
   1.9233790999499314E-03   1.9349095029726384E-03   1.9465089836465269E-03
   1.9581779552885082E-03   1.9699168336821502E-03   1.9817260370923236E-03
   1.9936059862799326E-03   2.0055571045167302E-03   2.0175798176002256E-03
   2.0296745538686731E-03   2.0418417442161535E-03   2.0540818221077418E-03
   2.0663952235947659E-03   2.0787823873301510E-03   2.0912437545838594E-03
   2.1037797692584161E-03   2.1163908779045278E-03   2.1290775297367940E-03
   2.1418401766495078E-03   2.1546792732325534E-03   2.1675952767873908E-03
   2.1805886473431411E-03   2.1936598476727616E-03   2.2068093433093156E-03
   2.2200376025623405E-03   2.2333450965343086E-03   2.2467322991371881E-03
   2.2601996871090954E-03   2.2737477400310508E-03   2.2873769403438282E-03
   2.3010877733649080E-03   2.3148807273055232E-03   2.3287562932878089E-03
   2.3427149653620525E-03   2.3567572405240435E-03   2.3708836187325256E-03
   2.3850946029267506E-03   2.3993906990441333E-03   2.4137724160380137E-03
   2.4282402658955195E-03   2.4427947636555328E-03   2.4574364274267653E-03
   2.4721657784059358E-03   2.4869833408960539E-03   2.5018896423248142E-03
   2.5168852132630929E-03   2.5319705874435570E-03   2.5471463017793785E-03
   2.5624128963830594E-03   2.5777709145853676E-03   2.5932209029543812E-03
   2.6087634113146469E-03   2.6243989927664454E-03   2.6401282037051741E-03
   2.6559516038408395E-03   2.6718697562176665E-03   2.6878832272338180E-03
   2.7039925866612319E-03   2.7201984076655741E-03   2.7365012668263073E-03
   2.7529017441568736E-03   2.7694004231250012E-03   2.7859978906731226E-03
   2.8026947372389163E-03   2.8194915567759668E-03   2.8363889467745416E-03
   2.8533875082824957E-03   2.8704878459262922E-03   2.8876905679321467E-03
   2.9049962861472951E-03   2.9224056160613854E-03   2.9399191768279946E-03
   2.9575375912862666E-03   2.9752614859826802E-03   2.9930914911929429E-03
   3.0110282409440098E-03   3.0290723730362324E-03   3.0472245290656340E-03
   3.0654853544463175E-03   3.0838554984330014E-03   3.1023356141436833E-03
   3.1209263585824428E-03   3.1396283926623694E-03   3.1584423812286277E-03
   3.1773689930816502E-03   3.1964089010004756E-03   3.2155627817662129E-03
   3.2348313161856415E-03   3.2542151891149563E-03   3.2737150894836401E-03
   3.2933317103184825E-03   3.3130657487677323E-03   3.3329179061253921E-03
   3.3528888878556545E-03   3.3729794036174779E-03   3.3931901672893026E-03
   3.4135218969939172E-03   3.4339753151234578E-03   3.4545511483645630E-03
   3.4752501277236637E-03   3.4960729885524303E-03   3.5170204705733551E-03
   3.5380933179054901E-03   3.5592922790903341E-03   3.5806181071178630E-03
   3.6020715594527160E-03   3.6236533980605291E-03   3.6453643894344243E-03
   3.6672053046216467E-03   3.6891769192503609E-03   3.7112800135565963E-03
   3.7335153724113515E-03   3.7558837853478525E-03   3.7783860465889709E-03
   3.8010229550747951E-03   3.8237953144903661E-03   3.8467039332935674E-03
   3.8697496247431778E-03   3.8929332069270886E-03   3.9162555027906767E-03
   3.9397173401653470E-03   3.9633195517972328E-03   3.9870629753760651E-03
   4.0109484535642117E-03   4.0349768340258701E-03   4.0591489694564425E-03
   4.0834657176120710E-03   4.1079279413393432E-03   4.1325365086051710E-03
   4.1572922925268386E-03   4.1821961714022231E-03   4.2072490287401870E-03
   4.2324517532911499E-03   4.2578052390778252E-03   4.2833103854261478E-03
   4.3089680969963639E-03   4.3347792838143041E-03   4.3607448613028447E-03
   4.3868657503135303E-03   4.4131428771583946E-03   4.4395771736419551E-03
   4.4661695770933868E-03   4.4929210303988913E-03   4.5198324820342377E-03
   4.5469048860975001E-03   4.5741392023419744E-03   4.6015363962092866E-03
   4.6290974388626905E-03   4.6568233072205503E-03   4.6847149839900210E-03
   4.7127734577009153E-03   4.7409997227397683E-03   4.7693947793840882E-03
   4.7979596338368112E-03   4.8266952982609452E-03   4.8556027908144171E-03
   4.8846831356851124E-03   4.9139373631261153E-03   4.9433665094911526E-03
   4.9729716172702363E-03   5.0027537351255043E-03   5.0327139179272761E-03
   5.0628532267902992E-03   5.0931727291102114E-03   5.1236734986002076E-03
   5.1543566153279072E-03   5.1852231657524440E-03   5.2162742427617525E-03
   5.2475109457100749E-03   5.2789343804556738E-03   5.3105456593987637E-03
   5.3423459015196550E-03   5.3743362324171094E-03   5.4065177843469212E-03
   5.4388916962607075E-03   5.4714591138449210E-03   5.5042211895600856E-03
   5.5371790826802521E-03   5.5703339593326700E-03   5.6036869925376936E-03
   5.6372393622489041E-03   5.6709922553934639E-03   5.7049468659126938E-03
   5.7391043948028840E-03   5.7734660501563258E-03   5.8080330472025819E-03
   5.8428066083499892E-03   5.8777879632273856E-03   5.9129783487260846E-03
   5.9483790090420719E-03   5.9839911957184503E-03   6.0198161676881133E-03
   6.0558551913166680E-03   6.0921095404455885E-03   6.1285804964356164E-03
   6.1652693482104068E-03   6.2021773923004115E-03   6.2393059328870121E-03
   6.2766562818469020E-03   6.3142297587967114E-03   6.3520276911378853E-03
   6.3900514141018118E-03   6.4283022707952000E-03   6.4667816122457112E-03
   6.5054907974478509E-03   6.5444311934091072E-03   6.5836041751963521E-03
   6.6230111259824994E-03   6.6626534370934250E-03   6.7025325080551437E-03
   6.7426497466412513E-03   6.7830065689206288E-03   6.8236043993054139E-03
   6.8644446705992358E-03   6.9055288240457233E-03   6.9468583093772723E-03
   6.9884345848640938E-03   7.0302591173635265E-03   7.0723333823696248E-03
   7.1146588640630254E-03   7.1572370553610841E-03   7.2000694579682899E-03
   7.2431575824269592E-03   7.2865029481682135E-03   7.3301070835632342E-03
   7.3739715259748010E-03   7.4180978218091140E-03   7.4624875265679007E-03
   7.5071422049008156E-03   7.5520634306581224E-03   7.5972527869436653E-03
   7.6427118661681372E-03   7.6884422701026349E-03   7.7344456099325120E-03
   7.7807235063115255E-03   7.8272775894162837E-03   7.8741094990009818E-03
   7.9212208844524554E-03   7.9686134048455107E-03   8.0162887289985819E-03
   8.0642485355296827E-03   8.1124945129126581E-03   8.1610283595337490E-03
   8.2098517837484696E-03   8.2589665039387895E-03   8.3083742485706262E-03
   8.3580767562516558E-03   8.4080757757894371E-03   8.4583730662498458E-03
   8.5089703970158363E-03   8.5598695478465211E-03   8.6110723089365560E-03
   8.6625804809758750E-03   8.7143958752097204E-03   8.7665203134990217E-03
   8.8189556283810831E-03   8.8717036631306128E-03   8.9247662718210750E-03
   8.9781453193863749E-03   9.0318426816828785E-03   9.0858602455517676E-03
   9.1401999088817285E-03   9.1948635806719786E-03   9.2498531810956304E-03
   9.3051706415634029E-03   9.3608179047876758E-03   9.4167969248468743E-03
   9.4731096672502190E-03   9.5297581090028009E-03   9.5867442386710373E-03
   9.6440700564484373E-03   9.7017375742217537E-03   9.7597488156374711E-03
   9.8181058161686575E-03   9.8768106231821601E-03   9.9358652960061817E-03
   9.9952719059981914E-03   1.0055032536613221E-02   1.0115149283472505E-02
   1.0175624254432497E-02   1.0236459569654252E-02   1.0297657361673178E-02
   1.0359219775469143E-02   1.0421148968536978E-02   1.0483447110957332E-02
   1.0546116385467916E-02   1.0609158987535113E-02   1.0672577125425976E-02
   1.0736373020280599E-02   1.0800548906184869E-02   1.0865107030243605E-02
   1.0930049652654086E-02   1.0995379046779951E-02   1.1061097499225500E-02
   1.1127207309910389E-02   1.1193710792144693E-02   1.1260610272704389E-02
   1.1327908091907223E-02   1.1395606603688968E-02   1.1463708175680090E-02
   1.1532215189282808E-02   1.1601130039748555E-02   1.1670455136255850E-02
   1.1740192901988565E-02   1.1810345774214605E-02   1.1880916204364995E-02
   1.1951906658113380E-02   1.2023319615455923E-02   1.2095157570791645E-02
   1.2167423033003145E-02   1.2240118525537767E-02   1.2313246586489163E-02
   1.2386809768679298E-02   1.2460810639740850E-02   1.2535251782200068E-02
   1.2610135793560021E-02   1.2685465286384296E-02   1.2761242888381119E-02
   1.2837471242487906E-02   1.2914153006956246E-02   1.2991290855437316E-02
   1.3068887477067741E-02   1.3146945576555880E-02   1.3225467874268548E-02
   1.3304457106318203E-02   1.3383916024650546E-02   1.3463847397132583E-02
   1.3544254007641131E-02   1.3625138656151756E-02   1.3706504158828193E-02
   1.3788353348112179E-02   1.3870689072813767E-02   1.3953514198202080E-02
   1.4036831606096527E-02   1.4120644194958471E-02   1.4204954879983371E-02
   1.4289766593193361E-02   1.4375082283530315E-02   1.4460904916949364E-02
   1.4547237476512879E-02   1.4634082962484937E-02   1.4721444392426231E-02
   1.4809324801289468E-02   1.4897727241515247E-02   1.4986654783128391E-02
   1.5076110513834767E-02   1.5166097539118586E-02   1.5256618982340183E-02
   1.5347677984834263E-02   1.5439277706008654E-02   1.5531421323443517E-02
   1.5624112032991072E-02   1.5717353048875792E-02   1.5811147603795088E-02
   1.5905498949020484E-02   1.6000410354499301E-02   1.6095885108956813E-02
   1.6191926519998914E-02   1.6288537914215275E-02   1.6385722637282999E-02
   1.6483484054070782E-02   1.6581825548743580E-02   1.6680750524867768E-02
   1.6780262405516801E-02   1.6880364633377415E-02   1.6981060670856283E-02
   1.7082354000187233E-02   1.7184248123538942E-02   1.7286746563123161E-02
   1.7389852861303446E-02   1.7493570580704415E-02   1.7597903304321500E-02
   1.7702854635631250E-02   1.7808428198702129E-02   1.7914627638305848E-02
   1.8021456620029217E-02   1.8128918830386517E-02   1.8237017976932415E-02
   1.8345757788375376E-02   1.8455142014691645E-02   1.8565174427239723E-02
   1.8675858818875388E-02   1.8787199004067258E-02   1.8899198819012884E-02
   1.9011862121755360E-02   1.9125192792300499E-02   1.9239194732734537E-02
   1.9353871867342370E-02   1.9469228142726318E-02   1.9585267527925495E-02
   1.9701994014535627E-02   1.9819411616829510E-02   1.9937524371877933E-02
   2.0056336339671212E-02   2.0175851603241236E-02   2.0296074268784069E-02
   2.0417008465783110E-02   2.0538658347132806E-02   2.0661028089262904E-02
   2.0784121892263273E-02   2.0907943980009280E-02   2.1032498600287712E-02
   2.1157790024923254E-02   2.1283822549905553E-02   2.1410600495516800E-02
   2.1538128206459912E-02   2.1666410051987241E-02   2.1795450426029879E-02
   2.1925253747327487E-02   2.2055824459558736E-02   2.2187167031472263E-02
   2.2319285957018244E-02   2.2452185755480483E-02   2.2585870971609107E-02
   2.2720346175753803E-02   2.2855615963997659E-02   2.2991684958291524E-02
   2.3128557806588991E-02   2.3266239182981908E-02   2.3404733787836501E-02
   2.3544046347930024E-02   2.3684181616588029E-02   2.3825144373822174E-02
   2.3966939426468624E-02   2.4109571608327014E-02   2.4253045780300006E-02
   2.4397366830533410E-02   2.4542539674556860E-02   2.4688569255425116E-02
   2.4835460543859884E-02   2.4983218538392280E-02   2.5131848265505807E-02
   2.5281354779779934E-02   2.5431743164034282E-02   2.5583018529473339E-02
   2.5735186015831777E-02   2.5888250791520365E-02   2.6042218053772419E-02
   2.6197093028790863E-02   2.6352880971895854E-02   2.6509587167672998E-02
   2.6667216930122126E-02   2.6825775602806648E-02   2.6985268559003520E-02
   2.7145701201853736E-02   2.7307078964513433E-02   2.7469407310305574E-02
   2.7632691732872174E-02   2.7796937756327141E-02   2.7962150935409675E-02
   2.8128336855638241E-02   2.8295501133465115E-02   2.8463649416431518E-02
   2.8632787383323310E-02   2.8802920744327252E-02   2.8974055241187867E-02
   2.9146196647364835E-02   2.9319350768190987E-02   2.9493523441030855E-02
   2.9668720535439799E-02   2.9844947953323698E-02   3.0022211629099189E-02
   3.0200517529854504E-02   3.0379871655510857E-02   3.0560280038984380E-02
   3.0741748746348645E-02   3.0924283876997721E-02   3.1107891563809813E-02
   3.1292577973311447E-02   3.1478349305842195E-02   3.1665211795720002E-02
   3.1853171711407016E-02   3.2042235355675963E-02   3.2232409065777151E-02
   3.2423699213605918E-02   3.2616112205870670E-02   3.2809654484261513E-02
   3.3004332525619316E-02   3.3200152842105417E-02   3.3397121981371798E-02
   3.3595246526731834E-02   3.3794533097331533E-02   3.3994988348321369E-02
   3.4196618971028575E-02   3.4399431693129985E-02   3.4603433278825424E-02
   3.4808630529011571E-02   3.5015030281456375E-02   3.5222639410973970E-02
   3.5431464829600086E-02   3.5641513486768001E-02   3.5852792369484930E-02
   3.6065308502509032E-02   3.6279068948526776E-02   3.6494080808330900E-02
   3.6710351220998826E-02   3.6927887364071522E-02   3.7146696453732954E-02
   3.7366785744989889E-02   3.7588162531852251E-02   3.7810834147513933E-02
   3.8034807964534068E-02   3.8260091395018750E-02   3.8486691890803254E-02
   3.8714616943634650E-02   3.8943874085354921E-02   3.9174470888084505E-02
   3.9406414964406243E-02   3.9639713967549832E-02   3.9874375591576638E-02
   4.0110407571564956E-02   4.0347817683795736E-02   4.0586613745938617E-02
   4.0826803617238498E-02   4.1068395198702423E-02   4.1311396433286851E-02
   4.1555815306085396E-02   4.1801659844516906E-02   4.2048938118513908E-02
   4.2297658240711425E-02   4.2547828366636217E-02   4.2799456694896307E-02
   4.3052551467370900E-02   4.3307120969400648E-02   4.3563173529978239E-02
   4.3820717521939334E-02   4.4079761362153809E-02   4.4340313511717355E-02
   4.4602382476143336E-02   4.4865976805554965E-02   4.5131105094877833E-02
   4.5397775984032634E-02   4.5665998158128211E-02   4.5935780347654921E-02
   4.6207131328678167E-02   4.6480059923032245E-02   4.6754574998514445E-02
   4.7030685469079347E-02   4.7308400295033366E-02   4.7587728483229522E-02
   4.7868679087262417E-02   4.8151261207663373E-02   4.8435483992095844E-02
   4.8721356635550897E-02   4.9008888380542973E-02   4.9298088517305723E-02
   4.9588966383988041E-02   4.9881531366850217E-02   5.0175792900460210E-02
   5.0471760467890051E-02   5.0769443600912387E-02   5.1068851880197004E-02
   5.1369994935507604E-02   5.1672882445898460E-02   5.1977524139911316E-02
   5.2283929795772170E-02   5.2592109241588227E-02   5.2902072355544789E-02
   5.3213829066102156E-02   5.3527389352192596E-02   5.3842763243417205E-02
   5.4159960820242783E-02   5.4478992214198683E-02   5.4799867608073566E-02
   5.5122597236112070E-02   5.5447191384211468E-02   5.5773660390118156E-02
   5.6102014643624028E-02   5.6432264586762752E-02   5.6764420714005885E-02
   5.7098493572458803E-02   5.7434493762056497E-02   5.7772431935759164E-02
   5.8112318799747535E-02   5.8454165113618041E-02   5.8797981690577726E-02
   5.9143779397638853E-02   5.9491569155813294E-02   5.9841361940306585E-02
   6.0193168780711646E-02   6.0547000761202265E-02   6.0902869020726093E-02
   6.1260784753197413E-02   6.1620759207689398E-02   6.1982803688626048E-02
   6.2346929555973665E-02   6.2713148225431864E-02   6.3081471168624184E-02
   6.3451909913288099E-02   6.3824476043464681E-02   6.4199181199687524E-02
   6.4576037079171339E-02   6.4955055435999845E-02   6.5336248081313053E-02
   6.5719626883494045E-02   6.6105203768354936E-02   6.6492990719322437E-02
   6.6882999777622396E-02   6.7275243042463975E-02   6.7669732671222838E-02
   6.8066480879623678E-02   6.8465499941921984E-02   6.8866802191084944E-02
   6.9270400018971598E-02   6.9676305876512024E-02   7.0084532273885697E-02
   7.0495091780698960E-02   7.0907997026161546E-02   7.1323260699262078E-02
   7.1740895548942626E-02   7.2160914384272259E-02   7.2583330074619493E-02
   7.3008155549823747E-02   7.3435403800365548E-02   7.3865087877535762E-02
   7.4297220893603536E-02   7.4731816021983144E-02   7.5168886497399501E-02
   7.5608445616052455E-02   7.6050506735779844E-02   7.6495083276219164E-02
   7.6942188718967908E-02   7.7391836607742515E-02   7.7844040548535831E-02
   7.8298814209773263E-02   7.8756171322467303E-02   7.9216125680370619E-02
   7.9678691140127475E-02   8.0143881621423663E-02   8.0611711107134776E-02
   8.1082193643472800E-02   8.1555343340130912E-02   8.2031174370426785E-02
   8.2509700971443778E-02   8.2990937444170576E-02   8.3474898153638871E-02
   8.3961597529059073E-02   8.4451050063954189E-02   8.4943270316291702E-02
   8.5438272908613375E-02   8.5936072528163029E-02   8.6436683927012259E-02
   8.6940121922183894E-02   8.7446401395773379E-02   8.7955537295067832E-02
   8.8467544632662903E-02   8.8982438486577206E-02   8.9500234000364498E-02
   9.0020946383223402E-02   9.0544590910104555E-02   9.1071182921815444E-02
   9.1600737825122541E-02   9.2133271092850882E-02   9.2668798263980987E-02
   9.3207334943743003E-02   9.3748896803708293E-02   9.4293499581877993E-02
   9.4841159082768814E-02   9.5391891177495955E-02   9.5945711803853029E-02
   9.6502636966388902E-02   9.7062682736481637E-02   9.7625865252409127E-02
   9.8192200719416659E-02   9.8761705409781200E-02   9.9334395662872457E-02
   9.9910287885210461E-02   1.0048939855051987E-01   1.0107174419978071E-01
   1.0165734144127571E-01   1.0224620695063391E-01   1.0283835747087069E-01
   1.0343380981242416E-01   1.0403258085318763E-01   1.0463468753853840E-01
   1.0524014688136252E-01   1.0584897596207572E-01   1.0646119192864019E-01
   1.0707681199657737E-01   1.0769585344897649E-01   1.0831833363649898E-01
   1.0894426997737854E-01   1.0957367995741676E-01   1.1020658112997454E-01
   1.1084299111595873E-01   1.1148292760380438E-01   1.1212640834945228E-01
   1.1277345117632184E-01   1.1342407397527902E-01   1.1407829470459963E-01
   1.1473613138992744E-01   1.1539760212422746E-01   1.1606272506773405E-01
   1.1673151844789383E-01   1.1740400055930333E-01   1.1808018976364147E-01
   1.1876010448959637E-01   1.1944376323278683E-01   1.2013118455567824E-01
   1.2082238708749277E-01   1.2151738952411377E-01   1.2221621062798453E-01
   1.2291886922800090E-01   1.2362538421939802E-01   1.2433577456363104E-01
   1.2505005928824944E-01   1.2576825748676534E-01   1.2649038831851528E-01
   1.2721647100851549E-01   1.2794652484731098E-01   1.2868056919081750E-01
   1.2941862346015712E-01   1.3016070714148686E-01   1.3090683978582052E-01
   1.3165704100884318E-01   1.3241133049071896E-01   1.3316972797589133E-01
   1.3393225327287622E-01   1.3469892625404753E-01   1.3546976685541551E-01
   1.3624479507639695E-01   1.3702403097957824E-01   1.3780749469047007E-01
   1.3859520639725459E-01   1.3938718635052424E-01   1.4018345486301273E-01
   1.4098403230931736E-01   1.4178893912561324E-01   1.4259819580935909E-01
   1.4341182291899407E-01   1.4422984107362632E-01   1.4505227095271239E-01
   1.4587913329572783E-01   1.4671044890182863E-01   1.4754623862950372E-01
   1.4838652339621780E-01   1.4923132417804491E-01   1.5008066200929276E-01
   1.5093455798211686E-01   1.5179303324612509E-01   1.5265610900797252E-01
   1.5352380653094599E-01   1.5439614713453856E-01   1.5527315219401350E-01
   1.5615484313995831E-01   1.5704124145782769E-01   1.5793236868747593E-01
   1.5882824642267876E-01   1.5972889631064383E-01   1.6063434005151034E-01
   1.6154459939783741E-01   1.6245969615408093E-01   1.6337965217605918E-01
   1.6430448937040637E-01   1.6523422969401486E-01   1.6616889515346503E-01
   1.6710850780444331E-01   1.6805308975114788E-01   1.6900266314568202E-01
   1.6995725018743485E-01   1.7091687312244966E-01   1.7188155424277898E-01
   1.7285131588582703E-01   1.7382618043367887E-01   1.7480617031241638E-01
   1.7579130799142056E-01   1.7678161598266054E-01   1.7777711683996850E-01
   1.7877783315830098E-01   1.7978378757298594E-01   1.8079500275895555E-01
   1.8181150142996461E-01   1.8283330633779452E-01   1.8386044027144216E-01
   1.8489292605629448E-01   1.8593078655328721E-01   1.8697404465804901E-01
   1.8802272330002995E-01   1.8907684544161418E-01   1.9013643407721731E-01
   1.9120151223236731E-01   1.9227210296276984E-01   1.9334822935335674E-01
   1.9442991451731856E-01   1.9551718159511997E-01   1.9661005375349880E-01
   1.9770855418444758E-01   1.9881270610417820E-01   1.9992253275206920E-01
   2.0103805738959518E-01   2.0215930329923881E-01   2.0328629378338464E-01
   2.0441905216319481E-01   2.0555760177746651E-01   2.0670196598147086E-01
   2.0785216814577301E-01   2.0900823165503338E-01   2.1017017990678979E-01
   2.1133803631022016E-01   2.1251182428488602E-01   2.1369156725945579E-01
   2.1487728867040853E-01   2.1606901196071751E-01   2.1726676057851332E-01
   2.1847055797572662E-01   2.1968042760670986E-01   2.2089639292683852E-01
   2.2211847739109070E-01   2.2334670445260565E-01   2.2458109756122063E-01
   2.2582168016198603E-01   2.2706847569365832E-01   2.2832150758717096E-01
   2.2958079926408284E-01   2.3084637413500403E-01   2.3211825559799856E-01
   2.3339646703696432E-01   2.3468103181998948E-01   2.3597197329768543E-01
   2.3726931480149602E-01   2.3857307964198265E-01   2.3988329110708548E-01
   2.4119997246035968E-01   2.4252314693918764E-01   2.4385283775296582E-01
   2.4518906808126675E-01   2.4653186107197553E-01   2.4788123983940091E-01
   2.4923722746236038E-01   2.5059984698223942E-01   2.5196912140102429E-01
   2.5334507367930859E-01   2.5472772673427269E-01   2.5611710343763655E-01
   2.5751322661358517E-01   2.5891611903666650E-01   2.6032580342966205E-01
   2.6174230246142899E-01   2.6316563874471466E-01   2.6459583483394233E-01
   2.6603291322296846E-01   2.6747689634281108E-01   2.6892780655934884E-01
   2.7038566617099130E-01   2.7185049740631878E-01   2.7332232242169296E-01
   2.7480116329883741E-01   2.7628704204238730E-01   2.7777998057740899E-01
   2.7928000074688880E-01   2.8078712430919039E-01   2.8230137293548108E-01
   2.8382276820712676E-01   2.8535133161305459E-01   2.8688708454708400E-01
   2.8843004830522545E-01   2.8998024408294637E-01   2.9153769297240462E-01
   2.9310241595964875E-01   2.9467443392178511E-01   2.9625376762411154E-01
   2.9784043771721702E-01   2.9943446473404778E-01   3.0103586908693880E-01
   3.0264467106461090E-01   3.0426089082913355E-01   3.0588454841285190E-01
   3.0751566371527955E-01   3.0915425649995537E-01   3.1080034639126436E-01
   3.1245395287122357E-01   3.1411509527623083E-01   3.1578379279377777E-01
   3.1746006445912589E-01   3.1914392915194606E-01   3.2083540559292051E-01
   3.2253451234030817E-01   3.2424126778647161E-01   3.2595569015436698E-01
   3.2767779749399556E-01   3.2940760767881688E-01   3.3114513840212406E-01
   3.3289040717337975E-01   3.3464343131451352E-01   3.3640422795618008E-01
   3.3817281403397825E-01   3.3994920628463016E-01   3.4173342124212064E-01
   3.4352547523379712E-01   3.4532538437642879E-01   3.4713316457222548E-01
   3.4894883150481615E-01   3.5077240063518633E-01   3.5260388719757463E-01
   3.5444330619532805E-01   3.5629067239671597E-01   3.5814600033070243E-01
   3.6000930428267641E-01   3.6188059829014080E-01   3.6375989613835835E-01
   3.6564721135595590E-01   3.6754255721048618E-01   3.6944594670394604E-01
   3.7135739256825306E-01   3.7327690726067825E-01   3.7520450295923585E-01
   3.7714019155802975E-01   3.7908398466255655E-01   3.8103589358496481E-01
   3.8299592933927068E-01   3.8496410263652925E-01   3.8694042387996241E-01
   3.8892490316004213E-01   3.9091755024952918E-01   3.9291837459846790E-01
   3.9492738532913646E-01   3.9694459123095183E-01   3.9897000075533040E-01
   4.0100362201050394E-01   4.0304546275629000E-01   4.0509553039881768E-01
   4.0715383198520810E-01   4.0922037419820995E-01   4.1129516335078897E-01
   4.1337820538067305E-01   4.1546950584485121E-01   4.1756906991402748E-01
   4.1967690236702915E-01   4.2179300758516930E-01   4.2391738954656422E-01
   4.2605005182040467E-01   4.2819099756118201E-01   4.3034022950286849E-01
   4.3249774995305162E-01   4.3466356078702378E-01   4.3683766344182545E-01
   4.3902005891024293E-01   4.4121074773476104E-01   4.4340973000146994E-01
   4.4561700533392651E-01   4.4783257288697070E-01   4.5005643134049589E-01
   4.5228857889317486E-01   4.5452901325614015E-01   4.5677773164661928E-01
   4.5903473078152529E-01   4.6130000687100259E-01   4.6357355561192770E-01
   4.6585537218136608E-01   4.6814545122998380E-01   4.7044378687541571E-01
   4.7275037269558917E-01   4.7506520172200417E-01   4.7738826643296944E-01
   4.7971955874679539E-01   4.8205907001494419E-01   4.8440679101513567E-01
   4.8676271194441201E-01   4.8912682241215882E-01   4.9149911143308461E-01
   4.9387956742015798E-01   4.9626817817750341E-01   4.9866493089325575E-01
   5.0106981213237378E-01   5.0348280782941268E-01   5.0590390328125723E-01
   5.0833308313981385E-01   5.1077033140466432E-01   5.1321563141567950E-01
   5.1566896584559474E-01   5.1813031669254705E-01   5.2059966527257473E-01
   5.2307699221207882E-01   5.2556227744024864E-01   5.2805550018145042E-01
   5.3055663894758021E-01   5.3306567153038154E-01   5.3558257499372852E-01
   5.3810732566587416E-01   5.4063989913166588E-01   5.4318027022472737E-01
   5.4572841301960817E-01   5.4828430082390234E-01   5.5084790617033463E-01
   5.5341920080881779E-01   5.5599815569847888E-01   5.5858474099965783E-01
   5.6117892606587649E-01   5.6378067943578136E-01   5.6638996882505921E-01
   5.6900676111832649E-01   5.7163102236099428E-01   5.7426271775110871E-01
   5.7690181163116816E-01   5.7954826747991761E-01   5.8220204790412233E-01
   5.8486311463032015E-01   5.8753142849655449E-01   5.9020694944408836E-01
   5.9288963650910120E-01   5.9557944781436889E-01   5.9827634056092793E-01
   6.0098027101972529E-01   6.0369119452325526E-01   6.0640906545718298E-01
   6.0913383725195791E-01   6.1186546237441719E-01   6.1460389231937906E-01
   6.1734907760123015E-01   6.2010096774550605E-01   6.2285951128046668E-01
   6.2562465572866777E-01   6.2839634759853036E-01   6.3117453237590926E-01
   6.3395915451566165E-01   6.3675015743321761E-01   6.3954748349615342E-01
   6.4235107401577041E-01   6.4516086923867899E-01   6.4797680833839133E-01
   6.5079882940692213E-01   6.5362686944640169E-01   6.5646086436069984E-01
   6.5930074894706525E-01   6.6214645688777962E-01   6.6499792074182940E-01
   6.6785507193659754E-01   6.7071784075957452E-01   6.7358615635009411E-01
   6.7645994669109166E-01   6.7933913860089024E-01   6.8222365772501425E-01
   6.8511342852803314E-01   6.8800837428543804E-01   6.9090841707555151E-01
   6.9381347777147384E-01   6.9672347603306695E-01   6.9963833029897970E-01
   7.0255795777871355E-01   7.0548227444473466E-01   7.0841119502463079E-01
   7.1134463299331818E-01   7.1428250056529874E-01   7.1722470868697052E-01
   7.2017116702899409E-01   7.2312178397871618E-01   7.2607646663265435E-01
   7.2903512078904287E-01   7.3199765094044522E-01   7.3496396026643296E-01
   7.3793395062633471E-01   7.4090752255205794E-01   7.4388457524098539E-01
   7.4686500654894894E-01   7.4984871298328470E-01   7.5283558969596942E-01
   7.5582553047684364E-01   7.5881842774692221E-01   7.6181417255179695E-01
   7.6481265455513125E-01   7.6781376203225338E-01   7.7081738186384785E-01
   7.7382339952974855E-01   7.7683169910283933E-01   7.7984216324305999E-01
   7.8285467319152524E-01   7.8586910876475691E-01   7.8888534834903412E-01
   7.9190326889486207E-01   7.9492274591156586E-01   7.9794365346200968E-01
   8.0096586415744575E-01   8.0398924915249625E-01   8.0701367814027070E-01
   8.1003901934762357E-01   8.1306513953055304E-01   8.1609190396974629E-01
   8.1911917646627408E-01   8.2214681933743716E-01   8.2517469341276917E-01
   8.2820265803019821E-01   8.3123057103237186E-01   8.3425828876314723E-01
   8.3728566606425214E-01   8.4031255627211843E-01   8.4333881121489207E-01
   8.4636428120962437E-01   8.4938881505964592E-01   8.5241226005212900E-01
   8.5543446195584072E-01   8.5845526501909097E-01   8.6147451196787916E-01
   8.6449204400424284E-01   8.6750770080481210E-01   8.7052132051957420E-01
   8.7353273977085133E-01   8.7654179365249563E-01   8.7954831572930481E-01
   8.8255213803666388E-01   8.8555309108041347E-01   8.8855100383695318E-01
   8.9154570375357911E-01   8.9453701674906305E-01   8.9752476721447516E-01
   9.0050877801425500E-01   9.0348887048753457E-01   9.0646486444971697E-01
   9.0943657819431545E-01   9.1240382849505508E-01   9.1536643060824374E-01
   9.1832419827541345E-01   9.2127694372623825E-01   9.2422447768173110E-01
   9.2716660935772421E-01   9.3010314646863790E-01   9.3303389523153990E-01
   9.3595866037050068E-01   9.3887724512124815E-01   9.4178945123612534E-01
   9.4469507898935645E-01   9.4759392718262281E-01   9.5048579315095560E-01
   9.5337047276894682E-01   9.5624776045728332E-01   9.5911744918960917E-01
   9.6197933049971662E-01   9.6483319448907479E-01   9.6767882983469478E-01
   9.7051602379733892E-01   9.7334456223007504E-01   9.7616422958718263E-01
   9.7897480893341193E-01   9.8177608195360111E-01   9.8456782896265527E-01
   9.8734982891589118E-01   9.9012185941974995E-01   9.9288369674288346E-01
   9.9563511582761699E-01   9.9837589030179164E-01   1.0011057924909903E+00
   1.0038245934311509E+00   1.0065320628815708E+00   1.0092279693383037E+00
   1.0119120800479566E+00   1.0145841610218853E+00   1.0172439770507953E+00
   1.0198912917197502E+00   1.0225258674235917E+00   1.0251474653827717E+00
   1.0277558456596030E+00   1.0303507671749303E+00   1.0329319877252245E+00
   1.0354992640001022E+00   1.0380523516002753E+00   1.0405910050559335E+00
   1.0431149778455602E+00   1.0456240224151871E+00   1.0481178901980881E+00
   1.0505963316349169E+00   1.0530590961942905E+00   1.0555059323938192E+00
   1.0579365878215883E+00   1.0603508091580909E+00   1.0627483421986175E+00
   1.0651289318761004E+00   1.0674923222844188E+00   1.0698382567021649E+00
   1.0721664776168711E+00   1.0744767267497044E+00   1.0767687450806251E+00
   1.0790422728740159E+00   1.0812970497047780E+00   1.0835328144849001E+00
   1.0857493054905001E+00   1.0879462603893373E+00   1.0901234162688047E+00
   1.0922805096643915E+00   1.0944172765886262E+00   1.0965334525604955E+00
   1.0986287726353416E+00   1.1007029714352399E+00   1.1027557831798522E+00
   1.1047869417177647E+00   1.1067961805583018E+00   1.1087832329038212E+00
   1.1107478316824906E+00   1.1126897095815420E+00   1.1146085990810066E+00
   1.1165042324879295E+00   1.1183763419710628E+00   1.1202246595960366E+00
   1.1220489173610078E+00   1.1238488472327848E+00   1.1256241811834291E+00
   1.1273746512273293E+00   1.1290999894587488E+00   1.1307999280898460E+00
   1.1324741994891629E+00   1.1341225362205829E+00   1.1357446710827539E+00
   1.1373403371489763E+00   1.1389092678075536E+00   1.1404511968026010E+00
   1.1419658582753127E+00   1.1434529868056833E+00   1.1449123174546800E+00
   1.1463435858068658E+00   1.1477465280134651E+00   1.1491208808358750E+00
   1.1504663816896132E+00   1.1517827686887019E+00   1.1530697806904842E+00
   1.1543271573408653E+00   1.1555546391199820E+00   1.1567519673882853E+00
   1.1579188844330435E+00   1.1590551335152512E+00   1.1601604589169470E+00
   1.1612346059889287E+00   1.1622773211988664E+00   1.1632883521798030E+00
   1.1642674477790425E+00   1.1652143581074137E+00   1.1661288345889089E+00
   1.1670106300106911E+00   1.1678594985734574E+00   1.1686751959421622E+00
   1.1694574792970853E+00   1.1702061073852417E+00   1.1709208405721259E+00
   1.1716014408937843E+00   1.1722476721092066E+00   1.1728592997530287E+00
   1.1734360911885442E+00   1.1739778156610083E+00   1.1744842443512344E+00
   1.1749551504294693E+00   1.1753903091095430E+00   1.1757894977032799E+00
   1.1761524956751674E+00   1.1764790846972695E+00   1.1767690487043783E+00
   1.1770221739493929E+00   1.1772382490589162E+00   1.1774170650890612E+00
   1.1775584155814560E+00   1.1776620966194362E+00   1.1777279068844173E+00
   1.1777556477124349E+00   1.1777451231508411E+00   1.1776961400151482E+00
   1.1776085079460079E+00   1.1774820394663155E+00   1.1773165500384244E+00
   1.1771118581214657E+00   1.1768677852287546E+00   1.1765841559852752E+00
   1.1762607981852298E+00   1.1758975428496432E+00   1.1754942242840056E+00
   1.1750506801359442E+00   1.1745667514529088E+00   1.1740422827398596E+00
   1.1734771220169435E+00   1.1728711208771450E+00   1.1722241345438971E+00
   1.1715360219286404E+00   1.1708066456883159E+00   1.1700358722827746E+00
   1.1692235720320925E+00   1.1683696191737742E+00   1.1674738919198331E+00
   1.1665362725137267E+00   1.1655566472871413E+00   1.1645349067166013E+00
   1.1634709454798919E+00   1.1623646625122808E+00   1.1612159610625172E+00
   1.1600247487485986E+00   1.1587909376132826E+00   1.1575144441793301E+00
   1.1561951895044644E+00   1.1548330992360245E+00   1.1534281036652985E+00
   1.1519801377815195E+00   1.1504891413255034E+00   1.1489550588429143E+00
   1.1473778397371353E+00   1.1457574383217286E+00   1.1440938138724666E+00
   1.1423869306789112E+00   1.1406367580955268E+00   1.1388432705923053E+00
   1.1370064478048809E+00   1.1351262745841202E+00   1.1332027410451617E+00
   1.1312358426158882E+00   1.1292255800848088E+00   1.1271719596483309E+00
   1.1250749929574007E+00   1.1229346971634890E+00   1.1207510949639046E+00
   1.1185242146464049E+00   1.1162540901330946E+00   1.1139407610235734E+00
   1.1115842726373248E+00   1.1091846760553121E+00   1.1067420281607649E+00
   1.1042563916791259E+00   1.1017278352171411E+00   1.0991564333010617E+00
   1.0965422664139388E+00   1.0938854210319808E+00   1.0911859896599534E+00
   1.0884440708655905E+00   1.0856597693129943E+00   1.0828331957949981E+00
   1.0799644672644604E+00   1.0770537068644699E+00   1.0741010439574292E+00
   1.0711066141529908E+00   1.0680705593348174E+00   1.0649930276861390E+00
   1.0618741737140764E+00   1.0587141582727033E+00   1.0555131485848166E+00
   1.0522713182623866E+00   1.0489888473256554E+00   1.0456659222208544E+00
   1.0423027358365096E+00   1.0388994875183040E+00   1.0354563830824661E+00
   1.0319736348276518E+00   1.0284514615452902E+00   1.0248900885283585E+00
   1.0212897475785554E+00   1.0176506770118405E+00   1.0139731216623074E+00
   1.0102573328843538E+00   1.0065035685531232E+00   1.0027120930631759E+00
   9.9888317732536391E-01   9.9501709876187150E-01   9.9111414129938968E-01
   9.8717459536039143E-01   9.8319875785247424E-01   9.7918693215573549E-01
   9.7513942810815013E-01   9.7105656198891399E-01   9.6693865649972410E-01
   9.6278604074396035E-01   9.5859905020373726E-01   9.5437802671479521E-01
   9.5012331843919873E-01   9.4583527983581117E-01   9.4151427162851598E-01
   9.3716066077215521E-01   9.3277482041615634E-01   9.2835712986581997E-01
   9.2390797454124030E-01   9.1942774593383458E-01   9.1491684156045494E-01
   9.1037566491506006E-01   9.0580462541792395E-01   9.0120413836236191E-01
   8.9657462485895290E-01   8.9191651177724274E-01   8.8723023168491000E-01
   8.8251622278383823E-01   8.7777492884580122E-01   8.7300679914231660E-01
   8.6821228837409004E-01   8.6339185659733220E-01   8.5854596914748771E-01
   8.5367509656037444E-01   8.4877971449073852E-01   8.4386030362822528E-01
   8.3891734961077902E-01   8.3395134293547979E-01   8.2896277886683001E-01
   8.2395215734251159E-01   8.1891998287663215E-01   8.1386676446048256E-01
   8.0879301546083715E-01   8.0369925351582228E-01   7.9858600042839356E-01
   7.9345378205745365E-01   7.8830312820665716E-01   7.8313457251094531E-01
   7.7794865232086030E-01   7.7274590858469216E-01   7.6752688572851502E-01
   7.6229213153417086E-01   7.5704219701526809E-01   7.5177763629125860E-01
   7.4649900645966727E-01   7.4120686746654507E-01   7.3590178197522593E-01
   7.3058431523346679E-01   7.2525503493905386E-01   7.1991451110396332E-01
   7.1456331591716293E-01   7.0920202360614848E-01   7.0383121029730711E-01
   6.9845145387520380E-01   6.9306333384088714E-01   6.8766743116931406E-01
   6.8226432816599281E-01   6.7685460832294220E-01   6.7143885617407217E-01
   6.6601765715007999E-01   6.6059159743296880E-01   6.5516126381028139E-01
   6.4972724352915168E-01   6.4429012415026810E-01   6.3885049340184408E-01
   6.3340893903368534E-01   6.2796604867144679E-01   6.2252240967115846E-01
   6.1707860897410838E-01   6.1163523296215427E-01   6.0619286731353983E-01
   6.0075209685928133E-01   5.9531350544018746E-01   5.8987767576456740E-01
   5.8444518926667788E-01   5.7901662596595138E-01   5.7359256432704242E-01
   5.6817358112072125E-01   5.6276025128563611E-01   5.5735314779095912E-01
   5.5195284149992219E-01   5.4655990103424235E-01   5.4117489263942775E-01
   5.3579838005094882E-01   5.3043092436125061E-01   5.2507308388757601E-01
   5.1972541404056338E-01   5.1438846719357378E-01   5.0906279255269971E-01
   5.0374893602740001E-01   4.9844744010170289E-01   4.9315884370591578E-01
   4.8788368208877581E-01   4.8262248668997770E-01   4.7737578501301348E-01
   4.7214410049826117E-01   4.6692795239626361E-01   4.6172785564114499E-01
   4.5654432072411877E-01   4.5137785356705468E-01   4.4622895539608226E-01
   4.4109812261522863E-01   4.3598584668010470E-01   4.3089261397168249E-01
   4.2581890567022856E-01   4.2076519762949860E-01   4.1573196025132991E-01
   4.1071965836081681E-01   4.0572875108230222E-01   4.0075969171647635E-01
   3.9581292761893888E-01   3.9088890008065130E-01   3.8598804421079236E-01
   3.8111078882261684E-01   3.7625755632302105E-01   3.7142876260663416E-01
   3.6662481695537247E-01   3.6184612194453725E-01   3.5709307335667884E-01
   3.5236606010461685E-01   3.4766546416517274E-01   3.4299166052536023E-01
   3.3834501714296905E-01   3.3372589492368165E-01   3.2913464771706413E-01
   3.2457162233398196E-01   3.2003715858818826E-01   3.1553158936501929E-01
   3.1105524072029539E-01   3.0660843201265348E-01   3.0219147607261920E-01
   2.9780467941173500E-01   2.9344834247499280E-01   2.8912275993962649E-01
   2.8482822106300448E-01   2.8056501008186202E-01   2.7633340666442335E-01
   2.7213368641602781E-01   2.6796612143766568E-01   2.6383098093530821E-01
   2.5972853187604650E-01   2.5565903968480380E-01   2.5162276897273528E-01
   2.4761998428535631E-01   2.4365095085496016E-01   2.3971593533800736E-01
   2.3581520651395105E-01   2.3194903591748545E-01   2.2811769837159471E-01
   2.2432147238421646E-01   2.2056064036706394E-01   2.1683548863149299E-01
   2.1314630711367114E-01   2.0949338878022303E-01   2.0587702866662030E-01
   2.0229752250459737E-01   1.9875516490263595E-01   1.9525024705593652E-01
   1.9178305398008563E-01   1.8835386128639856E-01   1.8496293154677768E-01
   1.8161051033121328E-01   1.7829682204001007E-01   1.7502206569232498E-01
   1.7178641086805219E-01   1.6858999402565719E-01   1.6543291542788993E-01
   1.6231523689472960E-01   1.5923698056504867E-01   1.5619812878576075E-01
   1.5319862516484514E-01   1.5023837673240506E-01   1.4731725706460919E-01
   1.4443511015207272E-01   1.4159175474734378E-01   1.3878698891096233E-01
   1.3602059449136222E-01   1.3329234131472761E-01   1.3060199091756053E-01
   1.2794929971709401E-01   1.2533402157400955E-01   1.2275590975198948E-01
   1.2021471831622010E-01   1.1771020303744913E-01   1.1524212188085838E-01
   1.1281023516215827E-01   1.1041430544960938E-01   1.0805409728264276E-01
   1.0572937676747950E-01   1.0343991109921230E-01   1.0118546804927460E-01
   9.8965815447725522E-02   9.6780720681635207E-02   9.4629950224147136E-02
   9.2513269203461423E-02   9.0430441016882274E-02   8.8381226992021819E-02
   8.6365386095065763E-02   8.4382674684506775E-02   8.2432846307784899E-02
   8.0515651537706970E-02   7.8630837845243107E-02   7.6778149505232082E-02
   7.4957327531601725E-02   7.3168109638876766E-02   7.1410230226966256E-02
   6.9683420386470657E-02   6.7987407922005513E-02   6.6321917391290786E-02
   6.4686670157997367E-02   6.3081384456565803E-02   6.1505775467419026E-02
   5.9959555401175813E-02   5.8442433590638672E-02   5.6954116589476765E-02
   5.5494308276654920E-02   5.4062709965773559E-02   5.2659020518584627E-02
   5.1282936462035238E-02   4.9934152108266947E-02   4.8612359677064357E-02
   4.7317249420304255E-02   4.6048509748006193E-02   4.4805827355629227E-02
   4.3588887352296907E-02   4.2397373389666211E-02   4.1230967791184528E-02
   4.0089351681504404E-02   3.8972205115847841E-02   3.7879207209131585E-02
   3.6810036264682058E-02   3.5764369902383741E-02   3.4741885186118510E-02
   3.3742258750365295E-02   3.2765166925840167E-02   3.1810285864066368E-02
   3.0877291660772473E-02   2.9965860478024405E-02   2.9075668665003749E-02
   2.8206392877351039E-02   2.7357710194998230E-02   2.6529298238419381E-02
   2.5720835283233080E-02   2.4932000373094350E-02   2.4162473430817136E-02
   2.3411935367672072E-02   2.2680068190807041E-02   2.1966555108741043E-02
   2.1271080634884126E-02   2.0593330689038816E-02   1.9932992696840433E-02
   1.9289755687095851E-02   1.8663310386982185E-02   1.8053349315068606E-02
   1.7459566872126527E-02   1.6881659429694756E-02   1.6319325416368165E-02
   1.5772265401779961E-02   1.5240182178249215E-02   1.4722780840066996E-02
   1.4219768860396127E-02   1.3730856165761066E-02   1.3255755208106269E-02
   1.2794181034402930E-02   1.2345851353785816E-02   1.1910486602203653E-02
   1.1487810004568260E-02   1.1077547634389609E-02   1.0679428470885708E-02
   1.0293184453558297E-02   9.9185505342271833E-03   9.5552647265181832E-03
   9.2030681528015735E-03   8.8617050885801719E-03   8.5309230043281951E-03
   8.2104726047842556E-03   7.9001078657040553E-03   7.5995860680805223E-03
   7.3086678298413784E-03   7.0271171350363539E-03   6.7547013605285706E-03
   6.4911913002067990E-03   6.2363611867375709E-03   5.9899887108783795E-03
   5.7518550383753968E-03   5.5217448244713144E-03   5.2994462260511042E-03
   5.0847509114555706E-03   4.8774540679946575E-03   4.6773544071944629E-03
   4.4842541678138791E-03   4.2979591166686223E-03   4.1182785473022395E-03
   3.9450252765453565E-03   3.7780156390061072E-03   3.6170694795361383E-03
   3.4620101437180658E-03   3.3126644664215519E-03   3.1688627584763912E-03
   3.0304387915120784E-03   2.8972297810143481E-03   2.7690763676500251E-03
   2.6458225969122839E-03   2.5273158971390996E-03   2.4134070559581619E-03
   2.3039501952119949E-03   2.1988027444173400E-03   2.0978254128130817E-03
   2.0008821600511475E-03   1.9078401655848480E-03   1.8185697968090915E-03
   1.7329445760068004E-03   1.6508411461556730E-03   1.5721392356491887E-03
   1.4967216219854700E-03   1.4244740944772405E-03   1.3552854160357570E-03
   1.2890472840811368E-03   1.2256542906310636E-03   1.1650038816193417E-03
   1.1069963154952758E-03   1.0515346211543083E-03   9.9852455524980228E-04
   9.4787455893528447E-04   8.9949571408589680E-04   8.5330169904720152E-04
   8.0920874395888826E-04   7.6713558570031448E-04   7.2700342250418284E-04
   6.8873586828401316E-04   6.5225890672041269E-04   6.1750084515047174E-04
   5.8439226830391672E-04   5.5286599192893877E-04   5.2285701634987994E-04
   4.9430247999819263E-04   4.6714161295730960E-04   4.4131569056121798E-04
   4.1676798708573939E-04   3.9344372957056937E-04   3.7129005180926980E-04
   3.5025594854345895E-04   3.3029222989645917E-04   3.1135147608065582E-04
   2.9338799241178772E-04   2.7635776466231423E-04   2.6021841478490162E-04
   2.4492915703594074E-04   2.3045075452784636E-04   2.1674547623770407E-04
   2.0377705449861871E-04   1.9151064299888787E-04   1.7991277531287172E-04
   1.6895132398616323E-04   1.5859546019638142E-04   1.4881561400961743E-04
   1.3958343525126475E-04   1.3087175500865812E-04   1.2265454778164134E-04
   1.1490689429587872E-04   1.0760494499242439E-04   1.0072588420577232E-04
   9.4247895041327465E-05   8.8150124961970758E-05   8.2412652092138367E-05
   7.7016452246603931E-05   7.1943366689941024E-05   6.7176070631456300E-05
   6.2698042459224032E-05   5.8493533715720738E-05   5.4547539816457862E-05
   5.0845771511941761E-05   4.7374627092256212E-05   4.4121165332563883E-05
   4.1073079176861571E-05   3.8218670156400580E-05   3.5546823538299744E-05
   3.3046984199033979E-05   3.0709133216678459E-05   2.8523765175026128E-05
   2.6481866171976272E-05   2.4574892523913228E-05   2.2794750157158460E-05
   2.1133774676984635E-05   1.9584712104128337E-05   1.8140700268227291E-05
   1.6795250847138445E-05   1.5542232040665021E-05   1.4375851866831790E-05
   1.3290642068499306E-05   1.2281442617797760E-05   1.1343386805588873E-05
   1.0471886902929618E-05   9.6626203813124245E-06   8.9115166782939296E-06
   8.2147444949913853E-06   7.5686996118614465E-06   6.9699932088088327E-06
   6.4154406773923004E-06   5.9020507525705850E-06   5.4270159200796194E-06
   0.0000000000000000E+00   0.0000000000000000E+00   0.0000000000000000E+00
   0.0000000000000000E+00   0.0000000000000000E+00   0.0000000000000000E+00
   0.0000000000000000E+00   0.0000000000000000E+00   0.0000000000000000E+00
   0.0000000000000000E+00   0.0000000000000000E+00   0.0000000000000000E+00
   0.0000000000000000E+00   0.0000000000000000E+00   0.0000000000000000E+00
   0.0000000000000000E+00   0.0000000000000000E+00   0.0000000000000000E+00
   0.0000000000000000E+00   0.0000000000000000E+00   0.0000000000000000E+00
   0.0000000000000000E+00   0.0000000000000000E+00   0.0000000000000000E+00
   0.0000000000000000E+00   0.0000000000000000E+00   0.0000000000000000E+00
   0.0000000000000000E+00   0.0000000000000000E+00   0.0000000000000000E+00
   0.0000000000000000E+00   0.0000000000000000E+00   0.0000000000000000E+00
   0.0000000000000000E+00   0.0000000000000000E+00   0.0000000000000000E+00
   0.0000000000000000E+00   0.0000000000000000E+00   0.0000000000000000E+00
   0.0000000000000000E+00   0.0000000000000000E+00   0.0000000000000000E+00
   0.0000000000000000E+00   0.0000000000000000E+00   0.0000000000000000E+00
   0.0000000000000000E+00   0.0000000000000000E+00   0.0000000000000000E+00
   0.0000000000000000E+00   0.0000000000000000E+00   0.0000000000000000E+00
   0.0000000000000000E+00   0.0000000000000000E+00   0.0000000000000000E+00
   0.0000000000000000E+00   0.0000000000000000E+00   0.0000000000000000E+00
   0.0000000000000000E+00   0.0000000000000000E+00   0.0000000000000000E+00
   0.0000000000000000E+00   0.0000000000000000E+00   0.0000000000000000E+00
   0.0000000000000000E+00   0.0000000000000000E+00   0.0000000000000000E+00
   0.0000000000000000E+00   0.0000000000000000E+00   0.0000000000000000E+00
   0.0000000000000000E+00   0.0000000000000000E+00   0.0000000000000000E+00
   0.0000000000000000E+00   0.0000000000000000E+00   0.0000000000000000E+00
   0.0000000000000000E+00   0.0000000000000000E+00   0.0000000000000000E+00
   0.0000000000000000E+00   0.0000000000000000E+00   0.0000000000000000E+00
   0.0000000000000000E+00   0.0000000000000000E+00   0.0000000000000000E+00
   0.0000000000000000E+00   0.0000000000000000E+00   0.0000000000000000E+00
   0.0000000000000000E+00   0.0000000000000000E+00   0.0000000000000000E+00
   0.0000000000000000E+00   0.0000000000000000E+00   0.0000000000000000E+00
   0.0000000000000000E+00   0.0000000000000000E+00   0.0000000000000000E+00
   0.0000000000000000E+00   0.0000000000000000E+00   0.0000000000000000E+00
   0.0000000000000000E+00   0.0000000000000000E+00   0.0000000000000000E+00
   0.0000000000000000E+00   0.0000000000000000E+00   0.0000000000000000E+00
   0.0000000000000000E+00   0.0000000000000000E+00   0.0000000000000000E+00
   0.0000000000000000E+00   0.0000000000000000E+00   0.0000000000000000E+00
   0.0000000000000000E+00   0.0000000000000000E+00   0.0000000000000000E+00
   0.0000000000000000E+00   0.0000000000000000E+00   0.0000000000000000E+00
   0.0000000000000000E+00   0.0000000000000000E+00   0.0000000000000000E+00
   0.0000000000000000E+00   0.0000000000000000E+00   0.0000000000000000E+00
   0.0000000000000000E+00   0.0000000000000000E+00   0.0000000000000000E+00
   0.0000000000000000E+00   0.0000000000000000E+00   0.0000000000000000E+00
   0.0000000000000000E+00   0.0000000000000000E+00   0.0000000000000000E+00
   0.0000000000000000E+00   0.0000000000000000E+00   0.0000000000000000E+00
   0.0000000000000000E+00   0.0000000000000000E+00   0.0000000000000000E+00
   0.0000000000000000E+00   0.0000000000000000E+00   0.0000000000000000E+00
   0.0000000000000000E+00   0.0000000000000000E+00   0.0000000000000000E+00
   0.0000000000000000E+00   0.0000000000000000E+00   0.0000000000000000E+00
   0.0000000000000000E+00   0.0000000000000000E+00   0.0000000000000000E+00
   0.0000000000000000E+00   0.0000000000000000E+00   0.0000000000000000E+00
   0.0000000000000000E+00   0.0000000000000000E+00   0.0000000000000000E+00
   0.0000000000000000E+00   0.0000000000000000E+00   0.0000000000000000E+00
   0.0000000000000000E+00   0.0000000000000000E+00   0.0000000000000000E+00
   0.0000000000000000E+00   0.0000000000000000E+00   0.0000000000000000E+00
   0.0000000000000000E+00   0.0000000000000000E+00   0.0000000000000000E+00
   0.0000000000000000E+00   0.0000000000000000E+00   0.0000000000000000E+00
   0.0000000000000000E+00   0.0000000000000000E+00   0.0000000000000000E+00
   0.0000000000000000E+00   0.0000000000000000E+00   0.0000000000000000E+00
   0.0000000000000000E+00   0.0000000000000000E+00   0.0000000000000000E+00
   0.0000000000000000E+00   0.0000000000000000E+00   0.0000000000000000E+00
   0.0000000000000000E+00   0.0000000000000000E+00   0.0000000000000000E+00
   0.0000000000000000E+00   0.0000000000000000E+00   0.0000000000000000E+00
   0.0000000000000000E+00   0.0000000000000000E+00   0.0000000000000000E+00
   0.0000000000000000E+00   0.0000000000000000E+00   0.0000000000000000E+00
   0.0000000000000000E+00   0.0000000000000000E+00   0.0000000000000000E+00
   0.0000000000000000E+00   0.0000000000000000E+00   0.0000000000000000E+00
   0.0000000000000000E+00   0.0000000000000000E+00   0.0000000000000000E+00
   0.0000000000000000E+00   0.0000000000000000E+00   0.0000000000000000E+00
   0.0000000000000000E+00   0.0000000000000000E+00   0.0000000000000000E+00
   0.0000000000000000E+00   0.0000000000000000E+00   0.0000000000000000E+00
   0.0000000000000000E+00   0.0000000000000000E+00   0.0000000000000000E+00
   0.0000000000000000E+00   0.0000000000000000E+00   0.0000000000000000E+00
   0.0000000000000000E+00   0.0000000000000000E+00   0.0000000000000000E+00
   0.0000000000000000E+00   0.0000000000000000E+00   0.0000000000000000E+00
   0.0000000000000000E+00   0.0000000000000000E+00   0.0000000000000000E+00
   0.0000000000000000E+00   0.0000000000000000E+00   0.0000000000000000E+00
   0.0000000000000000E+00   0.0000000000000000E+00   0.0000000000000000E+00
   0.0000000000000000E+00   0.0000000000000000E+00   0.0000000000000000E+00
   0.0000000000000000E+00   0.0000000000000000E+00   0.0000000000000000E+00
   0.0000000000000000E+00   0.0000000000000000E+00   0.0000000000000000E+00
   0.0000000000000000E+00   0.0000000000000000E+00   0.0000000000000000E+00
   0.0000000000000000E+00   0.0000000000000000E+00   0.0000000000000000E+00
   0.0000000000000000E+00   0.0000000000000000E+00   0.0000000000000000E+00
   0.0000000000000000E+00   0.0000000000000000E+00   0.0000000000000000E+00
   0.0000000000000000E+00   0.0000000000000000E+00   0.0000000000000000E+00
   0.0000000000000000E+00   0.0000000000000000E+00   0.0000000000000000E+00
   0.0000000000000000E+00   0.0000000000000000E+00   0.0000000000000000E+00
   0.0000000000000000E+00   0.0000000000000000E+00   0.0000000000000000E+00
   0.0000000000000000E+00   0.0000000000000000E+00   0.0000000000000000E+00
   0.0000000000000000E+00   0.0000000000000000E+00   0.0000000000000000E+00
   0.0000000000000000E+00   0.0000000000000000E+00   0.0000000000000000E+00
   0.0000000000000000E+00   0.0000000000000000E+00   0.0000000000000000E+00
   0.0000000000000000E+00   0.0000000000000000E+00   0.0000000000000000E+00
   0.0000000000000000E+00   0.0000000000000000E+00   0.0000000000000000E+00
   0.0000000000000000E+00   0.0000000000000000E+00   0.0000000000000000E+00
   0.0000000000000000E+00   0.0000000000000000E+00   0.0000000000000000E+00
   0.0000000000000000E+00   0.0000000000000000E+00   0.0000000000000000E+00
   0.0000000000000000E+00   0.0000000000000000E+00   0.0000000000000000E+00
   0.0000000000000000E+00   0.0000000000000000E+00   0.0000000000000000E+00
   0.0000000000000000E+00   0.0000000000000000E+00
       </PP_GIPAW_WFS_AE>
       <PP_GIPAW_WFS_PS size="2291">
   1.8540183342917861E-04   1.8651424442872952E-04   1.8763332989425919E-04
   1.8875912987256318E-04   1.8989168465069232E-04   1.9103103475726890E-04
   1.9217722096429534E-04   1.9333028428836384E-04   1.9449026599217291E-04
   1.9565720758599740E-04   1.9683115082917357E-04   1.9801213773159372E-04
   1.9920021055520943E-04   2.0039541181554390E-04   2.0159778428321341E-04
   2.0280737098545787E-04   2.0402421520768050E-04   2.0524836049499697E-04
   2.0647985065379344E-04   2.0771872975329441E-04   2.0896504212713959E-04
   2.1021883237497046E-04   2.1148014536402624E-04   2.1274902623074959E-04
   2.1402552038240165E-04   2.1530967349868706E-04   2.1660153153338870E-04
   2.1790114071601184E-04   2.1920854755343888E-04   2.2052379883159338E-04
   2.2184694161711421E-04   2.2317802325904024E-04   2.2451709139050417E-04
   2.2586419393043764E-04   2.2721937908528573E-04   2.2858269535073195E-04
   2.2995419151343382E-04   2.3133391665276895E-04   2.3272192014259081E-04
   2.3411825165299598E-04   2.3552296115210159E-04   2.3693609890783321E-04
   2.3835771548972400E-04   2.3978786177072405E-04   2.4122658892902118E-04
   2.4267394844987202E-04   2.4412999212744473E-04   2.4559477206667239E-04
   2.4706834068511746E-04   2.4855075071484765E-04   2.5004205520432306E-04
   2.5154230752029411E-04   2.5305156134971206E-04   2.5456987070164930E-04
   2.5609728990923263E-04   2.5763387363158754E-04   2.5917967685579408E-04
   2.6073475489885457E-04   2.6229916340967329E-04   2.6387295837104773E-04
   2.6545619610167202E-04   2.6704893325815216E-04   2.6865122683703382E-04
   2.7026313417684165E-04   2.7188471296013132E-04   2.7351602121555358E-04
   2.7515711731993100E-04   2.7680806000034678E-04   2.7846890833624664E-04
   2.8013972176155243E-04   2.8182056006678972E-04   2.8351148340122678E-04
   2.8521255227502743E-04   2.8692382756141611E-04   2.8864537049885661E-04
   2.9037724269324308E-04   2.9211950612010495E-04   2.9387222312682451E-04
   2.9563545643486818E-04   2.9740926914203093E-04   2.9919372472469433E-04
   3.0098888704009776E-04   3.0279482032862415E-04   3.0461158921609821E-04
   3.0643925871609947E-04   3.0827789423228872E-04   3.1012756156074815E-04
   3.1198832689233668E-04   3.1386025681505762E-04   3.1574341831644236E-04
   3.1763787878594696E-04   3.1954370601736419E-04   3.2146096821124905E-04
   3.2338973397735973E-04   3.2533007233711251E-04   3.2728205272605207E-04
   3.2924574499633582E-04   3.3122121941923395E-04   3.3320854668764387E-04
   3.3520779791862025E-04   3.3721904465591941E-04   3.3924235887255999E-04
   3.4127781297339853E-04   3.4332547979772017E-04   3.4538543262184571E-04
   3.4745774516175307E-04   3.4954249157571589E-04   3.5163974646695698E-04
   3.5374958488631840E-04   3.5587208233494666E-04   3.5800731476699451E-04
   3.6015535859233955E-04   3.6231629067931808E-04   3.6449018835747597E-04
   3.6667712942033620E-04   3.6887719212818195E-04   3.7109045521085802E-04
   3.7331699787058781E-04   3.7555689978480746E-04   3.7781024110901732E-04
   3.8007710247965024E-04   3.8235756501695710E-04   3.8465171032791011E-04
   3.8695962050912242E-04   3.8928137814978644E-04   3.9161706633462928E-04
   3.9396676864688593E-04   3.9633056917129020E-04   3.9870855249708362E-04
   4.0110080372104262E-04   4.0350740845052394E-04   4.0592845280652779E-04
   4.0836402342677949E-04   4.1081420746883060E-04   4.1327909261317690E-04
   4.1575876706639669E-04   4.1825331956430725E-04   4.2076283937513985E-04
   4.2328741630273485E-04   4.2582714068975454E-04   4.2838210342091673E-04
   4.3095239592624688E-04   4.3353811018434962E-04   4.3613933872570086E-04
   4.3875617463595842E-04   4.4138871155929317E-04   4.4403704370174057E-04
   4.4670126583457118E-04   4.4938147329768278E-04   4.5207776200301115E-04
   4.5479022843796343E-04   4.5751896966887007E-04   4.6026408334445866E-04
   4.6302566769934844E-04   4.6580382155756529E-04   4.6859864433607839E-04
   4.7141023604835801E-04   4.7423869730795393E-04   4.7708412933209664E-04
   4.7994663394531874E-04   4.8282631358309938E-04   4.8572327129552920E-04
   4.8863761075099859E-04   4.9156943623990745E-04   4.9451885267839642E-04
   4.9748596561210252E-04   5.0047088121993506E-04   5.0347370631787587E-04
   5.0649454836280158E-04   5.0953351545632893E-04   5.1259071634868290E-04
   5.1566626044258896E-04   5.1876025779718751E-04   5.2187281913197269E-04
   5.2500405583075390E-04   5.2815407994564307E-04   5.3132300420106234E-04
   5.3451094199777978E-04   5.3771800741696642E-04   5.4094431522427910E-04
   5.4418998087396684E-04   5.4745512051300330E-04   5.5073985098524209E-04
   5.5404428983559840E-04   5.5736855531425566E-04   5.6071276638089678E-04
   5.6407704270896089E-04   5.6746150468992658E-04   5.7086627343761940E-04
   5.7429147079254643E-04   5.7773721932625598E-04   5.8120364234572367E-04
   5.8469086389776562E-04   5.8819900877347703E-04   5.9172820251269750E-04
   5.9527857140850415E-04   5.9885024251173048E-04   6.0244334363551331E-04
   6.0605800335986602E-04   6.0969435103628027E-04   6.1335251679235474E-04
   6.1703263153645139E-04   6.2073482696238069E-04   6.2445923555411306E-04
   6.2820599059052146E-04   6.3197522615014907E-04   6.3576707711600886E-04
   6.3958167918040860E-04   6.4341916884980881E-04   6.4727968344970542E-04
   6.5116336112954506E-04   6.5507034086766905E-04   6.5900076247628575E-04
   6.6295476660647448E-04   6.6693249475321828E-04   6.7093408926046749E-04
   6.7495969332623360E-04   6.7900945100771322E-04   6.8308350722644348E-04
   6.8718200777348774E-04   6.9130509931465310E-04   6.9545292939573794E-04
   6.9962564644781341E-04   7.0382339979253340E-04   7.0804633964747848E-04
   7.1229461713153178E-04   7.1656838427028627E-04   7.2086779400148612E-04
   7.2519300018049728E-04   7.2954415758581521E-04   7.3392142192460258E-04
   7.3832494983826192E-04   7.4275489890804033E-04   7.4721142766066893E-04
   7.5169469557403502E-04   7.5620486308288989E-04   7.6074209158458899E-04
   7.6530654344486896E-04   7.6989838200365547E-04   7.7451777158091099E-04
   7.7916487748251270E-04   7.8383986600616905E-04   7.8854290444737077E-04
   7.9327416110537693E-04   7.9803380528923750E-04   8.0282200732385237E-04
   8.0763893855606637E-04   8.1248477136080036E-04   8.1735967914722027E-04
   8.2226383636494187E-04   8.2719741851027407E-04   8.3216060213249792E-04
   8.3715356484018589E-04   8.4217648530755535E-04   8.4722954328086519E-04
   8.5231291958484537E-04   8.5742679612916899E-04   8.6257135591496158E-04
   8.6774678304134961E-04   8.7295326271204839E-04   8.7819098124199005E-04
   8.8346012606398973E-04   8.8876088573545356E-04   8.9409344994512586E-04
   8.9945800951987676E-04   9.0485475643153185E-04   9.1028388380373962E-04
   9.1574558591888517E-04   9.2124005822504049E-04   9.2676749734295902E-04
   9.3232810107311142E-04   9.3792206840276424E-04   9.4354959951309977E-04
   9.4921089578638097E-04   9.5490615981315538E-04   9.6063559539950720E-04
   9.6639940757434835E-04   9.7219780259675702E-04   9.7803098796335670E-04
   9.8389917241574259E-04   9.8980256594795183E-04   9.9574137981397592E-04
   1.0017158265353220E-03   1.0077261199086171E-03   1.0137724750132588E-03
   1.0198551082191128E-03   1.0259742371942528E-03   1.0321300809127529E-03
   1.0383228596625204E-03   1.0445527950531815E-03   1.0508201100240086E-03
   1.0571250288519004E-03   1.0634677771594056E-03   1.0698485819227986E-03
   1.0762676714801990E-03   1.0827252755397454E-03   1.0892216251878128E-03
   1.0957569528972839E-03   1.1023314925358661E-03   1.1089454793744612E-03
   1.1155991500955852E-03   1.1222927428018352E-03   1.1290264970244125E-03
   1.1358006537316922E-03   1.1426154553378469E-03   1.1494711457115203E-03
   1.1563679701845555E-03   1.1633061755607715E-03   1.1702860101247970E-03
   1.1773077236509541E-03   1.1843715674121963E-03   1.1914777941890991E-03
   1.1986266582789081E-03   1.2058184155046350E-03   1.2130533232242156E-03
   1.2203316403397160E-03   1.2276536273065995E-03   1.2350195461430448E-03
   1.2424296604393239E-03   1.2498842353672324E-03   1.2573835376895796E-03
   1.2649278357697337E-03   1.2725173995812252E-03   1.2801525007174073E-03
   1.2878334124011748E-03   1.2955604094947405E-03   1.3033337685094710E-03
   1.3111537676157817E-03   1.3190206866530900E-03   1.3269348071398295E-03
   1.3348964122835241E-03   1.3429057869909198E-03   1.3509632178781838E-03
   1.3590689932811563E-03   1.3672234032656712E-03   1.3754267396379344E-03
   1.3836792959549655E-03   1.3919813675351029E-03   1.4003332514685707E-03
   1.4087352466281100E-03   1.4171876536796732E-03   1.4256907750931833E-03
   1.4342449151533568E-03   1.4428503799705915E-03   1.4515074774919220E-03
   1.4602165175120368E-03   1.4689778116843649E-03   1.4777916735322280E-03
   1.4866584184600586E-03   1.4955783637646866E-03   1.5045518286466923E-03
   1.5135791342218302E-03   1.5226606035325175E-03   1.5317965615593949E-03
   1.5409873352329542E-03   1.5502332534452386E-03   1.5595346470616085E-03
   1.5688918489325844E-03   1.5783051939057544E-03   1.5877750188377578E-03
   1.5973016626063363E-03   1.6068854661224641E-03   1.6165267723425420E-03
   1.6262259262806724E-03   1.6359832750210044E-03   1.6457991677301519E-03
   1.6556739556696893E-03   1.6656079922087196E-03   1.6756016328365198E-03
   1.6856552351752591E-03   1.6957691589927985E-03   1.7059437662155616E-03
   1.7161794209414869E-03   1.7264764894530547E-03   1.7368353402303952E-03
   1.7472563439644710E-03   1.7577398735703442E-03   1.7682863042005189E-03
   1.7788960132583630E-03   1.7895693804116171E-03   1.8003067876059744E-03
   1.8111086190787514E-03   1.8219752613726355E-03   1.8329071033495170E-03
   1.8439045362044003E-03   1.8549679534794054E-03   1.8660977510778481E-03
   1.8772943272784052E-03   1.8885580827493675E-03   1.8998894205629745E-03
   1.9112887462098378E-03   1.9227564676134513E-03   1.9342929951447856E-03
   1.9458987416369727E-03   1.9575741224000772E-03   1.9693195552359581E-03
   1.9811354604532161E-03   1.9930222608822348E-03   2.0049803818903093E-03
   2.0170102513968661E-03   2.0291122998887757E-03   2.0412869604357546E-03
   2.0535346687058616E-03   2.0658558629810865E-03   2.0782509841730332E-03
   2.0907204758386934E-03   2.1032647841963204E-03   2.1158843581413943E-03
   2.1285796492626816E-03   2.1413511118583968E-03   2.1541992029524559E-03
   2.1671243823108287E-03   2.1801271124579900E-03   2.1932078586934683E-03
   2.2063670891084956E-03   2.2196052746027571E-03   2.2329228889012348E-03
   2.2463204085711643E-03   2.2597983130390811E-03   2.2733570846079788E-03
   2.2869972084745625E-03   2.3007191727466114E-03   2.3145234684604429E-03
   2.3284105895984811E-03   2.3423810331069314E-03   2.3564352989135623E-03
   2.3705738899455924E-03   2.3847973121476841E-03   2.3991060745000466E-03
   2.4135006890366470E-03   2.4279816708635306E-03   2.4425495381772506E-03
   2.4572048122834117E-03   2.4719480176153170E-03   2.4867796817527352E-03
   2.5017003354407779E-03   2.5167105126088847E-03   2.5318107503899323E-03
   2.5470015891394479E-03   2.5622835724549431E-03   2.5776572471953685E-03
   2.5931231635006719E-03   2.6086818748114861E-03   2.6243339378889284E-03
   2.6400799128345237E-03   2.6559203631102380E-03   2.6718558555586460E-03
   2.6878869604232032E-03   2.7040142513686544E-03   2.7202383055015583E-03
   2.7365597033909305E-03   2.7529790290890177E-03   2.7694968701521944E-03
   2.7861138176619839E-03   2.8028304662462058E-03   2.8196474141002478E-03
   2.8365652630084719E-03   2.8535846183657416E-03   2.8707060891990837E-03
   2.8879302881894722E-03   2.9052578316937543E-03   2.9226893397666996E-03
   2.9402254361831828E-03   2.9578667484604988E-03   2.9756139078808198E-03
   2.9934675495137696E-03   3.0114283122391564E-03   3.0294968387698175E-03
   3.0476737756746242E-03   3.0659597734016050E-03   3.0843554863012189E-03
   3.1028615726497672E-03   3.1214786946729407E-03   3.1402075185695158E-03
   3.1590487145351791E-03   3.1780029567865164E-03   3.1970709235851218E-03
   3.2162532972618684E-03   3.2355507642413180E-03   3.2549640150662763E-03
   3.2744937444224979E-03   3.2941406511635403E-03   3.3139054383357594E-03
   3.3337888132034675E-03   3.3537914872742301E-03   3.3739141763243210E-03
   3.3941576004243301E-03   3.4145224839649204E-03   3.4350095556827435E-03
   3.4556195486865086E-03   3.4763532004832083E-03   3.4972112530045046E-03
   3.5181944526332643E-03   3.5393035502302630E-03   3.5605393011610463E-03
   3.5819024653229478E-03   3.6033938071722768E-03   3.6250140957516624E-03
   3.6467641047175613E-03   3.6686446123679398E-03   3.6906564016701087E-03
   3.7128002602887320E-03   3.7350769806140079E-03   3.7574873597900084E-03
   3.7800321997431973E-03   3.8027123072111126E-03   3.8255284937712287E-03
   3.8484815758699836E-03   3.8715723748519856E-03   3.8948017169893909E-03
   3.9181704335114623E-03   3.9416793606343002E-03   3.9653293395907558E-03
   3.9891212166605185E-03   4.0130558432003912E-03   4.0371340756747368E-03
   4.0613567756861198E-03   4.0857248100061227E-03   4.1102390506063445E-03
   4.1349003746895957E-03   4.1597096647212721E-03   4.1846678084609210E-03
   4.2097756989939875E-03   4.2350342347637670E-03   4.2604443196035350E-03
   4.2860068627688765E-03   4.3117227789702057E-03   4.3375929884054846E-03
   4.3636184167931327E-03   4.3897999954051383E-03   4.4161386611003680E-03
   4.4426353563580701E-03   4.4692910293115838E-03   4.4961066337822564E-03
   4.5230831293135440E-03   4.5502214812053439E-03   4.5775226605485062E-03
   4.6049876442595733E-03   4.6326174151157121E-03   4.6604129617898657E-03
   4.6883752788861102E-03   4.7165053669752256E-03   4.7448042326304783E-03
   4.7732728884636250E-03   4.8019123531611143E-03   4.8307236515205305E-03
   4.8597078144872342E-03   4.8888658791912320E-03   4.9181988889842694E-03
   4.9477078934771377E-03   4.9773939485772117E-03   5.0072581165262094E-03
   5.0373014659381779E-03   5.0675250718377057E-03   5.0979300156983659E-03
   5.1285173854813968E-03   5.1592882756745888E-03   5.1902437873314377E-03
   5.2213850281105116E-03   5.2527131123150583E-03   5.2842291609328518E-03
   5.3159343016762712E-03   5.3478296690226274E-03   5.3799164042547384E-03
   5.4121956555017187E-03   5.4446685777800440E-03   5.4773363330348473E-03
   5.5102000901814671E-03   5.5432610251472366E-03   5.5765203209135325E-03
   5.6099791675580709E-03   5.6436387622974572E-03   5.6775003095299939E-03
   5.7115650208787328E-03   5.7458341152348026E-03   5.7803088188009867E-03
   5.8149903651355563E-03   5.8498799951963798E-03   5.8849789573852795E-03
   5.9202885075926763E-03   5.9558099092424698E-03   5.9915444333372269E-03
   6.0274933585036010E-03   6.0636579710380504E-03   6.1000395649528248E-03
   6.1366394420222167E-03   6.1734589118291007E-03   6.2104992918117496E-03
   6.2477619073109227E-03   6.2852480916172479E-03   6.3229591860188760E-03
   6.3608965398494356E-03   6.3990615105362515E-03   6.4374554636488727E-03
   6.4760797729478863E-03   6.5149358204340179E-03   6.5540249963975195E-03
   6.5933486994678801E-03   6.6329083366637974E-03   6.6727053234434805E-03
   6.7127410837552305E-03   6.7530170500883389E-03   6.7935346635242828E-03
   6.8342953737882232E-03   6.8753006393008258E-03   6.9165519272303740E-03
   6.9580507135452102E-03   6.9997984830664712E-03   7.0417967295211643E-03
   7.0840469555955360E-03   7.1265506729887755E-03   7.1693094024670341E-03
   7.2123246739177697E-03   7.2555980264044136E-03   7.2991310082213675E-03
   7.3429251769493225E-03   7.3869820995109206E-03   7.4313033522267376E-03
   7.4758905208716087E-03   7.5207452007312863E-03   7.5658689966594346E-03
   7.6112635231349772E-03   7.6569304043197679E-03   7.7028712741166261E-03
   7.7490877762277019E-03   7.7955815642132050E-03   7.8423543015504714E-03
   7.8894076616933990E-03   7.9367433281322189E-03   7.9843629944536341E-03
   8.0322683644013342E-03   8.0804611519368283E-03   8.1289430813006897E-03
   8.1777158870741384E-03   8.2267813142409916E-03   8.2761411182500008E-03
   8.3257970650775451E-03   8.3757509312907073E-03   8.4260045041107227E-03
   8.4765595814768144E-03   8.5274179721104015E-03   8.5785814955796832E-03
   8.6300519823646407E-03   8.6818312739223909E-03   8.7339212227529484E-03
   8.7863236924653736E-03   8.8390405578443292E-03   8.8920737049170105E-03
   8.9454250310205020E-03   8.9990964448695143E-03   9.0530898666245398E-03
   9.1074072279604037E-03   9.1620504721352334E-03   9.2170215540598368E-03
   9.2723224403674954E-03   9.3279551094841619E-03   9.3839215516991047E-03
   9.4402237692359416E-03   9.4968637763241191E-03   9.5538435992708112E-03
   9.6111652765332439E-03   9.6688308587914613E-03   9.7268424090215105E-03
   9.7852020025690767E-03   9.8439117272235456E-03   9.9029736832925274E-03
   9.9623899836767966E-03   1.0022162753945713E-02   1.0082294132413046E-02
   1.0142786270213302E-02   1.0203641331378473E-02   1.0264861492915254E-02
   1.0326448944882719E-02   1.0388405890470466E-02   1.0450734546077213E-02
   1.0513437141389874E-02   1.0576515919463106E-02   1.0639973136799333E-02
   1.0703811063429224E-02   1.0768031982992690E-02   1.0832638192820321E-02
   1.0897632004015341E-02   1.0963015741536037E-02   1.1028791744278668E-02
   1.1094962365160894E-02   1.1161529971205690E-02   1.1228496943625734E-02
   1.1295865677908351E-02   1.1363638583900900E-02   1.1431818085896736E-02
   1.1500406622721615E-02   1.1569406647820673E-02   1.1638820629345880E-02
   1.1708651050244037E-02   1.1778900408345288E-02   1.1849571216452167E-02
   1.1920666002429151E-02   1.1992187309292785E-02   1.2064137695302306E-02
   1.2136519734050822E-02   1.2209336014557030E-02   1.2282589141357497E-02
   1.2356281734599447E-02   1.2430416430134138E-02   1.2504995879610783E-02
   1.2580022750571032E-02   1.2655499726543991E-02   1.2731429507141843E-02
   1.2807814808156010E-02   1.2884658361653905E-02   1.2961962916076229E-02
   1.3039731236334886E-02   1.3117966103911442E-02   1.3196670316956193E-02
   1.3275846690387815E-02   1.3355498055993583E-02   1.3435627262530234E-02
   1.3516237175825379E-02   1.3597330678879535E-02   1.3678910671968780E-02
   1.3760980072747966E-02   1.3843541816354627E-02   1.3926598855513410E-02
   1.4010154160641188E-02   1.4094210719952777E-02   1.4178771539567267E-02
   1.4263839643615023E-02   1.4349418074345250E-02   1.4435509892234272E-02
   1.4522118176094395E-02   1.4609246023183451E-02   1.4696896549314976E-02
   1.4785072888969023E-02   1.4873778195403664E-02   1.4963015640767132E-02
   1.5052788416210619E-02   1.5143099732001772E-02   1.5233952817638825E-02
   1.5325350921965427E-02   1.5417297313286133E-02   1.5509795279482610E-02
   1.5602848128130477E-02   1.5696459186616891E-02   1.5790631802258787E-02
   1.5885369342421834E-02   1.5980675194640095E-02   1.6076552766736394E-02
   1.6173005486943372E-02   1.6270036804025282E-02   1.6367650187400499E-02
   1.6465849127264752E-02   1.6564637134715059E-02   1.6664017741874437E-02
   1.6763994502017300E-02   1.6864570989695651E-02   1.6965750800865941E-02
   1.7067537553016765E-02   1.7169934885297229E-02   1.7272946458646139E-02
   1.7376575955921895E-02   1.7480827082033194E-02   1.7585703564070472E-02
   1.7691209151438139E-02   1.7797347615987578E-02   1.7904122752150923E-02
   1.8011538377075656E-02   1.8119598330759951E-02   1.8228306476188831E-02
   1.8337666699471147E-02   1.8447682909977316E-02   1.8558359040477927E-02
   1.8669699047283085E-02   1.8781706910382643E-02   1.8894386633587227E-02
   1.9007742244670077E-02   1.9121777795509744E-02   1.9236497362233602E-02
   1.9351905045362210E-02   1.9468004969954527E-02   1.9584801285753985E-02
   1.9702298167335344E-02   1.9820499814252556E-02   1.9939410451187314E-02
   2.0059034328098628E-02   2.0179375720373156E-02   2.0300438928976511E-02
   2.0422228280605356E-02   2.0544748127840483E-02   2.0668002849300718E-02
   2.0791996849797736E-02   2.0916734560491826E-02   2.1042220439048496E-02
   2.1168458969796047E-02   2.1295454663884016E-02   2.1423212059442601E-02
   2.1551735721742959E-02   2.1681030243358483E-02   2.1811100244326979E-02
   2.1941950372313813E-02   2.2073585302775995E-02   2.2206009739127217E-02
   2.2339228412903884E-02   2.2473246083932027E-02   2.2608067540495273E-02
   2.2743697599503773E-02   2.2880141106664031E-02   2.3017402936649851E-02
   2.3155487993274156E-02   2.3294401209661870E-02   2.3434147548423764E-02
   2.3574732001831362E-02   2.3716159591992806E-02   2.3858435371029742E-02
   2.4001564421255252E-02   2.4145551855352842E-02   2.4290402816556370E-02
   2.4436122478831125E-02   2.4582716047055864E-02   2.4730188757205940E-02
   2.4878545876537504E-02   2.5027792703772714E-02   2.5177934569286037E-02
   2.5328976835291690E-02   2.5480924896031994E-02   2.5633784177967023E-02
   2.5787560139965159E-02   2.5942258273494855E-02   2.6097884102817444E-02
   2.6254443185181112E-02   2.6411941111015882E-02   2.6570383504129831E-02
   2.6729776021906366E-02   2.6890124355502639E-02   2.7051434230049104E-02
   2.7213711404850197E-02   2.7376961673586213E-02   2.7541190864516282E-02
   2.7706404840682528E-02   2.7872609500115386E-02   2.8039810776040092E-02
   2.8208014637084378E-02   2.8377227087487276E-02   2.8547454167309198E-02
   2.8718701952643151E-02   2.8890976555827182E-02   2.9064284125658004E-02
   2.9238630847605862E-02   2.9414022944030598E-02   2.9590466674398967E-02
   2.9767968335503135E-02   2.9946534261680459E-02   3.0126170825034503E-02
   3.0306884435657270E-02   3.0488681541852729E-02   3.0671568630361613E-02
   3.0855552226587389E-02   3.1040638894823620E-02   3.1226835238482586E-02
   3.1414147900325075E-02   3.1602583562691626E-02   3.1792148947734973E-02
   3.1982850817653820E-02   3.2174695974927899E-02   3.2367691262554399E-02
   3.2561843564285681E-02   3.2757159804868319E-02   3.2953646950283487E-02
   3.3151312007988681E-02   3.3350162027160811E-02   3.3550204098940613E-02
   3.3751445356678428E-02   3.3953892976181392E-02   3.4157554175961918E-02
   3.4362436217487635E-02   3.4568546405432658E-02   3.4775892087930284E-02
   3.4984480656827049E-02   3.5194319547938238E-02   3.5405416241304777E-02
   3.5617778261451481E-02   3.5831413177646897E-02   3.6046328604164346E-02
   3.6262532200544602E-02   3.6480031671859876E-02   3.6698834768979338E-02
   3.6918949288836017E-02   3.7140383074695228E-02   3.7363144016424404E-02
   3.7587240050764456E-02   3.7812679161602580E-02   3.8039469380246535E-02
   3.8267618785700445E-02   3.8497135504942090E-02   3.8728027713201670E-02
   3.8960303634242126E-02   3.9193971540640943E-02   3.9429039754073428E-02
   3.9665516645597684E-02   3.9903410635940884E-02   4.0142730195787305E-02
   4.0383483846067679E-02   4.0625680158250362E-02   4.0869327754633783E-02
   4.1114435308640729E-02   4.1361011545113922E-02   4.1609065240613419E-02
   4.1858605223715477E-02   4.2109640375312868E-02   4.2362179628917133E-02
   4.2616231970962114E-02   4.2871806441109196E-02   4.3128912132554251E-02
   4.3387558192336029E-02   4.3647753821646297E-02   4.3909508276141568E-02
   4.4172830866256424E-02   4.4437730957518573E-02   4.4704217970865372E-02
   4.4972301382962238E-02   4.5241990726522491E-02   4.5513295590628999E-02
   4.5786225621057421E-02   4.6060790520601115E-02   4.6337000049397788E-02
   4.6614864025257739E-02   4.6894392323993811E-02   4.7175594879753119E-02
   4.7458481685350301E-02   4.7743062792602646E-02   4.8029348312666822E-02
   4.8317348416377304E-02   4.8607073334586595E-02   4.8898533358507086E-02
   4.9191738840054663E-02   4.9486700192194089E-02   4.9783427889286032E-02
   5.0081932467435884E-02   5.0382224524844289E-02   5.0684314722159493E-02
   5.0988213782831276E-02   5.1293932493466823E-02   5.1601481704188212E-02
   5.1910872328991768E-02   5.2222115346109016E-02   5.2535221798369648E-02
   5.2850202793566010E-02   5.3167069504819517E-02   5.3485833170948766E-02
   5.3806505096839471E-02   5.4129096653816169E-02   5.4453619280015700E-02
   5.4780084480762437E-02   5.5108503828945450E-02   5.5438888965397198E-02
   5.5771251599274353E-02   5.6105603508440072E-02   5.6441956539848362E-02
   5.6780322609930045E-02   5.7120713704980619E-02   5.7463141881549898E-02
   5.7807619266833456E-02   5.8154158059065882E-02   5.8502770527915811E-02
   5.8853469014882830E-02   5.9206265933696094E-02   5.9561173770714876E-02
   5.9918205085330772E-02   6.0277372510371879E-02   6.0638688752508628E-02
   6.1002166592661548E-02   6.1367818886410762E-02   6.1735658564407325E-02
   6.2105698632786366E-02   6.2477952173581992E-02   6.2852432345144094E-02
   6.3229152382556830E-02   6.3608125598059048E-02   6.3989365381466309E-02
   6.4372885200595004E-02   6.4758698601687911E-02   6.5146819209841833E-02
   6.5537260729436914E-02   6.5930036944567671E-02   6.6325161719475959E-02
   6.6722648998985556E-02   6.7122512808938647E-02   6.7524767256634019E-02
   6.7929426531266990E-02   6.8336504904371223E-02   6.8746016730262052E-02
   6.9157976446481917E-02   6.9572398574247157E-02   6.9989297718896823E-02
   7.0408688570343034E-02   7.0830585903523216E-02   7.1255004578853948E-02
   7.1681959542686538E-02   7.2111465827764287E-02   7.2543538553681522E-02
   7.2978192927344199E-02   7.3415444243432229E-02   7.3855307884863525E-02
   7.4297799323259611E-02   7.4742934119412893E-02   7.5190727923755640E-02
   7.5641196476830513E-02   7.6094355609762646E-02   7.6550221244733485E-02
   7.7008809395456124E-02   7.7470136167652109E-02   7.7934217759530036E-02
   7.8401070462265507E-02   7.8870710660482596E-02   7.9343154832737003E-02
   7.9818419552000558E-02   8.0296521486147313E-02   8.0777477398440906E-02
   8.1261304148023711E-02   8.1748018690406918E-02   8.2237638077962680E-02
   8.2730179460417011E-02   8.3225660085344488E-02   8.3724097298664119E-02
   8.4225508545136579E-02   8.4729911368862751E-02   8.5237323413783608E-02
   8.5747762424181237E-02   8.6261246245181347E-02   8.6777792823256608E-02
   8.7297420206731660E-02   8.7820146546288808E-02   8.8345990095475238E-02
   8.8874969211211130E-02   8.9407102354299023E-02   8.9942408089933937E-02
   9.0480905088214950E-02   9.1022612124657412E-02   9.1567548080706329E-02
   9.2115731944250503E-02   9.2667182810137819E-02   9.3221919880691215E-02
   9.3779962466225428E-02   9.4341329985564853E-02   9.4906041966561730E-02
   9.5474118046615444E-02   9.6045577973192228E-02   9.6620441604345672E-02
   9.7198728909237808E-02   9.7780459968660735E-02   9.8365654975558714E-02
   9.8954334235550861E-02   9.9546518167454190E-02   1.0014222730380697E-01
   1.0074148229139275E-01   1.0134430389176416E-01   1.0195071298176742E-01
   1.0256073055406675E-01   1.0317437771766912E-01   1.0379167569844891E-01
   1.0441264583967272E-01   1.0503730960252411E-01   1.0566568856662829E-01
   1.0629780443057667E-01   1.0693367901245115E-01   1.0757333425034823E-01
   1.0821679220290283E-01   1.0886407504981151E-01   1.0951520509235559E-01
   1.1017020475392345E-01   1.1082909658053237E-01   1.1149190324134976E-01
   1.1215864752921348E-01   1.1282935236115163E-01   1.1350404077890132E-01
   1.1418273594942634E-01   1.1486546116543417E-01   1.1555223984589150E-01
   1.1624309553653878E-01   1.1693805191040356E-01   1.1763713276831213E-01
   1.1834036203940014E-01   1.1904776378162145E-01   1.1975936218225527E-01
   1.2047518155841182E-01   1.2119524635753608E-01   1.2191958115790946E-01
   1.2264821066914978E-01   1.2338115973270876E-01   1.2411845332236775E-01
   1.2486011654473059E-01   1.2560617463971457E-01   1.2635665298103857E-01
   1.2711157707670842E-01   1.2787097256949989E-01   1.2863486523743842E-01
   1.2940328099427609E-01   1.3017624588996515E-01   1.3095378611112893E-01
   1.3173592798152839E-01   1.3252269796252628E-01   1.3331412265354664E-01
   1.3411022879253118E-01   1.3491104325639153E-01   1.3571659306145742E-01
   1.3652690536392062E-01   1.3734200746027458E-01   1.3816192678774966E-01
   1.3898669092474347E-01   1.3981632759124657E-01   1.4065086464926324E-01
   1.4149033010322701E-01   1.4233475210041066E-01   1.4318415893133149E-01
   1.4403857903015005E-01   1.4489804097506351E-01   1.4576257348869309E-01
   1.4663220543846528E-01   1.4750696583698628E-01   1.4838688384241042E-01
   1.4927198875880160E-01   1.5016231003648761E-01   1.5105787727240763E-01
   1.5195872021045204E-01   1.5286486874179486E-01   1.5377635290521835E-01
   1.5469320288742947E-01   1.5561544902336835E-01   1.5654312179650814E-01
   1.5747625183914607E-01   1.5841486993268572E-01   1.5935900700791045E-01
   1.6030869414524643E-01   1.6126396257501716E-01   1.6222484367768719E-01
   1.6319136898409625E-01   1.6416357017568256E-01   1.6514147908469548E-01
   1.6612512769439733E-01   1.6711454813925386E-01   1.6810977270511279E-01
   1.6911083382937131E-01   1.7011776410113055E-01   1.7113059626133814E-01
   1.7214936320291777E-01   1.7317409797088590E-01   1.7420483376245474E-01
   1.7524160392712176E-01   1.7628444196674498E-01   1.7733338153560396E-01
   1.7838845644044626E-01   1.7944970064051807E-01   1.8051714824758031E-01
   1.8159083352590821E-01   1.8267079089227528E-01   1.8375705491591995E-01
   1.8484966031849617E-01   1.8594864197400576E-01   1.8705403490871375E-01
   1.8816587430104509E-01   1.8928419548146300E-01   1.9040903393232825E-01
   1.9154042528773907E-01   1.9267840533335109E-01   1.9382301000617719E-01
   1.9497427539436624E-01   1.9613223773696092E-01   1.9729693342363372E-01
   1.9846839899440069E-01   1.9964667113931267E-01   2.0083178669812335E-01
   2.0202378265993345E-01   2.0322269616281088E-01   2.0442856449338620E-01
   2.0564142508642277E-01   2.0686131552436121E-01   2.0808827353683723E-01
   2.0932233700017305E-01   2.1056354393684076E-01   2.1181193251489819E-01
   2.1306754104739559E-01   2.1433040799175332E-01   2.1560057194910978E-01
   2.1687807166363862E-01   2.1816294602183478E-01   2.1945523405176900E-01
   2.2075497492230947E-01   2.2206220794231094E-01   2.2337697255976918E-01
   2.2469930836094212E-01   2.2602925506943436E-01   2.2736685254524702E-01
   2.2871214078379024E-01   2.3006515991485826E-01   2.3142595020156678E-01
   2.3279455203925090E-01   2.3417100595432369E-01   2.3555535260309404E-01
   2.3694763277054320E-01   2.3834788736905926E-01   2.3975615743712858E-01
   2.4117248413798337E-01   2.4259690875820444E-01   2.4402947270627867E-01
   2.4547021751110956E-01   2.4691918482048092E-01   2.4837641639947125E-01
   2.4984195412882007E-01   2.5131584000324303E-01   2.5279811612969655E-01
   2.5428882472558917E-01   2.5578800811694097E-01   2.5729570873648783E-01
   2.5881196912173066E-01   2.6033683191292833E-01   2.6187033985103314E-01
   2.6341253577556750E-01   2.6496346262244169E-01   2.6652316342170945E-01
   2.6809168129526356E-01   2.6966905945446612E-01   2.7125534119771677E-01
   2.7285056990795337E-01   2.7445478905008747E-01   2.7606804216837083E-01
   2.7769037288369336E-01   2.7932182489080976E-01   2.8096244195549508E-01
   2.8261226791162669E-01   2.8427134665819176E-01   2.8593972215621855E-01
   2.8761743842563109E-01   2.8930453954202456E-01   2.9100106963336042E-01
   2.9270707287658032E-01   2.9442259349413663E-01   2.9614767575043854E-01
   2.9788236394821138E-01   2.9962670242476924E-01   3.0138073554819733E-01
   3.0314450771344392E-01   3.0491806333831950E-01   3.0670144685940204E-01
   3.0849470272784607E-01   3.1029787540509390E-01   3.1211100935848857E-01
   3.1393414905678430E-01   3.1576733896555509E-01   3.1761062354249836E-01
   3.1946404723263155E-01   3.2132765446338130E-01   3.2320148963956119E-01
   3.2508559713823837E-01   3.2698002130348491E-01   3.2888480644101398E-01
   3.3079999681269701E-01   3.3272563663096139E-01   3.3466177005306519E-01
   3.3660844117524785E-01   3.3856569402675429E-01   3.4053357256373062E-01
   3.4251212066298808E-01   3.4450138211563486E-01   3.4650140062057194E-01
   3.4851221977785191E-01   3.5053388308189670E-01   3.5256643391457426E-01
   3.5460991553812998E-01   3.5666437108796994E-01   3.5872984356529697E-01
   3.6080637582959241E-01   3.6289401059094428E-01   3.6499279040221794E-01
   3.6710275765106776E-01   3.6922395455178547E-01   3.7135642313698386E-01
   3.7350020524911326E-01   3.7565534253180688E-01   3.7782187642105308E-01
   3.7999984813619242E-01   3.8218929867073448E-01   3.8439026878299482E-01
   3.8660279898654509E-01   3.8882692954047787E-01   3.9106270043947949E-01
   3.9331015140370934E-01   3.9556932186848365E-01   3.9784025097375864E-01
   4.0012297755341103E-01   4.0241754012431252E-01   4.0472397687519568E-01
   4.0704232565530651E-01   4.0937262396284169E-01   4.1171490893316698E-01
   4.1406921732681334E-01   4.1643558551724652E-01   4.1881404947840822E-01
   4.2120464477202429E-01   4.2360740653467666E-01   4.2602236946463595E-01
   4.2844956780845023E-01   4.3088903534728712E-01   4.3334080538302538E-01
   4.3580491072409272E-01   4.3828138367104386E-01   4.4077025600187947E-01
   4.4327155895709724E-01   4.4578532322447473E-01   4.4831157892357876E-01
   4.5085035558999742E-01   4.5340168215929116E-01   4.5596558695065853E-01
   4.5854209765031306E-01   4.6113124129456717E-01   4.6373304425261769E-01
   4.6634753220903169E-01   4.6897473014592544E-01   4.7161466232483468E-01
   4.7426735226826933E-01   4.7693282274095294E-01   4.7961109573073635E-01
   4.8230219242918693E-01   4.8500613321184621E-01   4.8772293761815172E-01
   4.9045262433101933E-01   4.9319521115608134E-01   4.9595071500057619E-01
   4.9871915185188442E-01   5.0150053675570783E-01   5.0429488379388610E-01
   5.0710220606184708E-01   5.0992251564568558E-01   5.1275582359886762E-01
   5.1560213991855230E-01   5.1846147352153127E-01   5.2133383221977725E-01
   5.2421922269559917E-01   5.2711765047639825E-01   5.3002911990902146E-01
   5.3295363413370689E-01   5.3589119505761540E-01   5.3884180332794840E-01
   5.4180545830463989E-01   5.4478215803262497E-01   5.4777189921367653E-01
   5.5077467717780615E-01   5.5379048585422519E-01   5.5681931774186100E-01
   5.5986116387942420E-01   5.6291601381502132E-01   5.6598385557531006E-01
   5.6906467563419150E-01   5.7215845888103445E-01   5.7526518858842923E-01
   5.7838484637946386E-01   5.8151741219452158E-01   5.8466286425759240E-01
   5.8782117904209596E-01   5.9099233123621209E-01   5.9417629370771263E-01
   5.9737303746829329E-01   6.0058253163739916E-01   6.0380474340554158E-01
   6.0703963799710170E-01   6.1028717863261683E-01   6.1354732649054633E-01
   6.1682004066851392E-01   6.2010527814402094E-01   6.2340299373463015E-01
   6.2671314005761336E-01   6.3003566748906359E-01   6.3337052412246486E-01
   6.3671765572671946E-01   6.4007700570362835E-01   6.4344851504482325E-01
   6.4683212228814768E-01   6.5022776347348288E-01   6.5363537209801914E-01
   6.5705487907096860E-01   6.6048621266771979E-01   6.6392929848342919E-01
   6.6738405938605050E-01   6.7085041546880197E-01   6.7432828400206668E-01
   6.7781757938472764E-01   6.8131821309493912E-01   6.8483009364032854E-01
   6.8835312650763425E-01   6.9188721411177645E-01   6.9543225574436396E-01
   6.9898814752163374E-01   7.0255478233182989E-01   7.0613204978201960E-01
   7.0971983614434786E-01   7.1331802430173674E-01   7.1692649369302619E-01
   7.2054512025756468E-01   7.2417377637924962E-01   7.2781233083002173E-01
   7.3146064871281735E-01   7.3511859140398617E-01   7.3878601649517273E-01
   7.4246277773467440E-01   7.4614872496827778E-01   7.4984370407957779E-01
   7.5354755692979347E-01   7.5726012129707954E-01   7.6098123081534663E-01
   7.6471071491259901E-01   7.6844839874879467E-01   7.7219410315324233E-01
   7.7594764456154197E-01   7.7970883495208221E-01   7.8347748178210430E-01
   7.8725338792334509E-01   7.9103635159727559E-01   7.9482616630994063E-01
   7.9862262078642432E-01   8.0242549890494730E-01   8.0623457963061718E-01
   8.1004963694884780E-01   8.1387043979846241E-01   8.1769675200450365E-01
   8.2152833221076516E-01   8.2536493381206744E-01   8.2920630488629921E-01
   8.3305218812624493E-01   8.3690232077122273E-01   8.4075643453855642E-01
   8.4461425555490666E-01   8.4847550428748741E-01   8.5233989547519495E-01
   8.5620713805967785E-01   8.6007693511637762E-01   8.6394898378557061E-01
   8.6782297520344232E-01   8.7169859443322828E-01   8.7557552039645603E-01
   8.7945342580432295E-01   8.8333197708924616E-01   8.8721083433662706E-01
   8.9108965121686379E-01   8.9496807491765906E-01   8.9884574607666112E-01
   9.0272229871448650E-01   9.0659736016816406E-01   9.1047055102505536E-01
   9.1434148505729262E-01   9.1820976915678931E-01   9.2207500327087488E-01
   9.2593678033860416E-01   9.2979468622780059E-01   9.3364829967288954E-01
   9.3749719221357852E-01   9.4134092813444770E-01   9.4517906440551247E-01
   9.4901115062382002E-01   9.5283672895615157E-01   9.5665533408289294E-01
   9.6046649314314880E-01   9.6426972568116665E-01   9.6806454359415306E-01
   9.7185045108155055E-01   9.7562694459585841E-01   9.7939351279507691E-01
   9.8314963649685727E-01   9.8689478863444113E-01   9.9062843421448143E-01
   9.9435003027682667E-01   9.9805902585636563E-01   1.0017548619470265E+00
   1.0054369714680229E+00   1.0091047792324477E+00   1.0127577019183165E+00
   1.0163951480421618E+00   1.0200165179352834E+00   1.0236212037227672E+00
   1.0272085893053748E+00   1.0307780503444255E+00   1.0343289542497800E+00
   1.0378606601710463E+00   1.0413725189921250E+00   1.0448638733292208E+00
   1.0483340575324414E+00   1.0517823976911120E+00   1.0552082116429378E+00
   1.0586108089871424E+00   1.0619894911017205E+00   1.0653435511649401E+00
   1.0686722741812325E+00   1.0719749370116154E+00   1.0752508084087888E+00
   1.0784991490570535E+00   1.0817192116171974E+00   1.0849102407765039E+00
   1.0880714733040333E+00   1.0912021381113308E+00   1.0943014563187199E+00
   1.0973686413273427E+00   1.1004028988971006E+00   1.1034034272306661E+00
   1.1063694170637246E+00   1.1093000517616163E+00   1.1121945074225419E+00
   1.1150519529875049E+00   1.1178715503571581E+00   1.1206524545157293E+00
   1.1233938136621942E+00   1.1260947693488774E+00   1.1287544566276480E+00
   1.1313720042038917E+00   1.1339465345984336E+00   1.1364771643175855E+00
   1.1389630040314973E+00   1.1414031587609883E+00   1.1437967280730337E+00
   1.1461428062850838E+00   1.1484404826783903E+00   1.1506888417205132E+00
   1.1528869632971861E+00   1.1550339229537052E+00   1.1571287921460214E+00
   1.1591706385016922E+00   1.1611585260908754E+00   1.1630915157075143E+00
   1.1649686651608839E+00   1.1667890295776564E+00   1.1685516617146365E+00
   1.1702556122823218E+00   1.1718999302794331E+00   1.1734836633385592E+00
   1.1750058580830536E+00   1.1764655604953105E+00   1.1778618162965568E+00
   1.1791936713382707E+00   1.1804601720053478E+00   1.1816603656311184E+00
   1.1827933009243154E+00   1.1838580284080873E+00   1.1848536008711357E+00
   1.1857790738310514E+00   1.1866335060099185E+00   1.1874159598222349E+00
   1.1881255018751957E+00   1.1887612034813690E+00   1.1893221411837929E+00
   1.1898073972934904E+00   1.1902160604394063E+00   1.1905472261307442E+00
   1.1907999973316696E+00   1.1909734850483360E+00   1.1910668089281642E+00
   1.1910790978713024E+00   1.1910094906541644E+00   1.1908571365649372E+00
   1.1906211960509208E+00   1.1903008413775520E+00   1.1898952572989423E+00
   1.1894036417397318E+00   1.1888252064880551E+00   1.1881591778993792E+00
   1.1874047976109576E+00   1.1865613232666199E+00   1.1856280292515951E+00
   1.1846042074370324E+00   1.1834891679338759E+00   1.1822822398557027E+00
   1.1809827720901203E+00   1.1795901340782893E+00   1.1781037166021078E+00
   1.1765229325785640E+00   1.1748472178607350E+00   1.1730760320448845E+00
   1.1712088592830685E+00   1.1692452091006442E+00   1.1671846172180318E+00
   1.1650266463760506E+00   1.1627708871641200E+00   1.1604169588505824E+00
   1.1579645102143663E+00   1.1554132203771827E+00   1.1527627996354033E+00
   1.1500129902907417E+00   1.1471635674788230E+00   1.1442143399946869E+00
   1.1411651511142407E+00   1.1380158794106383E+00   1.1347664395645300E+00
   1.1314167831670872E+00   1.1279668995146752E+00   1.1244168163940071E+00
   1.1207666008565862E+00   1.1170163599812006E+00   1.1131662416232064E+00
   1.1092164351492981E+00   1.1051671721564420E+00   1.1010187271735958E+00
   1.0967714183448352E+00   1.0924256080924506E+00   1.0879817037585677E+00
   1.0834401582238111E+00   1.0788014705014972E+00   1.0740661863058287E+00
   1.0692348985925351E+00   1.0643082480703780E+00   1.0592869236819247E+00
   1.0541716630519720E+00   1.0489632529019934E+00   1.0436625294289537E+00
   1.0382703786468435E+00   1.0327877366892575E+00   1.0272155900713500E+00
   1.0215549759094857E+00   1.0158069820969082E+00   1.0099727474337532E+00
   1.0040534617097272E+00   9.9805036573780093E-01   9.9196475133725548E-01
   9.8579796126445418E-01   9.7955138908971928E-01   9.7322647901872306E-01
   9.6682472565682998E-01   9.6034767371484875E-01   9.5379691765470442E-01
   9.4717410127355928E-01   9.4048091722498373E-01   9.3371910647579326E-01
   9.2689045769725087E-01   9.1999680658937777E-01   9.1304003513717602E-01
   9.0602207079764707E-01   8.9894488561654995E-01   8.9181049527393408E-01
   8.8462095805754792E-01   8.7737837376333538E-01   8.7008488252230765E-01
   8.6274266355318385E-01   8.5535393384030378E-01   8.4792094673641694E-01
   8.4044599049007385E-01   8.3293138669746503E-01   8.2537948867867950E-01
   8.1779267977848524E-01   8.1017337159187552E-01   8.0252400211476060E-01
   7.9484703382033928E-01   7.8714495166183440E-01   7.7942026100243667E-01
   7.7167548547346065E-01   7.6391316476189441E-01   7.5613585232868752E-01
   7.4834611305931131E-01   7.4054652084829919E-01   7.3273965611967218E-01
   7.2492810328534352E-01   7.1711444814379444E-01   7.0930127522151487E-01
   7.0149116505991338E-01   6.9368669145060924E-01   6.8589041862223143E-01
   6.7810489838207622E-01   6.7033266721618967E-01   6.6257624335167609E-01
   6.5483812378525874E-01   6.4712078128235373E-01   6.3942666135115656E-01
   6.3175817919648336E-01   6.2411771665834559E-01   6.1650761914049035E-01
   6.0893019253438385E-01   6.0138770014436560E-01   5.9388235961995406E-01
   5.8641633990154707E-01   5.7899175818600168E-01   5.7161067691885026E-01
   5.6427510082016374E-01   5.5698697395132069E-01   5.4974817683022337E-01
   5.4256052360272944E-01   5.3542575927835367E-01   5.2834555703852715E-01
   5.2132151562596041E-01   5.1435515682391020E-01   5.0744792303438246E-01
   5.0060117496454881E-01   4.9381618943087813E-01   4.8709415729071004E-01
   4.8043618151120959E-01   4.7384327538583154E-01   4.6731636090862688E-01
   4.6085626731686891E-01   4.5446372981265387E-01   4.4813938847424056E-01
   4.4188378736801037E-01   4.3569737387201379E-01   4.2958049822210714E-01
   4.2353341329171690E-01   4.1755627461623906E-01   4.1164914067302499E-01
   4.0581197342780490E-01   4.0004463915824034E-01   3.9434690956509311E-01
   3.8871846318122882E-01   3.8315888708834916E-01   3.7766767895093523E-01
   3.7224424937642397E-01   3.6688792461007202E-01   3.6159794957233121E-01
   3.5637349124581597E-01   3.5121364241812036E-01   3.4611742578580973E-01
   3.4108379842385472E-01   3.3611165662363729E-01   3.3119984110136608E-01
   3.2634714257733238E-01   3.2155230772492616E-01   3.1681404548662845E-01
   3.1213103375242668E-01   3.0750192639412771E-01   3.0292536064695630E-01
   2.9839996482760484E-01   2.9392436637549024E-01   2.8949720020146624E-01
   2.8511711732555595E-01   2.8078279378243975E-01   2.7649293977050177E-01
   2.7224630901710362E-01   2.6804170832957397E-01   2.6387800729802485E-01
   2.5975414811266168E-01   2.5566915545698510E-01   2.5162214644591974E-01
   2.4761234056701675E-01   2.4363906951674119E-01   2.3970178685604035E-01
   2.3580007750697254E-01   2.3193366699609116E-01   2.2810243038479316E-01
   2.2430640081514661E-01   2.2054576548021596E-01   2.1682080969534265E-01
   2.1313182228574384E-01   2.0947909618403443E-01   2.0586292639539483E-01
   2.0228360862627881E-01   1.9874143746625614E-01   1.9523670409935887E-01
   1.9176969353907486E-01   1.8834068140488761E-01   1.8494993028810716E-01
   1.8159768579001240E-01   1.7828417235427885E-01   1.7500958905517991E-01
   1.7177410553852054E-01   1.6857785833787381E-01   1.6542094779807393E-01
   1.6230343582541212E-01   1.5922534464618548E-01   1.5618665669258441E-01
   1.5318731565256660E-01   1.5022722862812979E-01   1.4730626925704793E-01
   1.4442428157977749E-01   1.4158108438625799E-01   1.3877647576204641E-01
   1.3601023756895089E-01   1.3328213963612062E-01   1.3059194349417133E-01
   1.2793940554730895E-01   1.2532427963776269E-01   1.2274631900694387E-01
   1.2020527769537237E-01   1.1770091144793379E-01   1.1523297820371690E-01
   1.1280123825284696E-01   1.1040545413904333E-01   1.0804539037860213E-01
   1.0572081305623639E-01   1.0343148934726701E-01   1.0117718700511769E-01
   9.8957673843565741E-02   9.6772717235052486E-02   9.4622083639645138E-02
   9.2505538173906110E-02   9.0422844224821067E-02   8.8373763110884254E-02
   8.6358053790250411E-02   8.4375472614362151E-02   8.2425773124493007E-02
   8.0508705888079096E-02   7.8624018371437329E-02   7.6771454845401835E-02
   7.4950756320483952E-02   7.3161660508327647E-02   7.1403901806451703E-02
   6.9677211303517991E-02   6.7981316802621983E-02   6.6315942860353944E-02
   6.4680810839621600E-02   6.3075638974448761E-02   6.1500142445171255E-02
   5.9954033462636232E-02   5.8437021360178344E-02   5.6948812692292988E-02
   5.5489111339057214E-02   5.4057618615463092E-02   5.2654033384928196E-02
   5.1278052176334882E-02   4.9929369304025882E-02   4.8607676990250051E-02
   4.7312665489609100E-02   4.6044023215106200E-02   4.4801436865441094E-02
   4.3584591553233791E-02   4.2393170933892318E-02   4.1226857334868604E-02
   4.0085331885072316E-02   3.8968274644234233E-02   3.7875364732030577E-02
   3.6806280456796944E-02   3.5760699443675679E-02   3.4738298762054094E-02
   3.3738755052162860E-02   3.2761744650714700E-02   3.1806943715472963E-02
   3.0874028348648094E-02   2.9962674719027829E-02   2.9072559182753487E-02
   2.8203358402661156E-02   2.7354749466111758E-02   2.6526410001239186E-02
   2.5718018291550074E-02   2.4929253388812737E-02   2.4159795224176609E-02
   2.3409324717466710E-02   2.2677523884600773E-02   2.1964075943079434E-02
   2.1268665415502389E-02   2.0590978231065826E-02   1.9930701824998561E-02
   1.9287525235896517E-02   1.8661139200916867E-02   1.8051236248795274E-02
   1.7457510790651248E-02   1.6879659208548382E-02   1.6317379941777958E-02
   1.5770373570835997E-02   1.5238342899065489E-02   1.4720993031937062E-02
   1.4218031453943189E-02   1.3729168103082412E-02   1.3254115442911940E-02
   1.2792588532148525E-02   1.2344305091799387E-02   1.1908985569806565E-02
   1.1486353203189970E-02   1.1076134077676285E-02   1.0678057184802666E-02
   1.0291854476486150E-02   9.9172609170517130E-03   9.5540145327138587E-03
   9.2018564585087097E-03   8.8605309826756996E-03   8.5297855884900152E-03
   8.2093709935491897E-03   7.8990411865193684E-03   7.5985534613490354E-03
   7.3076684489601692E-03   7.0261501464290773E-03   6.7537659436714085E-03
   6.4902866476480702E-03   6.2354865041110413E-03   5.9891432169103106E-03
   5.7510379648853744E-03   5.5209554163669202E-03   5.2986837413164711E-03
   5.0840146211339069E-03   4.8767432561647875E-03   4.6766683709414721E-03
   4.4835922171939345E-03   4.2973205746680539E-03   4.1176627497909700E-03
   3.9444315722247814E-03   3.7774433893515012E-03   3.6165180587337145E-03
   3.4614789385967750E-03   3.3121528763797440E-03   3.1683701954034410E-03
   3.0299646797051060E-03   2.8967735570901453E-03   2.7686374804523125E-03
   2.6454005074144373E-03   2.5269100783424587E-03   2.4130169927860713E-03
   2.3035753843997065E-03   2.1984426943979121E-03   2.0974796435994274E-03
   2.0005502031143650E-03   1.9075215637289838E-03   1.8182641040424840E-03
   1.7326513574101538E-03   1.6505599777470090E-03   1.5718697042458334E-03
   1.4964633250632217E-03   1.4242266400268831E-03   1.3550484224170616E-03
   1.2888203798745183E-03   1.2254371144870392E-03   1.1647960821059525E-03
   1.1067975509436235E-03   1.0513445595023651E-03   9.9834287388464557E-04
   9.4770094453391332E-04   8.9932986245478102E-04   8.5314331496071506E-04
   8.0905754099677805E-04   7.6699128608435376E-04   7.2686575693415374E-04
   6.8860457577316634E-04   6.5213373443054508E-04   6.1738154822676332E-04
   5.8427860970966300E-04   5.5275774228031715E-04   5.2275395375087888E-04
   4.9420438987583489E-04   4.6704828789729532E-04   4.4122693014410965E-04
   4.1668359772380876E-04   3.9336352434542166E-04   3.7121385031035637E-04
   3.5018357670758772E-04   3.3022351984840503E-04   3.1128626597497195E-04
   2.9332612627591307E-04   2.7629909224106795E-04   2.6016279138645141E-04
   2.4487644337932701E-04   2.3040081659213957E-04   2.1669818511286799E-04
   2.0373228623814721E-04   1.9146827847427815E-04   1.7987270006999159E-04
   1.6891342810356505E-04   1.5855963814561007E-04   1.4878176451755442E-04
   1.3955146116454480E-04   1.3084156316018938E-04   1.2262604885925478E-04
   1.1488000271312577E-04   1.0757957876153705E-04   1.0070196481279298E-04
   9.4225347323409982E-05   8.8128876986847516E-05   8.2392635039742004E-05
   7.6997600292824992E-05   7.1925616892495908E-05   6.7159362817832688E-05
   6.2682319116663020E-05   5.8478739883186753E-05   5.4533622978539179E-05
   5.0832681494615254E-05   4.7362315960440460E-05   4.4109587289374657E-05
   4.1062190464472781E-05   3.8208428958402264E-05   3.5537189883431992E-05
   3.3037919866162295E-05   3.0700601640861203E-05   2.8515731354508869E-05
   2.6474296575930390E-05   2.4567755000716968E-05   2.2788013842997741E-05
   2.1127409904527889E-05   1.9578690311004178E-05   1.8134993905005704E-05
   1.6789833284485187E-05   1.5537077475304154E-05   1.4370935225913110E-05
   1.3285938911924595E-05   1.2276929038012095E-05   1.1339039324290146E-05
   1.0467682364089964E-05   9.6585358398387253E-06   8.9075292835803576E-06
   8.2108313685334534E-06   7.5648377179887791E-06   6.9661592177283722E-06
   6.4116108182614103E-06   5.8982008126116329E-06   5.4231205769621463E-06
   4.9837347581576874E-06   4.5775718969228531E-06   4.2023154716252343E-06
   3.8557953489186217E-06   3.5359796284780933E-06   3.2409668682844363E-06
   2.9689786772895170E-06   2.7183526625435272E-06   2.4875357180213474E-06
   2.2750776425936545E-06   2.0796250748073029E-06   1.8999157323698460E-06
   1.7347729444737656E-06   1.5831004653458173E-06   1.4438775576648580E-06
   1.3161543347564944E-06   1.1990473507438615E-06   1.0917354281098668E-06
   9.9345571240631976E-07   9.0349994412866263E-07   8.2121093806063331E-07
   7.4597926068034436E-07   6.7724009650714883E-07   6.1447029455658993E-07
   5.5718558635799239E-07   5.0493796727521488E-07   4.5731323315514826E-07
   4.1392866461015370E-07   3.7443085151927579E-07   3.3849365060825824E-07
   3.0581626923970502E-07   2.7612146881176418E-07   2.4915388142610985E-07
   2.2467843374343222E-07   2.0247887219682969E-07   1.8235638398017613E-07
   1.6412830846948276E-07   1.4762693397030146E-07   1.3269837491315495E-07
   1.1920152484170120E-07   1.0700708075472846E-07   9.5996634573056413E-08
   8.6061827705923043E-08   7.7103564888431901E-08   6.9031283652101178E-08
   6.1762275974496966E-08   5.5221058831370435E-08   4.9338790545687154E-08
   4.4052729992491103E-08   3.9305735876751316E-08   3.5045803453276826E-08
   3.1225636203545717E-08   2.7802250123980560E-08   2.4736608413925843E-08
   2.1993284479464848E-08   1.9540151291381051E-08   1.7348095252158054E-08
   1.5390752838062113E-08   1.3644268388208596E-08   1.2087071513227069E-08
   1.0699672691862534E-08   9.4644757147376742E-09   8.3656057207102702E-09
   7.3887516529498876E-09   6.5210220391877060E-09   5.7508130737223791E-09
   5.0676880478522347E-09   4.4622672406078982E-09   3.9261274431365739E-09
   3.4517103479947454E-09   3.0322390890930843E-09   2.6616422692564588E-09
   2.3344848604610053E-09   2.0459054069342358E-09   1.7915590035946666E-09
   1.5675655619028302E-09   1.3704629122302516E-09   1.1971643264579662E-09
   1.0449200768182633E-09   9.1128267711550936E-10   7.9407548052290857E-10
   6.9136433426654521E-10   6.0143201578646579E-10   5.2275519751309626E-10
   4.5398370831795733E-10   3.9392187908819780E-10   3.4151177782848511E-10
   2.9581815630072871E-10   2.5601494555727564E-10   2.2137315188793374E-10
   1.9125001776278387E-10   1.6507932438472688E-10   1.4236272353776112E-10
   1.2266199659512758E-10   1.0559214789812783E-10   9.0815248290592698E-11
   7.8034952451277227E-11   6.6991620859266907E-11   5.7457983805074786E-11
   4.9235290868764195E-11   4.2149894769554043E-11   3.6050223489609019E-11
   3.0804099126114968E-11   2.6296366065815280E-11   2.2426794838076453E-11
   1.9108231417134383E-11   1.6264964840171830E-11   1.3831288811980726E-11
   1.1750235503935725E-11   9.9724620477971874E-12   8.4552722947113629E-12
   7.1617582763130771E-12   6.0600474861802882E-12   5.1226436127438993E-12
   4.3258497144960337E-12   3.6492640491039478E-12   3.0753398628057592E-12
   2.5890014271427278E-12   2.1773094875729117E-12   1.8291700727842114E-12
   1.5350813136895442E-12   1.2869135454522549E-12   1.0777185220262273E-12
   9.0156406749050278E-13   7.5339092817177449E-13   6.2888897986019387E-13
   5.2439029048280159E-13   4.3677684506497456E-13   3.6340101089268333E-13
   3.0201706031602203E-13   2.5072227989288623E-13   2.0790638110295108E-13
   1.7220808435302151E-13   1.4247796028693951E-13   0.0000000000000000E+00
   0.0000000000000000E+00   0.0000000000000000E+00   0.0000000000000000E+00
   0.0000000000000000E+00   0.0000000000000000E+00   0.0000000000000000E+00
   0.0000000000000000E+00   0.0000000000000000E+00   0.0000000000000000E+00
   0.0000000000000000E+00   0.0000000000000000E+00   0.0000000000000000E+00
   0.0000000000000000E+00   0.0000000000000000E+00   0.0000000000000000E+00
   0.0000000000000000E+00   0.0000000000000000E+00   0.0000000000000000E+00
   0.0000000000000000E+00   0.0000000000000000E+00   0.0000000000000000E+00
   0.0000000000000000E+00   0.0000000000000000E+00   0.0000000000000000E+00
   0.0000000000000000E+00   0.0000000000000000E+00   0.0000000000000000E+00
   0.0000000000000000E+00   0.0000000000000000E+00   0.0000000000000000E+00
   0.0000000000000000E+00   0.0000000000000000E+00   0.0000000000000000E+00
   0.0000000000000000E+00   0.0000000000000000E+00   0.0000000000000000E+00
   0.0000000000000000E+00   0.0000000000000000E+00   0.0000000000000000E+00
   0.0000000000000000E+00   0.0000000000000000E+00   0.0000000000000000E+00
   0.0000000000000000E+00   0.0000000000000000E+00   0.0000000000000000E+00
   0.0000000000000000E+00   0.0000000000000000E+00   0.0000000000000000E+00
   0.0000000000000000E+00   0.0000000000000000E+00   0.0000000000000000E+00
   0.0000000000000000E+00   0.0000000000000000E+00   0.0000000000000000E+00
   0.0000000000000000E+00   0.0000000000000000E+00   0.0000000000000000E+00
   0.0000000000000000E+00   0.0000000000000000E+00   0.0000000000000000E+00
   0.0000000000000000E+00   0.0000000000000000E+00   0.0000000000000000E+00
   0.0000000000000000E+00   0.0000000000000000E+00   0.0000000000000000E+00
   0.0000000000000000E+00   0.0000000000000000E+00   0.0000000000000000E+00
   0.0000000000000000E+00   0.0000000000000000E+00   0.0000000000000000E+00
   0.0000000000000000E+00   0.0000000000000000E+00   0.0000000000000000E+00
   0.0000000000000000E+00   0.0000000000000000E+00   0.0000000000000000E+00
   0.0000000000000000E+00   0.0000000000000000E+00   0.0000000000000000E+00
   0.0000000000000000E+00   0.0000000000000000E+00   0.0000000000000000E+00
   0.0000000000000000E+00   0.0000000000000000E+00   0.0000000000000000E+00
   0.0000000000000000E+00   0.0000000000000000E+00   0.0000000000000000E+00
   0.0000000000000000E+00   0.0000000000000000E+00   0.0000000000000000E+00
   0.0000000000000000E+00   0.0000000000000000E+00   0.0000000000000000E+00
   0.0000000000000000E+00   0.0000000000000000E+00   0.0000000000000000E+00
   0.0000000000000000E+00   0.0000000000000000E+00   0.0000000000000000E+00
   0.0000000000000000E+00   0.0000000000000000E+00   0.0000000000000000E+00
   0.0000000000000000E+00   0.0000000000000000E+00   0.0000000000000000E+00
   0.0000000000000000E+00   0.0000000000000000E+00   0.0000000000000000E+00
   0.0000000000000000E+00   0.0000000000000000E+00   0.0000000000000000E+00
   0.0000000000000000E+00   0.0000000000000000E+00   0.0000000000000000E+00
   0.0000000000000000E+00   0.0000000000000000E+00   0.0000000000000000E+00
   0.0000000000000000E+00   0.0000000000000000E+00   0.0000000000000000E+00
   0.0000000000000000E+00   0.0000000000000000E+00   0.0000000000000000E+00
   0.0000000000000000E+00   0.0000000000000000E+00   0.0000000000000000E+00
   0.0000000000000000E+00   0.0000000000000000E+00   0.0000000000000000E+00
   0.0000000000000000E+00   0.0000000000000000E+00   0.0000000000000000E+00
   0.0000000000000000E+00   0.0000000000000000E+00   0.0000000000000000E+00
   0.0000000000000000E+00   0.0000000000000000E+00   0.0000000000000000E+00
   0.0000000000000000E+00   0.0000000000000000E+00   0.0000000000000000E+00
   0.0000000000000000E+00   0.0000000000000000E+00   0.0000000000000000E+00
   0.0000000000000000E+00   0.0000000000000000E+00   0.0000000000000000E+00
   0.0000000000000000E+00   0.0000000000000000E+00   0.0000000000000000E+00
   0.0000000000000000E+00   0.0000000000000000E+00   0.0000000000000000E+00
   0.0000000000000000E+00   0.0000000000000000E+00   0.0000000000000000E+00
   0.0000000000000000E+00   0.0000000000000000E+00   0.0000000000000000E+00
   0.0000000000000000E+00   0.0000000000000000E+00   0.0000000000000000E+00
   0.0000000000000000E+00   0.0000000000000000E+00
       </PP_GIPAW_WFS_PS>
     </PP_GIPAW_ORBITAL.1>
     <PP_GIPAW_ORBITAL.2 index="2" label="2S" l="0" cutoff_radius="  1.62803041748366" ultrasoft_cutoff_radius="  1.62803041748366">
       <PP_GIPAW_WFS_AE size="2291">
  -8.1815087574081560E-05  -8.2305860100643870E-05  -8.2799576554542449E-05
  -8.3296254595095436E-05  -8.3795911270922687E-05  -8.4298563318118970E-05
  -8.4804229777239685E-05  -8.5312928035509536E-05  -8.5824676355483376E-05
  -8.6339493374017599E-05  -8.6857397013249342E-05  -8.7378406113018163E-05
  -8.7902539205855868E-05  -8.8429814902592918E-05  -8.8960252240289706E-05
  -8.9493870016619557E-05  -9.0030687354891880E-05  -9.0570723474477519E-05
  -9.1113997590974976E-05  -9.1660529184179495E-05  -9.2210337756974719E-05
  -9.2763442943131968E-05  -9.3319864531940590E-05  -9.3879622381346628E-05
  -9.4442736505827003E-05  -9.5009227021720824E-05  -9.5579114163750787E-05
  -9.6152418306622532E-05  -9.6729159922228402E-05  -9.7309359621125264E-05
  -9.7893038138629129E-05  -9.8480216320077444E-05  -9.9070915149975967E-05
  -9.9665155733669167E-05  -1.0026295929819727E-04  -1.0086434720533600E-04
  -1.0146934094051414E-04  -1.0207796211735767E-04  -1.0269023248175674E-04
  -1.0330617390760420E-04  -1.0392580840027587E-04  -1.0454915809763875E-04
  -1.0517624526931060E-04  -1.0580709231864113E-04  -1.0644172178322309E-04
  -1.0708015633539705E-04  -1.0772241878342842E-04  -1.0836853207214482E-04
  -1.0901851928374078E-04  -1.0967240363867945E-04  -1.1033020849646010E-04
  -1.1099195735646580E-04  -1.1165767385880913E-04  -1.1232738178516030E-04
  -1.1300110505960076E-04  -1.1367886774947367E-04  -1.1436069406623878E-04
  -1.1504660836633562E-04  -1.1573663515204968E-04  -1.1643079907238429E-04
  -1.1712912492393797E-04  -1.1783163765178660E-04  -1.1853836235037117E-04
  -1.1924932426439048E-04  -1.1996454878969959E-04  -1.2068406147421324E-04
  -1.2140788801881469E-04  -1.2213605427827028E-04  -1.2286858626214911E-04
  -1.2360551013574836E-04  -1.2434685222102398E-04  -1.2509263899752703E-04
  -1.2584289710334569E-04  -1.2659765333605271E-04  -1.2735693465365842E-04
  -1.2812076817556977E-04  -1.2888918118355468E-04  -1.2966220112271230E-04
  -1.3043985560244926E-04  -1.3122217239746131E-04  -1.3200917944872104E-04
  -1.3280090486447147E-04  -1.3359737692122568E-04  -1.3439862406477198E-04
  -1.3520467491118552E-04  -1.3601555824784567E-04  -1.3683130303445944E-04
  -1.3765193840409114E-04  -1.3847749366419806E-04  -1.3930799829767228E-04
  -1.4014348196388885E-04  -1.4098397449975990E-04  -1.4182950592079538E-04
  -1.4268010642216989E-04  -1.4353580637979570E-04  -1.4439663635140281E-04
  -1.4526262707762440E-04  -1.4613380948308975E-04  -1.4701021467752304E-04
  -1.4789187395684885E-04  -1.4877881880430432E-04  -1.4967108089155776E-04
  -1.5056869207983407E-04  -1.5147168442104672E-04  -1.5238009015893650E-04
  -1.5329394173021723E-04  -1.5421327176572792E-04  -1.5513811309159192E-04
  -1.5606849873038323E-04  -1.5700446190229934E-04  -1.5794603602634121E-04
  -1.5889325472150041E-04  -1.5984615180795304E-04  -1.6080476130826083E-04
  -1.6176911744857965E-04  -1.6273925465987461E-04  -1.6371520757914318E-04
  -1.6469701105064475E-04  -1.6568470012713802E-04  -1.6667831007112572E-04
  -1.6767787635610639E-04  -1.6868343466783388E-04  -1.6969502090558432E-04
  -1.7071267118343048E-04  -1.7173642183152381E-04  -1.7276630939738397E-04
  -1.7380237064719610E-04  -1.7484464256711590E-04  -1.7589316236458222E-04
  -1.7694796746963760E-04  -1.7800909553625666E-04  -1.7907658444368219E-04
  -1.8015047229776943E-04  -1.8123079743233818E-04  -1.8231759841053294E-04
  -1.8341091402619101E-04  -1.8451078330521912E-04  -1.8561724550697768E-04
  -1.8673034012567358E-04  -1.8785010689176127E-04  -1.8897658577335190E-04
  -1.9010981697763110E-04  -1.9124984095228488E-04  -1.9239669838693442E-04
  -1.9355043021457877E-04  -1.9471107761304669E-04  -1.9587868200645673E-04
  -1.9705328506668606E-04  -1.9823492871484809E-04  -1.9942365512277873E-04
  -2.0061950671453150E-04  -2.0182252616788153E-04  -2.0303275641583857E-04
  -2.0425024064816863E-04  -2.0547502231292502E-04  -2.0670714511798836E-04
  -2.0794665303261543E-04  -2.0919359028899763E-04  -2.1044800138382845E-04
  -2.1170993107988008E-04  -2.1297942440758971E-04  -2.1425652666665494E-04
  -2.1554128342763870E-04  -2.1683374053358385E-04  -2.1813394410163703E-04
  -2.1944194052468227E-04  -2.2075777647298468E-04  -2.2208149889584288E-04
  -2.2341315502325234E-04  -2.2475279236757782E-04  -2.2610045872523580E-04
  -2.2745620217838719E-04  -2.2882007109663996E-04  -2.3019211413876140E-04
  -2.3157238025440117E-04  -2.3296091868582413E-04  -2.3435777896965338E-04
  -2.3576301093862408E-04  -2.3717666472334692E-04  -2.3859879075408265E-04
  -2.4002943976252699E-04  -2.4146866278360564E-04  -2.4291651115728043E-04
  -2.4437303653036596E-04  -2.4583829085835694E-04  -2.4731232640726636E-04
  -2.4879519575547450E-04  -2.5028695179558891E-04  -2.5178764773631544E-04
  -2.5329733710434014E-04  -2.5481607374622245E-04  -2.5634391183029944E-04
  -2.5788090584860158E-04  -2.5942711061877934E-04  -2.6098258128604153E-04
  -2.6254737332510528E-04  -2.6412154254215674E-04  -2.6570514507682428E-04
  -2.6729823740416297E-04  -2.6890087633665025E-04  -2.7051311902619445E-04
  -2.7213502296615427E-04  -2.7376664599337044E-04  -2.7540804629020966E-04
  -2.7705928238662013E-04  -2.7872041316219959E-04  -2.8039149784827531E-04
  -2.8207259602999632E-04  -2.8376376764843850E-04  -2.8546507300272137E-04
  -2.8717657275213754E-04  -2.8889832791829527E-04  -2.9063039988727293E-04
  -2.9237285041178662E-04  -2.9412574161337033E-04  -2.9588913598456906E-04
  -2.9766309639114500E-04  -2.9944768607429616E-04  -3.0124296865288887E-04
  -3.0304900812570292E-04  -3.0486586887368977E-04  -3.0669361566224468E-04
  -3.0853231364349175E-04  -3.1038202835858224E-04  -3.1224282574000714E-04
  -3.1411477211392265E-04  -3.1599793420248955E-04  -3.1789237912622684E-04
  -3.1979817440637816E-04  -3.2171538796729320E-04  -3.2364408813882268E-04
  -3.2558434365872715E-04  -3.2753622367510070E-04  -3.2949979774880790E-04
  -3.3147513585593600E-04  -3.3346230839026133E-04  -3.3546138616572939E-04
  -3.3747244041895094E-04  -3.3949554281171169E-04  -3.4153076543349680E-04
  -3.4357818080403085E-04  -3.4563786187583230E-04  -3.4770988203678267E-04
  -3.4979431511271159E-04  -3.5189123536999629E-04  -3.5400071751817680E-04
  -3.5612283671258626E-04  -3.5825766855699699E-04  -3.6040528910628145E-04
  -3.6256577486908981E-04  -3.6473920281054206E-04  -3.6692565035493710E-04
  -3.6912519538847687E-04  -3.7133791626200655E-04  -3.7356389179377141E-04
  -3.7580320127218920E-04  -3.7805592445863911E-04  -3.8032214159026696E-04
  -3.8260193338280691E-04  -3.8489538103341972E-04  -3.8720256622354766E-04
  -3.8952357112178584E-04  -3.9185847838677076E-04  -3.9420737117008587E-04
  -3.9657033311918361E-04  -3.9894744838032470E-04  -4.0133880160153531E-04
  -4.0374447793558086E-04  -4.0616456304295713E-04  -4.0859914309489953E-04
  -4.1104830477640925E-04  -4.1351213528929783E-04  -4.1599072235524889E-04
  -4.1848415421889801E-04  -4.2099251965093120E-04  -4.2351590795120019E-04
  -4.2605440895185722E-04  -4.2860811302050758E-04  -4.3117711106338037E-04
  -4.3376149452851830E-04  -4.3636135540898590E-04  -4.3897678624609600E-04
  -4.4160788013265605E-04  -4.4425473071623274E-04  -4.4691743220243532E-04
  -4.4959607935821913E-04  -4.5229076751520747E-04  -4.5500159257303341E-04
  -4.5772865100270088E-04  -4.6047203984996525E-04  -4.6323185673873392E-04
  -4.6600819987448661E-04  -4.6880116804771542E-04  -4.7161086063738543E-04
  -4.7443737761441459E-04  -4.7728081954517490E-04  -4.8014128759501346E-04
  -4.8301888353179405E-04  -4.8591370972945927E-04  -4.8882586917161372E-04
  -4.9175546545512786E-04  -4.9470260279376268E-04  -4.9766738602181567E-04
  -5.0064992059778825E-04  -5.0365031260807421E-04  -5.0666866877066910E-04
  -5.0970509643890249E-04  -5.1275970360519071E-04  -5.1583259890481217E-04
  -5.1892389161970419E-04  -5.2203369168228196E-04  -5.2516210967928001E-04
  -5.2830925685561569E-04  -5.3147524511827507E-04  -5.3466018704022137E-04
  -5.3786419586432659E-04  -5.4108738550732506E-04  -5.4432987056379095E-04
  -5.4759176631013801E-04  -5.5087318870864280E-04  -5.5417425441149182E-04
  -5.5749508076485073E-04  -5.6083578581295874E-04  -5.6419648830224574E-04
  -5.6757730768547366E-04  -5.7097836412590129E-04  -5.7439977850147429E-04
  -5.7784167240903822E-04  -5.8130416816857709E-04  -5.8478738882747512E-04
  -5.8829145816480526E-04  -5.9181650069563968E-04  -5.9536264167538763E-04
  -5.9893000710415755E-04  -6.0251872373114372E-04  -6.0612891905903953E-04
  -6.0976072134847487E-04  -6.1341425962248069E-04  -6.1708966367097790E-04
  -6.2078706405529300E-04  -6.2450659211269984E-04  -6.2824837996098702E-04
  -6.3201256050305233E-04  -6.3579926743152293E-04  -6.3960863523340294E-04
  -6.4344079919474750E-04  -6.4729589540536356E-04  -6.5117406076353789E-04
  -6.5507543298079279E-04  -6.5900015058666832E-04  -6.6294835293353321E-04
  -6.6692018020142213E-04  -6.7091577340290195E-04  -6.7493527438796524E-04
  -6.7897882584895270E-04  -6.8304657132550262E-04  -6.8713865520953052E-04
  -6.9125522275023611E-04  -6.9539642005913887E-04  -6.9956239411514431E-04
  -7.0375329276963676E-04  -7.0796926475160391E-04  -7.1221045967278889E-04
  -7.1647702803287320E-04  -7.2076912122468828E-04  -7.2508689153945782E-04
  -7.2943049217207001E-04  -7.3380007722637910E-04  -7.3819580172053943E-04
  -7.4261782159236683E-04  -7.4706629370473415E-04  -7.5154137585099539E-04
  -7.5604322676044156E-04  -7.6057200610378799E-04  -7.6512787449869264E-04
  -7.6971099351530621E-04  -7.7432152568185407E-04  -7.7895963449024969E-04
  -7.8362548440174032E-04  -7.8831924085258560E-04  -7.9304107025976727E-04
  -7.9779114002673246E-04  -8.0256961854916951E-04  -8.0737667522081682E-04
  -8.1221248043930464E-04  -8.1707720561202983E-04  -8.2197102316206516E-04
  -8.2689410653410131E-04  -8.3184663020042290E-04  -8.3682876966691914E-04
  -8.4184070147912756E-04  -8.4688260322831319E-04  -8.5195465355758200E-04
  -8.5705703216802903E-04  -8.6218991982492084E-04  -8.6735349836391455E-04
  -8.7254795069731047E-04  -8.7777346082034216E-04  -8.8303021381750020E-04
  -8.8831839586889303E-04  -8.9363819425664439E-04  -8.9898979737132489E-04
  -9.0437339471842232E-04  -9.0978917692484764E-04  -9.1523733574547770E-04
  -9.2071806406973536E-04  -9.2623155592820615E-04  -9.3177800649929326E-04
  -9.3735761211591025E-04  -9.4297057027221043E-04  -9.4861707963035495E-04
  -9.5429734002731967E-04  -9.6001155248173937E-04  -9.6575991920079172E-04
  -9.7154264358711897E-04  -9.7735993024578916E-04  -9.8321198499129784E-04
  -9.8909901485460627E-04  -9.9502122809022207E-04  -1.0009788341833186E-03
  -1.0069720438568945E-03  -1.0130010690789736E-03  -1.0190661230698446E-03
  -1.0251674203093427E-03  -1.0313051765441720E-03  -1.0374796087952670E-03
  -1.0436909353651993E-03  -1.0499393758456206E-03  -1.0562251511247532E-03
  -1.0625484833949178E-03  -1.0689095961601066E-03  -1.0753087142435964E-03
  -1.0817460637956070E-03  -1.0882218723009998E-03  -1.0947363685870205E-03
  -1.1012897828310869E-03  -1.1078823465686168E-03  -1.1145142927009024E-03
  -1.1211858555030269E-03  -1.1278972706318269E-03  -1.1346487751338983E-03
  -1.1414406074536461E-03  -1.1482730074413806E-03  -1.1551462163614582E-03
  -1.1620604769004667E-03  -1.1690160331754567E-03  -1.1760131307422196E-03
  -1.1830520166036104E-03  -1.1901329392179170E-03  -1.1972561485072766E-03
  -1.2044218958661382E-03  -1.2116304341697728E-03  -1.2188820177828294E-03
  -1.2261769025679401E-03  -1.2335153458943710E-03  -1.2408976066467237E-03
  -1.2483239452336817E-03  -1.2557946235968076E-03  -1.2633099052193888E-03
  -1.2708700551353296E-03  -1.2784753399380951E-03  -1.2861260277897046E-03
  -1.2938223884297719E-03  -1.3015646931845977E-03  -1.3093532149763122E-03
  -1.3171882283320661E-03  -1.3250700093932746E-03  -1.3329988359249100E-03
  -1.3409749873248469E-03  -1.3489987446332588E-03  -1.3570703905420652E-03
  -1.3651902094044305E-03  -1.3733584872443172E-03  -1.3815755117660886E-03
  -1.3898415723641653E-03  -1.3981569601327357E-03  -1.4065219678755173E-03
  -1.4149368901155740E-03  -1.4234020231051836E-03  -1.4319176648357637E-03
  -1.4404841150478475E-03  -1.4491016752411160E-03  -1.4577706486844854E-03
  -1.4664913404262487E-03  -1.4752640573042718E-03  -1.4840891079562458E-03
  -1.4929668028299957E-03  -1.5018974541938443E-03  -1.5108813761470314E-03
  -1.5199188846301923E-03  -1.5290102974358899E-03  -1.5381559342192059E-03
  -1.5473561165083888E-03  -1.5566111677155598E-03  -1.5659214131474755E-03
  -1.5752871800163500E-03  -1.5847087974507350E-03  -1.5941865965064580E-03
  -1.6037209101776204E-03  -1.6133120734076549E-03  -1.6229604231004404E-03
  -1.6326662981314801E-03  -1.6424300393591358E-03  -1.6522519896359268E-03
  -1.6621324938198847E-03  -1.6720718987859734E-03  -1.6820705534375680E-03
  -1.6921288087179951E-03  -1.7022470176221354E-03  -1.7124255352080888E-03
  -1.7226647186089010E-03  -1.7329649270443523E-03  -1.7433265218328115E-03
  -1.7537498664031493E-03  -1.7642353263067187E-03  -1.7747832692293969E-03
  -1.7853940650036926E-03  -1.7960680856209167E-03  -1.8068057052434167E-03
  -1.8176073002168789E-03  -1.8284732490826926E-03  -1.8394039325903820E-03
  -1.8503997337101009E-03  -1.8614610376451990E-03  -1.8725882318448475E-03
  -1.8837817060167361E-03  -1.8950418521398360E-03  -1.9063690644772289E-03
  -1.9177637395890047E-03  -1.9292262763452254E-03  -1.9407570759389595E-03
  -1.9523565418993823E-03  -1.9640250801049469E-03  -1.9757630987966221E-03
  -1.9875710085912011E-03  -1.9994492224946789E-03  -2.0113981559157007E-03
  -2.0234182266790786E-03  -2.0355098550393796E-03  -2.0476734636945856E-03
  -2.0599094777998214E-03  -2.0722183249811568E-03  -2.0846004353494789E-03
  -2.0970562415144386E-03  -2.1095861785984634E-03  -2.1221906842508495E-03
  -2.1348701986619238E-03  -2.1476251645772774E-03  -2.1604560273120760E-03
  -2.1733632347654395E-03  -2.1863472374349020E-03  -2.1994084884309371E-03
  -2.2125474434915677E-03  -2.2257645609970438E-03  -2.2390603019845959E-03
  -2.2524351301632674E-03  -2.2658895119288210E-03  -2.2794239163787208E-03
  -2.2930388153271897E-03  -2.3067346833203451E-03  -2.3205119976514128E-03
  -2.3343712383760143E-03  -2.3483128883275348E-03  -2.3623374331325688E-03
  -2.3764453612264412E-03  -2.3906371638688115E-03  -2.4049133351593511E-03
  -2.4192743720535042E-03  -2.4337207743783265E-03  -2.4482530448484024E-03
  -2.4628716890818443E-03  -2.4775772156163693E-03  -2.4923701359254595E-03
  -2.5072509644346007E-03  -2.5222202185376046E-03  -2.5372784186130084E-03
  -2.5524260880405614E-03  -2.5676637532177880E-03  -2.5829919435766380E-03
  -2.5984111916002159E-03  -2.6139220328395946E-03  -2.6295250059307131E-03
  -2.6452206526113554E-03  -2.6610095177382132E-03  -2.6768921493040354E-03
  -2.6928690984548607E-03  -2.7089409195073305E-03  -2.7251081699660954E-03
  -2.7413714105412983E-03  -2.7577312051661469E-03  -2.7741881210145724E-03
  -2.7907427285189731E-03  -2.8073956013880438E-03  -2.8241473166246917E-03
  -2.8409984545440426E-03  -2.8579495987915283E-03  -2.8750013363610652E-03
  -2.8921542576133218E-03  -2.9094089562940700E-03  -2.9267660295526272E-03
  -2.9442260779603863E-03  -2.9617897055294368E-03  -2.9794575197312689E-03
  -2.9972301315155741E-03  -3.0151081553291292E-03  -3.0330922091347757E-03
  -3.0511829144304835E-03  -3.0693808962685100E-03  -3.0876867832746453E-03
  -3.1061012076675537E-03  -3.1246248052782008E-03  -3.1432582155693743E-03
  -3.1620020816552977E-03  -3.1808570503213335E-03  -3.1998237720437797E-03
  -3.2189029010097595E-03  -3.2380950951372005E-03  -3.2574010160949102E-03
  -3.2768213293227436E-03  -3.2963567040518622E-03  -3.3160078133250889E-03
  -3.3357753340173559E-03  -3.3556599468562457E-03  -3.3756623364426274E-03
  -3.3957831912713875E-03  -3.4160232037522540E-03  -3.4363830702307178E-03
  -3.4568634910090452E-03  -3.4774651703673915E-03  -3.4981888165850055E-03
  -3.5190351419615287E-03  -3.5400048628383969E-03  -3.5610986996203317E-03
  -3.5823173767969290E-03  -3.6036616229643500E-03  -3.6251321708471004E-03
  -3.6467297573199108E-03  -3.6684551234297158E-03  -3.6903090144177284E-03
  -3.7122921797416103E-03  -3.7344053730977433E-03  -3.7566493524435938E-03
  -3.7790248800201819E-03  -3.8015327223746434E-03  -3.8241736503828892E-03
  -3.8469484392723696E-03  -3.8698578686449298E-03  -3.8929027224997676E-03
  -3.9160837892564934E-03  -3.9394018617782793E-03  -3.9628577373951208E-03
  -3.9864522179271838E-03  -4.0101861097082631E-03  -4.0340602236093315E-03
  -4.0580753750621952E-03  -4.0822323840832434E-03  -4.1065320752973009E-03
  -4.1309752779615820E-03  -4.1555628259897365E-03  -4.1802955579760106E-03
  -4.2051743172194928E-03  -4.2301999517484661E-03  -4.2553733143448676E-03
  -4.2806952625688323E-03  -4.3061666587833544E-03  -4.3317883701790398E-03
  -4.3575612687989590E-03  -4.3834862315636058E-03  -4.4095641402959506E-03
  -4.4357958817466004E-03  -4.4621823476190536E-03  -4.4887244345950626E-03
  -4.5154230443600887E-03  -4.5422790836288640E-03  -4.5692934641710535E-03
  -4.5964671028370140E-03  -4.6238009215836618E-03  -4.6512958475004272E-03
  -4.6789528128353269E-03  -4.7067727550211226E-03  -4.7347566167015897E-03
  -4.7629053457578794E-03  -4.7912198953349886E-03  -4.8197012238683241E-03
  -4.8483502951103688E-03  -4.8771680781574513E-03  -4.9061555474766106E-03
  -4.9353136829325666E-03  -4.9646434698147838E-03  -4.9941458988646409E-03
  -5.0238219663026962E-03  -5.0536726738560555E-03  -5.0836990287858371E-03
  -5.1139020439147382E-03  -5.1442827376546960E-03  -5.1748421340346530E-03
  -5.2055812627284197E-03  -5.2365011590826335E-03  -5.2676028641448170E-03
  -5.2988874246915384E-03  -5.3303558932566598E-03  -5.3620093281596982E-03
  -5.3938487935342666E-03  -5.4258753593566262E-03  -5.4580901014743295E-03
  -5.4904941016349611E-03  -5.5230884475149719E-03  -5.5558742327486152E-03
  -5.5888525569569719E-03  -5.6220245257770779E-03  -5.6553912508911413E-03
  -5.6889538500558530E-03  -5.7227134471318003E-03  -5.7566711721129633E-03
  -5.7908281611563145E-03  -5.8251855566115018E-03  -5.8597445070506368E-03
  -5.8945061672981613E-03  -5.9294716984608165E-03  -5.9646422679576977E-03
  -6.0000190495504025E-03  -6.0356032233732700E-03  -6.0713959759637068E-03
  -6.1073985002926033E-03  -6.1436119957948418E-03  -6.1800376683998903E-03
  -6.2166767305624846E-03  -6.2535304012933963E-03  -6.2905999061902921E-03
  -6.3278864774686701E-03  -6.3653913539928920E-03  -6.4031157813072923E-03
  -6.4410610116673777E-03  -6.4792283040710991E-03  -6.5176189242902209E-03
  -6.5562341449017618E-03  -6.5950752453195205E-03  -6.6341435118256811E-03
  -6.6734402376024977E-03  -6.7129667227640586E-03  -6.7527242743881310E-03
  -6.7927142065480764E-03  -6.8329378403448535E-03  -6.8733965039390818E-03
  -6.9140915325831935E-03  -6.9550242686536538E-03  -6.9961960616832476E-03
  -7.0376082683934549E-03  -7.0792622527268796E-03  -7.1211593858797545E-03
  -7.1633010463345234E-03  -7.2056886198924785E-03  -7.2483234997064707E-03
  -7.2912070863136863E-03  -7.3343407876684894E-03  -7.3777260191753222E-03
  -7.4213642037216764E-03  -7.4652567717111151E-03  -7.5094051610963665E-03
  -7.5538108174124661E-03  -7.5984751938099684E-03  -7.6433997510881981E-03
  -7.6885859577285722E-03  -7.7340352899279707E-03  -7.7797492316321552E-03
  -7.8257292745692476E-03  -7.8719769182832439E-03  -7.9184936701675989E-03
  -7.9652810454988298E-03  -8.0123405674701921E-03  -8.0596737672253786E-03
  -8.1072821838922750E-03  -8.1551673646167444E-03  -8.2033308645964604E-03
  -8.2517742471147747E-03  -8.3004990835746171E-03  -8.3495069535324332E-03
  -8.3987994447321558E-03  -8.4483781531392039E-03  -8.4982446829745106E-03
  -8.5484006467485794E-03  -8.5988476652955718E-03  -8.6495873678074011E-03
  -8.7006213918678632E-03  -8.7519513834867918E-03  -8.8035789971342062E-03
  -8.8555058957745028E-03  -8.9077337509006396E-03  -8.9602642425683447E-03
  -9.0130990594303271E-03  -9.0662398987705010E-03  -9.1196884665382047E-03
  -9.1734464773824357E-03  -9.2275156546860766E-03  -9.2818977306001159E-03
  -9.3365944460778779E-03  -9.3916075509092433E-03  -9.4469388037548389E-03
  -9.5025899721802535E-03  -9.5585628326902029E-03  -9.6148591707627008E-03
  -9.6714807808832137E-03  -9.7284294665787707E-03  -9.7857070404520716E-03
  -9.8433153242155555E-03  -9.9012561487254493E-03  -9.9595313540157739E-03
  -1.0018142789332317E-02  -1.0077092313166574E-02  -1.0136381793289639E-02
  -1.0196013106786054E-02  -1.0255988140087624E-02  -1.0316308789007153E-02
  -1.0376976958772146E-02  -1.0437994564058467E-02  -1.0499363529023902E-02
  -1.0561085787341686E-02  -1.0623163282233958E-02  -1.0685597966505138E-02
  -1.0748391802575237E-02  -1.0811546762513093E-02  -1.0875064828069514E-02
  -1.0938947990710357E-02  -1.1003198251649495E-02  -1.1067817621881719E-02
  -1.1132808122215511E-02  -1.1198171783305764E-02  -1.1263910645686354E-02
  -1.1330026759802625E-02  -1.1396522186043777E-02  -1.1463398994775106E-02
  -1.1530659266370162E-02  -1.1598305091242753E-02  -1.1666338569878837E-02
  -1.1734761812868281E-02  -1.1803576940936488E-02  -1.1872786084975868E-02
  -1.1942391386077179E-02  -1.2012394995560723E-02  -1.2082799075007361E-02
  -1.2153605796289406E-02  -1.2224817341601319E-02  -1.2296435903490260E-02
  -1.2368463684886456E-02  -1.2440902899133393E-02  -1.2513755770017818E-02
  -1.2587024531799570E-02  -1.2660711429241198E-02  -1.2734818717637392E-02
  -1.2809348662844207E-02  -1.2884303541308074E-02  -1.2959685640094617E-02
  -1.3035497256917199E-02  -1.3111740700165311E-02  -1.3188418288932678E-02
  -1.3265532353045143E-02  -1.3343085233088310E-02  -1.3421079280434943E-02
  -1.3499516857272093E-02  -1.3578400336627982E-02  -1.3657732102398608E-02
  -1.3737514549374084E-02  -1.3817750083264689E-02  -1.3898441120726640E-02
  -1.3979590089387562E-02  -1.4061199427871672E-02  -1.4143271585824645E-02
  -1.4225809023938170E-02  -1.4308814213974192E-02  -1.4392289638788816E-02
  -1.4476237792355889E-02  -1.4560661179790232E-02  -1.4645562317370527E-02
  -1.4730943732561850E-02  -1.4816807964037846E-02  -1.4903157561702511E-02
  -1.4989995086711632E-02  -1.5077323111493804E-02  -1.5165144219771078E-02
  -1.5253461006579202E-02  -1.5342276078287443E-02  -1.5431592052618005E-02
  -1.5521411558665011E-02  -1.5611737236913056E-02  -1.5702571739255315E-02
  -1.5793917729011193E-02  -1.5885777880943527E-02  -1.5978154881275318E-02
  -1.6071051427705978E-02  -1.6164470229427089E-02  -1.6258414007137675E-02
  -1.6352885493058963E-02  -1.6447887430948632E-02  -1.6543422576114547E-02
  -1.6639493695427925E-02  -1.6736103567336010E-02  -1.6833254981874150E-02
  -1.6930950740677346E-02  -1.7029193656991192E-02  -1.7127986555682262E-02
  -1.7227332273247895E-02  -1.7327233657825371E-02  -1.7427693569200469E-02
  -1.7528714878815417E-02  -1.7630300469776195E-02  -1.7732453236859184E-02
  -1.7835176086517166E-02  -1.7938471936884658E-02  -1.8042343717782565E-02
  -1.8146794370722127E-02  -1.8251826848908182E-02  -1.8357444117241693E-02
  -1.8463649152321571E-02  -1.8570444942445734E-02  -1.8677834487611442E-02
  -1.8785820799514831E-02  -1.8894406901549726E-02  -1.9003595828805592E-02
  -1.9113390628064747E-02  -1.9223794357798734E-02  -1.9334810088163866E-02
  -1.9446440900995923E-02  -1.9558689889804009E-02  -1.9671560159763537E-02
  -1.9785054827708325E-02  -1.9899177022121805E-02  -2.0013929883127318E-02
  -2.0129316562477483E-02  -2.0245340223542626E-02  -2.0362004041298284E-02
  -2.0479311202311692E-02  -2.0597264904727332E-02  -2.0715868358251462E-02
  -2.0835124784135631E-02  -2.0955037415159194E-02  -2.1075609495610742E-02
  -2.1196844281268504E-02  -2.1318745039379677E-02  -2.1441315048638623E-02
  -2.1564557599164026E-02  -2.1688475992474858E-02  -2.1813073541465257E-02
  -2.1938353570378207E-02  -2.2064319414778093E-02  -2.2190974421521997E-02
  -2.2318321948729857E-02  -2.2446365365753364E-02  -2.2575108053143604E-02
  -2.2704553402617469E-02  -2.2834704817022763E-02  -2.2965565710302036E-02
  -2.3097139507455060E-02  -2.3229429644500036E-02  -2.3362439568433369E-02
  -2.3496172737188129E-02  -2.3630632619591096E-02  -2.3765822695318399E-02
  -2.3901746454849718E-02  -2.4038407399421032E-02  -2.4175809040975917E-02
  -2.4313954902115312E-02  -2.4452848516045820E-02  -2.4592493426526443E-02
  -2.4732893187813770E-02  -2.4874051364605597E-02  -2.5015971531982938E-02
  -2.5158657275350424E-02  -2.5302112190375075E-02  -2.5446339882923375E-02
  -2.5591343968996712E-02  -2.5737128074665050E-02  -2.5883695835998918E-02
  -2.6031050898999639E-02  -2.6179196919527761E-02  -2.6328137563229714E-02
  -2.6477876505462621E-02  -2.6628417431217261E-02  -2.6779764035039202E-02
  -2.6931920020947974E-02  -2.7084889102354376E-02  -2.7238675001975802E-02
  -2.7393281451749615E-02  -2.7548712192744514E-02  -2.7704970975069895E-02
  -2.7862061557783133E-02  -2.8019987708794821E-02  -2.8178753204771909E-02
  -2.8338361831038682E-02  -2.8498817381475621E-02  -2.8660123658416071E-02
  -2.8822284472540673E-02  -2.8985303642769619E-02  -2.9149184996152582E-02
  -2.9313932367756396E-02  -2.9479549600550381E-02  -2.9646040545289354E-02
  -2.9813409060394234E-02  -2.9981659011830242E-02  -3.0150794272982687E-02
  -3.0320818724530262E-02  -3.0491736254315827E-02  -3.0663550757214716E-02
  -3.0836266135000432E-02  -3.1009886296207791E-02  -3.1184415155993427E-02
  -3.1359856635993631E-02  -3.1536214664179545E-02  -3.1713493174709596E-02
  -3.1891696107779234E-02  -3.2070827409467838E-02  -3.2250891031582817E-02
  -3.2431890931500909E-02  -3.2613831072006549E-02  -3.2796715421127338E-02
  -3.2980547951966574E-02  -3.3165332642532797E-02  -3.3351073475566304E-02
  -3.3537774438362623E-02  -3.3725439522592902E-02  -3.3914072724121176E-02
  -3.4103678042818469E-02  -3.4294259482373683E-02  -3.4485821050101319E-02
  -3.4678366756745849E-02  -3.4871900616282828E-02  -3.5066426645716679E-02
  -3.5261948864875069E-02  -3.5458471296199855E-02  -3.5655997964534621E-02
  -3.5854532896908695E-02  -3.6054080122317610E-02  -3.6254643671500039E-02
  -3.6456227576711082E-02  -3.6658835871491928E-02  -3.6862472590435798E-02
  -3.7067141768950200E-02  -3.7272847443015338E-02  -3.7479593648938797E-02
  -3.7687384423106318E-02  -3.7896223801728669E-02  -3.8106115820584638E-02
  -3.8317064514759969E-02  -3.8529073918382339E-02  -3.8742148064352236E-02
  -3.8956290984069754E-02  -3.9171506707157168E-02  -3.9387799261177456E-02
  -3.9605172671348408E-02  -3.9823630960252591E-02  -4.0043178147542907E-02
  -4.0263818249643812E-02  -4.0485555279448103E-02  -4.0708393246009257E-02
  -4.0932336154229247E-02  -4.1157388004541801E-02  -4.1383552792591059E-02
  -4.1610834508905632E-02  -4.1839237138567860E-02  -4.2068764660878430E-02
  -4.2299421049016149E-02  -4.2531210269692921E-02  -4.2764136282803775E-02
  -4.2998203041072006E-02  -4.3233414489689329E-02  -4.3469774565951004E-02
  -4.3707287198885850E-02  -4.3945956308881158E-02  -4.4185785807302411E-02
  -4.4426779596107781E-02  -4.4668941567457349E-02  -4.4912275603316953E-02
  -4.5156785575056715E-02  -4.5402475343044105E-02  -4.5649348756231480E-02
  -4.5897409651738184E-02  -4.6146661854426951E-02  -4.6397109176474736E-02
  -4.6648755416937839E-02  -4.6901604361311265E-02  -4.7155659781082285E-02
  -4.7410925433278184E-02  -4.7667405060008057E-02  -4.7925102387998658E-02
  -4.8184021128124248E-02  -4.8444164974930377E-02  -4.8705537606151511E-02
  -4.8968142682222514E-02  -4.9231983845783908E-02  -4.9497064721180817E-02
  -4.9763388913955570E-02  -5.0030960010333921E-02  -5.0299781576704831E-02
  -5.0569857159093720E-02  -5.0841190282629137E-02  -5.1113784451002862E-02
  -5.1387643145923277E-02  -5.1662769826562024E-02  -5.1939167928993911E-02
  -5.2216840865629888E-02  -5.2495792024643211E-02  -5.2776024769388565E-02
  -5.3057542437814229E-02  -5.3340348341867148E-02  -5.3624445766890828E-02
  -5.3909837971016124E-02  -5.4196528184544714E-02  -5.4484519609325273E-02
  -5.4773815418122332E-02  -5.5064418753977655E-02  -5.5356332729564160E-02
  -5.5649560426532345E-02  -5.5944104894849009E-02  -5.6239969152128449E-02
  -5.6537156182955857E-02  -5.6835668938202973E-02  -5.7135510334335907E-02
  -5.7436683252715094E-02  -5.7739190538887243E-02  -5.8043035001869366E-02
  -5.8348219413424704E-02  -5.8654746507330477E-02  -5.8962618978637582E-02
  -5.9271839482921945E-02  -5.9582410635527612E-02  -5.9894335010801526E-02
  -6.0207615141319809E-02  -6.0522253517105683E-02  -6.0838252584838763E-02
  -6.1155614747055845E-02  -6.1474342361343012E-02  -6.1794437739519065E-02
  -6.2115903146810141E-02  -6.2438740801015628E-02  -6.2762952871665112E-02
  -6.3088541479166454E-02  -6.3415508693944841E-02  -6.3743856535572865E-02
  -6.4073586971891458E-02  -6.4404701918121671E-02  -6.4737203235967336E-02
  -6.5071092732708322E-02  -6.5406372160284637E-02  -6.5743043214371050E-02
  -6.6081107533442360E-02  -6.6420566697829142E-02  -6.6761422228764022E-02
  -6.7103675587418268E-02  -6.7447328173928928E-02  -6.7792381326416087E-02
  -6.8138836319990542E-02  -6.8486694365751610E-02  -6.8835956609775067E-02
  -6.9186624132091382E-02  -6.9538697945653802E-02  -6.9892178995296525E-02
  -7.0247068156682954E-02  -7.0603366235243672E-02  -7.0961073965104496E-02
  -7.1320192008004199E-02  -7.1680720952202112E-02  -7.2042661311375433E-02
  -7.2406013523506188E-02  -7.2770777949757989E-02  -7.3136954873342180E-02
  -7.3504544498373750E-02  -7.3873546948716659E-02  -7.4243962266818689E-02
  -7.4615790412535743E-02  -7.4989031261945588E-02  -7.5363684606150852E-02
  -7.5739750150071491E-02  -7.6117227511226501E-02  -7.6496116218504884E-02
  -7.6876415710925877E-02  -7.7258125336388345E-02  -7.7641244350409394E-02
  -7.8025771914852091E-02  -7.8411707096642261E-02  -7.8799048866474500E-02
  -7.9187796097507063E-02  -7.9577947564045917E-02  -7.9969501940217749E-02
  -8.0362457798631992E-02  -8.0756813609031794E-02  -8.1152567736933925E-02
  -8.1549718442257613E-02  -8.1948263877942351E-02  -8.2348202088554465E-02
  -8.2749531008882715E-02  -8.3152248462522685E-02  -8.3556352160450001E-02
  -8.3961839699582472E-02  -8.4368708561331066E-02  -8.4776956110139606E-02
  -8.5186579592013478E-02  -8.5597576133037021E-02  -8.6009942737879833E-02
  -8.6423676288291840E-02  -8.6838773541587283E-02  -8.7255231129117428E-02
  -8.7673045554732251E-02  -8.8092213193230906E-02  -8.8512730288801023E-02
  -8.8934592953447009E-02  -8.9357797165407080E-02  -8.9782338767559366E-02
  -9.0208213465816839E-02  -9.0635416827511237E-02  -9.1063944279765968E-02
  -9.1493791107858019E-02  -9.1924952453568909E-02  -9.2357423313524659E-02
  -9.2791198537524905E-02  -9.3226272826861176E-02  -9.3662640732624272E-02
  -9.4100296654000937E-02  -9.4539234836559738E-02  -9.4979449370526284E-02
  -9.5420934189047762E-02  -9.5863683066446950E-02  -9.6307689616465672E-02
  -9.6752947290497729E-02  -9.7199449375811445E-02  -9.7647188993761944E-02
  -9.8096159097993019E-02  -9.8546352472628843E-02  -9.8997761730455561E-02
  -9.9450379311092782E-02  -9.9904197479155118E-02  -1.0035920832240383E-01
  -1.0081540374988859E-01  -1.0127277549007963E-01  -1.0173131508899017E-01
  -1.0219101390828933E-01  -1.0265186312340573E-01  -1.0311385372162150E-01
  -1.0357697650015731E-01  -1.0404122206424821E-01  -1.0450658082521040E-01
  -1.0497304299849929E-01  -1.0544059860175858E-01  -1.0590923745286095E-01
  -1.0637894916794004E-01  -1.0684972315941417E-01  -1.0732154863400191E-01
  -1.0779441459072937E-01  -1.0826830981892971E-01  -1.0874322289623480E-01
  -1.0921914218655923E-01  -1.0969605583807694E-01  -1.1017395178119042E-01
  -1.1065281772649282E-01  -1.1113264116272314E-01  -1.1161340935471453E-01
  -1.1209510934133604E-01  -1.1257772793342799E-01  -1.1306125171173094E-01
  -1.1354566702480881E-01  -1.1403095998696604E-01  -1.1451711647615917E-01
  -1.1500412213190299E-01  -1.1549196235317145E-01  -1.1598062229629359E-01
  -1.1647008687284474E-01  -1.1696034074753311E-01  -1.1745136833608222E-01
  -1.1794315380310907E-01  -1.1843568105999863E-01  -1.1892893376277476E-01
  -1.1942289530996780E-01  -1.1991754884047902E-01  -1.2041287723144249E-01
  -1.2090886309608422E-01  -1.2140548878157920E-01  -1.2190273636690649E-01
  -1.2240058766070259E-01  -1.2289902419911346E-01  -1.2339802724364547E-01
  -1.2389757777901562E-01  -1.2439765651100128E-01  -1.2489824386428981E-01
  -1.2539931998032830E-01  -1.2590086471517395E-01  -1.2640285763734524E-01
  -1.2690527802567422E-01  -1.2740810486716050E-01  -1.2791131685482696E-01
  -1.2841489238557777E-01  -1.2891880955805915E-01  -1.2942304617052286E-01
  -1.2992757971869331E-01  -1.3043238739363819E-01  -1.3093744607964350E-01
  -1.3144273235209275E-01  -1.3194822247535137E-01  -1.3245389240065647E-01
  -1.3295971776401208E-01  -1.3346567388409086E-01  -1.3397173576014221E-01
  -1.3447787806990755E-01  -1.3498407516754299E-01  -1.3549030108154986E-01
  -1.3599652951271379E-01  -1.3650273383205239E-01  -1.3700888707877251E-01
  -1.3751496195823693E-01  -1.3802093083994155E-01  -1.3852676575550313E-01
  -1.3903243839665849E-01  -1.3953792011327509E-01  -1.4004318191137413E-01
  -1.4054819445116620E-01  -1.4105292804510025E-01  -1.4155735265592628E-01
  -1.4206143789477249E-01  -1.4256515301923686E-01  -1.4306846693149475E-01
  -1.4357134817642173E-01  -1.4407376493973345E-01  -1.4457568504614215E-01
  -1.4507707595753122E-01  -1.4557790477114732E-01  -1.4607813821781193E-01
  -1.4657774266015194E-01  -1.4707668409085004E-01  -1.4757492813091594E-01
  -1.4807244002797867E-01  -1.4856918465460059E-01  -1.4906512650661372E-01
  -1.4956022970147934E-01  -1.5005445797667091E-01  -1.5054777468808150E-01
  -1.5104014280845610E-01  -1.5153152492584929E-01  -1.5202188324210958E-01
  -1.5251117957139013E-01  -1.5299937533868743E-01  -1.5348643157840791E-01
  -1.5397230893296363E-01  -1.5445696765139752E-01  -1.5494036758803886E-01
  -1.5542246820118971E-01  -1.5590322855184316E-01  -1.5638260730243372E-01
  -1.5686056271562099E-01  -1.5733705265310707E-01  -1.5781203457448847E-01
  -1.5828546553614325E-01  -1.5875730219015435E-01  -1.5922750078326917E-01
  -1.5969601715589715E-01  -1.6016280674114533E-01  -1.6062782456389260E-01
  -1.6109102523990421E-01  -1.6155236297498618E-01  -1.6201179156418141E-01
  -1.6246926439100740E-01  -1.6292473442673711E-01  -1.6337815422972304E-01
  -1.6382947594476588E-01  -1.6427865130252811E-01  -1.6472563161899365E-01
  -1.6517036779497396E-01  -1.6561281031566194E-01  -1.6605290925023386E-01
  -1.6649061425150050E-01  -1.6692587455560806E-01  -1.6735863898178993E-01
  -1.6778885593216986E-01  -1.6821647339161738E-01  -1.6864143892765654E-01
  -1.6906369969042837E-01  -1.6948320241270828E-01  -1.6989989340997902E-01
  -1.7031371858055991E-01  -1.7072462340579350E-01  -1.7113255295029026E-01
  -1.7153745186223188E-01  -1.7193926437373486E-01  -1.7233793430127398E-01
  -1.7273340504616772E-01  -1.7312561959512554E-01  -1.7351452052085842E-01
  -1.7390004998275316E-01  -1.7428214972761147E-01  -1.7466076109045459E-01
  -1.7503582499539422E-01  -1.7540728195657096E-01  -1.7577507207916040E-01
  -1.7613913506044845E-01  -1.7649941019097623E-01  -1.7685583635575558E-01
  -1.7720835203555593E-01  -1.7755689530826346E-01  -1.7790140385031319E-01
  -1.7824181493819519E-01  -1.7857806545003521E-01  -1.7891009186725104E-01
  -1.7923783027628531E-01  -1.7956121637041522E-01  -1.7988018545164036E-01
  -1.8019467243264964E-01  -1.8050461183886735E-01  -1.8080993781058013E-01
  -1.8111058410514491E-01  -1.8140648409927898E-01  -1.8169757079143306E-01
  -1.8198377680424777E-01  -1.8226503438709482E-01  -1.8254127541870321E-01
  -1.8281243140987183E-01  -1.8307843350626832E-01  -1.8333921249131610E-01
  -1.8359469878916942E-01  -1.8384482246777770E-01  -1.8408951324203968E-01
  -1.8432870047704836E-01  -1.8456231319142727E-01  -1.8479028006075901E-01
  -1.8501252942110655E-01  -1.8522898927262837E-01  -1.8543958728328791E-01
  -1.8564425079265812E-01  -1.8584290681582183E-01  -1.8603548204736883E-01
  -1.8622190286549006E-01  -1.8640209533616989E-01  -1.8657598521747676E-01
  -1.8674349796395373E-01  -1.8690455873110856E-01  -1.8705909238000473E-01
  -1.8720702348195375E-01  -1.8734827632330969E-01  -1.8748277491036622E-01
  -1.8761044297435692E-01  -1.8773120397655987E-01  -1.8784498111350659E-01
  -1.8795169732229630E-01  -1.8805127528601601E-01  -1.8814363743926701E-01
  -1.8822870597379868E-01  -1.8830640284424929E-01  -1.8837664977399587E-01
  -1.8843936826111218E-01  -1.8849447958443635E-01  -1.8854190480974833E-01
  -1.8858156479605778E-01  -1.8861338020200302E-01  -1.8863727149236131E-01
  -1.8865315894467138E-01  -1.8866096265596830E-01  -1.8866060254963130E-01
  -1.8865199838234548E-01  -1.8863506975117700E-01  -1.8860973610076306E-01
  -1.8857591673061663E-01  -1.8853353080254664E-01  -1.8848249734819369E-01
  -1.8842273527668235E-01  -1.8835416338238961E-01  -1.8827670035283076E-01
  -1.8819026477666240E-01  -1.8809477515180331E-01  -1.8799014989367344E-01
  -1.8787630734355146E-01  -1.8775316577705092E-01  -1.8762064341271589E-01
  -1.8747865842073580E-01  -1.8732712893178019E-01  -1.8716597304595353E-01
  -1.8699510884187034E-01  -1.8681445438585087E-01  -1.8662392774123771E-01
  -1.8642344697783350E-01  -1.8621293018145996E-01  -1.8599229546363813E-01
  -1.8576146097139093E-01  -1.8552034489716696E-01  -1.8526886548888677E-01
  -1.8500694106011106E-01  -1.8473449000033140E-01  -1.8445143078538306E-01
  -1.8415768198798085E-01  -1.8385316228837692E-01  -1.8353779048514171E-01
  -1.8321148550606736E-01  -1.8287416641919382E-01  -1.8252575244395772E-01
  -1.8216616296246388E-01  -1.8179531753087944E-01  -1.8141313589095059E-01
  -1.8101953798164180E-01  -1.8061444395089732E-01  -1.8019777416752503E-01
  -1.7976944923320243E-01  -1.7932938999460427E-01  -1.7887751755565226E-01
  -1.7841375328988590E-01  -1.7793801885295463E-01  -1.7745023619523095E-01
  -1.7695032757454421E-01  -1.7643821556903422E-01  -1.7591382309012538E-01
  -1.7537707339561961E-01  -1.7482789010290875E-01  -1.7426619720230518E-01
  -1.7369191907049064E-01  -1.7310498048408243E-01  -1.7250530663331640E-01
  -1.7189282313584631E-01  -1.7126745605065857E-01  -1.7062913189210202E-01
  -1.6997777764403171E-01  -1.6931332077406575E-01  -1.6863568924795500E-01
  -1.6794481154406402E-01  -1.6724061666796269E-01  -1.6652303416712735E-01
  -1.6579199414575060E-01  -1.6504742727965852E-01  -1.6428926483133399E-01
  -1.6351743866504548E-01  -1.6273188126207905E-01  -1.6193252573607328E-01
  -1.6111930584845507E-01  -1.6029215602397490E-01  -1.5945101136634024E-01
  -1.5859580767394549E-01  -1.5772648145569643E-01  -1.5684296994692778E-01
  -1.5594521112541213E-01  -1.5503314372745777E-01  -1.5410670726409409E-01
  -1.5316584203734226E-01  -1.5221048915656873E-01  -1.5124059055491987E-01
  -1.5025608900583487E-01  -1.4925692813963518E-01  -1.4824305246018712E-01
  -1.4721440736163599E-01  -1.4617093914520807E-01  -1.4511259503607873E-01
  -1.4403932320030288E-01  -1.4295107276180519E-01  -1.4184779381942711E-01
  -1.4072943746402733E-01  -1.3959595579563228E-01  -1.3844730194063354E-01
  -1.3728343006902866E-01  -1.3610429541170133E-01  -1.3490985427773791E-01
  -1.3370006407177604E-01  -1.3247488331138116E-01  -1.3123427164444776E-01
  -1.2997818986662030E-01  -1.2870659993872999E-01  -1.2741946500424323E-01
  -1.2611674940671683E-01  -1.2479841870725562E-01  -1.2346443970196802E-01
  -1.2211478043941426E-01  -1.2074941023804293E-01  -1.1936829970361058E-01
  -1.1797142074657922E-01  -1.1655874659948698E-01  -1.1513025183428614E-01
  -1.1368591237964379E-01  -1.1222570553819912E-01  -1.1074961000377238E-01
  -1.0925760587851979E-01  -1.0774967469002869E-01  -1.0622579940834748E-01
  -1.0468596446294459E-01  -1.0313015575959088E-01  -1.0155836069715936E-01
  -9.9970568184337194E-02  -9.8366768656243414E-02  -9.6746954090947287E-02
  -9.5111118025881139E-02  -9.3459255574142336E-02  -9.1791363440678508E-02
  -9.0107439938350478E-02  -8.8407485003867706E-02  -8.6691500213590345E-02
  -8.4959488799193114E-02  -8.3211455663185482E-02  -8.1447407394283328E-02
  -7.9667352282627210E-02  -7.7871300334842519E-02  -7.6059263288937057E-02
  -7.4231254629031934E-02  -7.2387289599921648E-02  -7.0527385221459668E-02
  -6.8651560302766146E-02  -6.6759835456254538E-02  -6.4852233111474436E-02
  -6.2928777528768132E-02  -6.0989494812738826E-02  -5.9034412925528856E-02
  -5.7063561699906756E-02  -5.5076972852162245E-02  -5.3074679994808853E-02
  -5.1056718649094390E-02  -4.9023126257319811E-02  -4.6973942194967713E-02
  -4.4909207782642173E-02  -4.2828966297822159E-02  -4.0733262986431346E-02
  -3.8622145074227690E-02  -3.6495661778016941E-02  -3.4353864316694398E-02
  -3.2196805922120410E-02  -3.0024541849835100E-02  -2.7837129389619002E-02
  -2.5634627875906361E-02  -2.3417098698058872E-02  -2.1184605310507927E-02
  -1.8937213242774129E-02  -1.6674990109373351E-02  -1.4398005619619193E-02
  -1.2106331587332075E-02  -9.8000419404658170E-03  -7.4792127306628495E-03
  -5.1439221427496701E-03  -2.7942505041844774E-03  -4.3028029446920142E-04
   1.9479038454616241E-03   4.3402151038625285E-03   6.7465644887965788E-03
   9.1668608187399254E-03   1.1601010713158704E-02   1.4048918583045742E-02
   1.6510486621404672E-02   1.8985614793669482E-02   2.1474200828047785E-02
   2.3976140205776712E-02   2.6491326151280890E-02   2.9019649622222671E-02
   3.1560999299435628E-02   3.4115261576733190E-02   3.6682320550585401E-02
   3.9262058009657902E-02   4.1854353424208394E-02   4.4459083935337380E-02
   4.7076124344091232E-02   4.9705347100417296E-02   5.2346622291972442E-02
   5.4999817632787967E-02   5.7664798451795882E-02   6.0341427681223150E-02
   6.3029565844862676E-02   6.5729071046231602E-02   6.8439798956629508E-02
   7.1161602803111262E-02   7.3894333356390993E-02   7.6637838918696022E-02
   7.9391965311591206E-02   8.2156555863796069E-02   8.4931451399019239E-02
   8.7716490223835833E-02   9.0511508115635408E-02   9.3316338310669322E-02
   9.6130811492227561E-02   9.8954755778975972E-02   1.0178799671348565E-01
   1.0463035725098679E-01   1.0748165774837913E-01   1.1034171595353125E-01
   1.1321034699490025E-01   1.1608736337150252E-01   1.1897257494326489E-01
   1.2186578892178374E-01   1.2476680986151738E-01   1.2767543965143474E-01
   1.3059147750713979E-01   1.3351471996348765E-01   1.3644496086770547E-01
   1.3938199137302471E-01   1.4232559993282912E-01   1.4527557229531582E-01
   1.4823169149866267E-01   1.5119373786668899E-01   1.5416148900499207E-01
   1.5713471979753560E-01   1.6011320240366128E-01   1.6309670625549108E-01
   1.6608499805568211E-01   1.6907784177549445E-01   1.7207499865313020E-01
   1.7507622719230201E-01   1.7808128316099264E-01   1.8108991959037093E-01
   1.8410188677384029E-01   1.8711693226620688E-01   1.9013480088297471E-01
   1.9315523469979770E-01   1.9617797305215168E-01   1.9920275253532932E-01
   2.0222930700491168E-01   2.0525736757793298E-01   2.0828666263503237E-01
   2.1131691782397874E-01   2.1434785606506679E-01   2.1737919755901575E-01
   2.2041065979815949E-01   2.2344195758190180E-01   2.2647280303762693E-01
   2.2950290564850692E-01   2.3253197228993500E-01   2.3555970727664782E-01
   2.3858581242297394E-01   2.4160998711907267E-01   2.4463192842650353E-01
   2.4765133119699442E-01   2.5066788821885799E-01   2.5368129039613541E-01
   2.5669122696622187E-01   2.5969738576243923E-01   2.6269945352875279E-01
   2.6569711629456816E-01   2.6869005981825461E-01   2.7167797010869937E-01
   2.7466053403474949E-01   2.7763744003279339E-01   2.8060837892290214E-01
   2.8357304484380719E-01   2.8653113631644039E-01   2.8948235744468687E-01
   2.9242641926027363E-01   2.9536304121619400E-01   2.9829195282959325E-01
   3.0121289547045094E-01   3.0412562428653150E-01   3.0702991024778131E-01
   3.0992554228449143E-01   3.1281232948304294E-01   3.1569010329086206E-01
   3.1855871966842125E-01   3.2141806111091592E-01   3.2426803844602686E-01
   3.2710859229756284E-01   3.2993969408872476E-01   3.3276134644457112E-01
   3.3557358284279343E-01   3.3837646635744245E-01   3.4117008734458132E-01
   3.4395455993519281E-01   3.4673001723236863E-01   3.4949660515985609E-01
   3.5225447497935108E-01   3.5500377458436000E-01   3.5774463878569690E-01
   3.6047717892023878E-01   3.6320147222830057E-01   3.6591755153966343E-01
   3.6862539586552756E-01   3.7132492249641869E-01   3.7401598114312545E-01
   3.7669835052789874E-01   3.7937173764776555E-01   3.8203577971416347E-01
   3.8469004855412137E-01   3.8733405706973567E-01   3.8996726722016778E-01
   3.9258909892752097E-01   3.9519893931485228E-01   3.9779615174963689E-01
   4.0038008427035277E-01   4.0295007709655983E-01   4.0550546904530976E-01
   4.0804560278531526E-01   4.1056982894718352E-01   4.1307750917051450E-01
   4.1556801820796496E-01   4.1804074522597945E-01   4.2049509444628536E-01
   4.2293048526597132E-01   4.2534635198101622E-01   4.2774214322170839E-01
   4.3011732119084034E-01   4.3247136077848425E-01   4.3480374861151616E-01
   4.3711398208236119E-01   4.3940156838985439E-01   4.4166602361560897E-01
   4.4390687185168470E-01   4.4612364438941943E-01   4.4831587897477904E-01
   4.5048311913223504E-01   4.5262491355678175E-01   4.5474081557204044E-01
   4.5683038265131232E-01   4.5889317599778673E-01   4.6092876017977114E-01
   4.6293670281670979E-01   4.6491657431180772E-01   4.6686794762724304E-01
   4.6879039809817852E-01   4.7068350328205399E-01   4.7254684283992504E-01
   4.7437999844690010E-01   4.7618255372900697E-01   4.7795409422408491E-01
   4.7969420736453944E-01   4.8140248248002604E-01   4.8307851081832709E-01
   4.8472188558287105E-01   4.8633220198550375E-01   4.8790905731326473E-01
   4.8945205100804795E-01   4.9096078475813676E-01   4.9243486260070041E-01
   4.9387389103442397E-01   4.9527747914151787E-01   4.9664523871841865E-01
   4.9797678441455084E-01   4.9927173387856749E-01   5.0052970791153617E-01
   5.0175033062657226E-01   5.0293322961446341E-01   5.0407803611485458E-01
   5.0518438519260001E-01   5.0625191591891183E-01   5.0728027155696054E-01
   5.0826909975161072E-01   5.0921805272299170E-01   5.1012678746363282E-01
   5.1099496593890481E-01   5.1182225529053571E-01   5.1260832804298595E-01
   5.1335286231248434E-01   5.1405554201854697E-01   5.1471605709781743E-01
   5.1533410372007948E-01   5.1590938450631496E-01   5.1644160874868683E-01
   5.1693049263234847E-01   5.1737575945898440E-01   5.1777713987200658E-01
   5.1813437208333735E-01   5.1844720210171635E-01   5.1871538396248207E-01
   5.1893867995877985E-01   5.1911686087415532E-01   5.1924970621649325E-01
   5.1933700445326358E-01   5.1937855324803717E-01   5.1937415969822653E-01
   5.1932364057400593E-01   5.1922682255835817E-01   5.1908354248818045E-01
   5.1889364759637757E-01   5.1865699575485225E-01   5.1837345571828464E-01
   5.1804290736857828E-01   5.1766524195982366E-01   5.1724036236361115E-01
   5.1676818331449370E-01   5.1624863165537282E-01   5.1568164658255322E-01
   5.1506717989017026E-01   5.1440519621366565E-01   5.1369567327194599E-01
   5.1293860210781794E-01   5.1213398732625481E-01   5.1128184733000581E-01
   5.1038221455201693E-01   5.0943513568408583E-01   5.0844067190113162E-01
   5.0739889908041713E-01   5.0630990801501441E-01   5.0517380462076678E-01
   5.0399071013595909E-01   5.0276076131287095E-01   5.0148411060035303E-01
   5.0016092631653541E-01   4.9879139281075591E-01   4.9737571061376618E-01
   4.9591409657526575E-01   4.9440678398780202E-01   4.9285402269606965E-01
   4.9125607919064984E-01   4.8961323668523937E-01   4.8792579517644263E-01
   4.8619407148522276E-01   4.8441839927914732E-01   4.8259912907461072E-01
   4.8073662821826013E-01   4.7883128084692256E-01   4.7688348782539197E-01
   4.7489366666151489E-01   4.7286225139809407E-01   4.7078969248122032E-01
   4.6867645660473783E-01   4.6652302653064409E-01   4.6432990088533427E-01
   4.6209759393170241E-01   4.5982663531722029E-01   4.5751756979822544E-01
   4.5517095694075771E-01   4.5278737079839193E-01   4.5036739956761845E-01
   4.4791164522142757E-01   4.4542072312185271E-01   4.4289526161231640E-01
   4.4033590159071639E-01   4.3774329606426626E-01   4.3511810968718206E-01
   4.3246101828236944E-01   4.2977270834833042E-01   4.2705387655255350E-01
   4.2430522921269692E-01   4.2152748176690846E-01   4.1872135823464962E-01
   4.1588759066940917E-01   4.1302691860470209E-01   4.1014008849474926E-01
   4.0722785315122806E-01   4.0429097117747154E-01   4.0133020640147155E-01
   3.9834632730901914E-01   3.9534010647827983E-01   3.9231232001706767E-01
   3.8926374700403921E-01   3.8619516893498307E-01   3.8310736917533189E-01
   3.8000113241836092E-01   3.7687724415821888E-01   3.7373649016237120E-01
   3.7057965596088061E-01   3.6740752634504431E-01   3.6422088487785370E-01
   3.6102051341700181E-01   3.5780719165110592E-01   3.5458169664974920E-01
   3.5134480242788863E-01   3.4809727952511366E-01   3.4483989460018477E-01
   3.4157341004122260E-01   3.3829858359186249E-01   3.3501616799363337E-01
   3.3172691064476989E-01   3.2843155327561024E-01   3.2513083164068690E-01
   3.2182547522756322E-01   3.1851620698242783E-01   3.1520374305240739E-01
   3.1188879254451846E-01   3.0857205730113429E-01   3.0525423169180377E-01
   3.0193600242121738E-01   2.9861804835308048E-01   2.9530104034961513E-01
   2.9198564112637848E-01   2.8867250512205095E-01   2.8536227838281686E-01
   2.8205559846092676E-01   2.7875309432700446E-01   2.7545538629563066E-01
   2.7216308596371064E-01   2.6887679616110605E-01   2.6559711091298888E-01
   2.6232461541335034E-01   2.5905988600907948E-01   2.5580349019400350E-01
   2.5255598661226469E-01   2.4931792507039444E-01   2.4608984655742483E-01
   2.4287228327237129E-01   2.3966575865840348E-01   2.3647078744301511E-01
   2.3328787568349543E-01   2.3011752081700046E-01   2.2696021171451783E-01
   2.2381642873802182E-01   2.2068664380011416E-01   2.1757132042545349E-01
   2.1447091381328259E-01   2.1138587090037436E-01   2.0831663042372911E-01
   2.0526362298237472E-01   2.0222727109763386E-01   1.9920798927127109E-01
   1.9620618404086090E-01   1.9322225403209412E-01   1.9025659000650147E-01
   1.8730957490795033E-01   1.8438158389388126E-01   1.8147298438913320E-01
   1.7858413608697277E-01   1.7571539098763250E-01   1.7286709341995624E-01
   1.7003958004341607E-01   1.6723317985290681E-01   1.6444821417702363E-01
   1.6168499666849304E-01   1.5894383328795170E-01   1.5622502228102408E-01
   1.5352885414878678E-01   1.5085561161175864E-01   1.4820556956760789E-01
   1.4557899504281840E-01   1.4297614713860496E-01   1.4039727697141460E-01
   1.3784262760839625E-01   1.3531243399826021E-01   1.3280692289799062E-01
   1.3032631279590653E-01   1.2787081383160082E-01   1.2544062771331316E-01
   1.2303594763331846E-01   1.2065695818193004E-01   1.1830383526073578E-01
   1.1597674599569427E-01   1.1367584865072737E-01   1.1140129254244792E-01
   1.0915321795666087E-01   1.0693175606727087E-01   1.0473702885822131E-01
   1.0256914904907588E-01   1.0042822002483921E-01   9.8314335770592245E-02
   9.6227580811496419E-02   9.4168030158694641E-02   9.2135749261609196E-02
   9.0130793967106368E-02   8.8153210485964972E-02   8.6203035367051775E-02
   8.4280295479571332E-02   8.2385008003720506E-02   8.0517180430040719E-02
   7.8676810567721897E-02   7.6863886562074102E-02   7.5078386921343304E-02
   7.3320280553009570E-02   7.1589526809667181E-02   6.9886075544548731E-02
   6.8209867176717995E-02   6.6560832765920605E-02   6.4938894097046229E-02
   6.3343963774122630E-02   6.1775945323729230E-02   6.0234733307687693E-02
   5.8720213444856784E-02   5.7232262741831963E-02   5.5770749632324070E-02
   5.4335534124967076E-02   5.2926467959282894E-02   5.1543394769510469E-02
   5.0186150255987806E-02   4.8854562363758652E-02   4.7548451468060506E-02
   4.6267630566337238E-02   4.5011905476408112E-02   4.3781075040415188E-02
   4.2574931334162659E-02   4.1393259881455473E-02   4.0235839873039164E-02
   3.9102444389739498E-02   3.7992840629398415E-02   3.6906790137201842E-02
   3.5844049038995775E-02   3.4804368277188441E-02   3.3787493848839563E-02
   3.2793167045541673E-02   3.1821124694703343E-02   3.0871099401850198E-02
   2.9942819793566614E-02   2.9036010760708292E-02   2.8150393701524470E-02
   2.7285686764337673E-02   2.6441605089438235E-02   2.5617861049861385E-02
   2.4814164490725085E-02   2.4030222966818043E-02   2.3265741978138747E-02
   2.2520425203098222E-02   2.1793974729111192E-02   2.1086091280312632E-02
   2.0396474442149152E-02   1.9724822882607199E-02   1.9070834569852819E-02
   1.8434206986070251E-02   1.7814637337299502E-02   1.7211822759085709E-02
   1.6625460517765655E-02   1.6055248207229485E-02   1.5500883941008006E-02
   1.4962066539548256E-02   1.4438495712552245E-02   1.3929872236265645E-02
   1.3435898125614954E-02   1.2956276801103185E-02   1.2490713250385458E-02
   1.2038914184456758E-02   1.1600588188395048E-02   1.1175445866613211E-02
   1.0763199982583618E-02   1.0363565593008887E-02   9.9762601764220027E-03
   9.6010037562081971E-03   9.2375190180499032E-03   8.8855314218047026E-03
   8.5447693078344027E-03   8.2149639978113583E-03   7.8958498900356961E-03
   7.5871645493043567E-03   7.2886487913798028E-03   7.0000467621127932E-03
   6.7211060112798721E-03   6.4515775612021238E-03   6.1912159702173335E-03
   5.9397793910829213E-03   5.6970296243919446E-03   5.4627321670890957E-03
   5.2366562561778646E-03   5.0185749077140468E-03   4.8082649511844442E-03
   4.6055070593729753E-03   4.4100857738194853E-03   4.2217895259793756E-03
   4.0404106541946381E-03   3.8657454165891567E-03   3.6975940000031132E-03
   3.5357605250830254E-03   3.3800530476454445E-03   3.2302835564335317E-03
   3.0862679673867429E-03   2.9478261145445927E-03   2.8147817377060071E-03
   2.6869624669661057E-03   2.5641998042523657E-03   2.4463291019820466E-03
   2.3331895389624817E-03   2.2246240936553974E-03   2.1204795149258088E-03
   2.0206062903952316E-03   1.9248586125180304E-03   1.8330943424986169E-03
   1.7451749721659709E-03   1.6609655839206056E-03   1.5803348088675798E-03
   1.5031547832475573E-03   1.4293011032761867E-03   1.3586527785002260E-03
   1.2910921837769277E-03   1.2265050099811603E-03   1.1647802135426460E-03
   1.1058099649135088E-03   1.0494895960640744E-03   9.9571754710254872E-04
   9.4439531211181979E-04   8.9542738429420742E-04   8.4872120051251022E-04
   8.0418708531318137E-04   7.6173819451492704E-04   7.2129045844343466E-04
   6.8276252489034436E-04   6.4607570187195614E-04   6.1115390026053259E-04
   5.7792357635841666E-04   5.4631367448253752E-04   5.1625556962423447E-04
   4.8768301024668332E-04   4.6053206127958513E-04   4.3474104736814873E-04
   4.1025049643080204E-04   3.8700308357747938E-04   3.6494357543777307E-04
   3.4401877494570388E-04   3.2417746662535834E-04   3.0537036241917167E-04
   2.8755004809819570E-04   2.7067093029129342E-04   2.5468918416784124E-04
   2.3956270180620543E-04   2.2525104127798436E-04   2.1171537647578546E-04
   1.9891844771012491E-04   1.8682451309891425E-04   1.7539930077091817E-04
   1.6460996190254755E-04   1.5442502460538031E-04   1.4481434867988921E-04
   1.3574908124899742E-04   1.2720161328328106E-04   1.1914553702789386E-04
   1.1155560433960414E-04   1.0440768594070601E-04   9.7678731594999407E-05
   9.1346731209523597E-05   8.5390676864279897E-05   7.9790525770787672E-05
   7.4527164158986778E-05   6.9582372090727085E-05   6.4938789196871408E-05
   6.0579881333883156E-05   5.6489908154671697E-05   5.2653891587428309E-05
   4.9057585215201360E-05   4.5687444548031760E-05   4.2530598178596399E-05
   3.9574819811489328E-05   3.6808501155504625E-05   3.4220625667572670E-05
   3.1800743136339866E-05   2.9538945092770768E-05   2.7425841034589718E-05
   2.5452535450865094E-05   2.3610605632572131E-05   2.1892080254548470E-05
   2.0289418713879380E-05   1.8795491209414810E-05   1.7403559546827657E-05
   1.6107258653369712E-05   1.4900578786267846E-05   1.3777848418526408E-05
   1.2733717785761199E-05   1.1763143077584369E-05   1.0861371256986723E-05
   1.0023925491122597E-05   9.2465911768916833E-06   8.5254025447298701E-06
   7.8566298240665701E-06   7.2367669539771861E-06   6.6625198226551853E-06
   6.1307950194472449E-06   5.6386890833357437E-06   5.1834782319140433E-06
   4.7626085550803916E-06   4.3736866578743222E-06   4.0144707370940506E-06
   3.6828620765631757E-06   3.3768969461587712E-06   3.0947388899695412E-06
   2.8346713892208643E-06   2.5950908858821715E-06   2.3745001531600544E-06
   2.1715019993767192E-06   1.9847932920368174E-06   1.8131592891953530E-06
   1.6554682655542315E-06   1.5106664210342390E-06   1.3777730598918456E-06
   1.2558760287754301E-06   1.1441274024424615E-06   1.0417394061870807E-06
   9.4798056435569145E-07   8.6217206465585017E-07   7.8368432829032268E-07
   7.1193377627299335E-07   6.4637978260582147E-07   5.8652180531565903E-07
   5.3189668666599679E-07   4.8207611417109237E-07   4.3666423434804070E-07
   3.9529541144575842E-07   3.5763212368820445E-07   3.2336298986212633E-07
   2.9220091936688521E-07   2.6388137912521416E-07   2.3816077102905495E-07
   2.1481491386150608E-07   1.9363762394994206E-07   1.7443938839880018E-07
   1.5704613019564482E-07   1.4129803971415752E-07   1.2704852579976241E-07
   1.1416319391356434E-07   1.0251889756041770E-07   9.2002877098690638E-08
   8.2511954094404293E-08   7.3951779033070461E-08   6.6236132664704394E-08
   5.9286277606438822E-08   5.3030357005191892E-08   4.7402837233883811E-08
   4.2343991758935524E-08   3.7799423474324189E-08   3.3719622948431584E-08
   3.0059560174434681E-08   2.6778307553189931E-08   2.3838691969586095E-08
   2.1206973949553293E-08   1.8852552002969293E-08   1.6747690393320688E-08
   1.4867268555671951E-08  -0.0000000000000000E+00  -0.0000000000000000E+00
  -0.0000000000000000E+00  -0.0000000000000000E+00
       </PP_GIPAW_WFS_AE>
       <PP_GIPAW_WFS_PS size="2291">
  -3.5997912906932274E-05  -3.6213900384028288E-05  -3.6431183785980613E-05
  -3.6649770888338286E-05  -3.6869669513294043E-05  -3.7090887529939237E-05
  -3.7313432854632420E-05  -3.7537313451219031E-05  -3.7762537331329457E-05
  -3.7989112554663836E-05  -3.8217047229280461E-05  -3.8446349511885983E-05
  -3.8677027608127294E-05  -3.8909089772885106E-05  -3.9142544310569415E-05
  -3.9377399575416658E-05  -3.9613663971788651E-05  -3.9851345954473411E-05
  -4.0090454028987601E-05  -4.0330996751880999E-05  -4.0572982731042658E-05
  -4.0816420626008921E-05  -4.1061319148273353E-05  -4.1307687061598433E-05
  -4.1555533182329225E-05  -4.1804866379708794E-05  -4.2055695576195664E-05
  -4.2308029747783110E-05  -4.2561877924320293E-05  -4.2817249189835467E-05
  -4.3074152682861052E-05  -4.3332597596760581E-05  -4.3592593180057779E-05
  -4.3854148736767501E-05  -4.4117273626728614E-05  -4.4381977265939038E-05
  -4.4648269126892609E-05  -4.4916158738918143E-05  -4.5185655688520354E-05
  -4.5456769619722979E-05  -4.5729510234413858E-05  -4.6003887292692119E-05
  -4.6279910613217476E-05  -4.6557590073561541E-05  -4.6836935610561346E-05
  -4.7117957220674899E-05  -4.7400664960338915E-05  -4.7685068946328696E-05
  -4.7971179356120185E-05  -4.8259006428254101E-05  -4.8548560462702395E-05
  -4.8839851821236815E-05  -4.9132890927799678E-05  -4.9427688268876957E-05
  -4.9724254393873460E-05  -5.0022599915490396E-05  -5.0322735510105143E-05
  -5.0624671918153307E-05  -5.0928419944513026E-05  -5.1233990458891724E-05
  -5.1541394396215000E-05  -5.1850642757017932E-05  -5.2161746607838790E-05
  -5.2474717081615020E-05  -5.2789565378081651E-05  -5.3106302764172080E-05
  -5.3424940574421207E-05  -5.3745490211371158E-05  -5.4067963145979213E-05
  -5.4392370918028358E-05  -5.4718725136540224E-05  -5.5047037480190518E-05
  -5.5377319697726939E-05  -5.5709583608389627E-05  -5.6043841102334095E-05
  -5.6380104141056732E-05  -5.6718384757822833E-05  -5.7058695058097268E-05
  -5.7401047219977590E-05  -5.7745453494629873E-05  -5.8091926206727156E-05
  -5.8440477754890455E-05  -5.8791120612132363E-05  -5.9143867326303605E-05
  -5.9498730520541843E-05  -5.9855722893723542E-05  -6.0214857220918337E-05
  -6.0576146353846228E-05  -6.0939603221337410E-05  -6.1305240829795068E-05
  -6.1673072263660649E-05  -6.2043110685882215E-05  -6.2415369338385414E-05
  -6.2789861542547384E-05  -6.3166600699673446E-05  -6.3545600291476645E-05
  -6.3926873880560238E-05  -6.4310435110903009E-05  -6.4696297708347522E-05
  -6.5084475481091324E-05  -6.5474982320181012E-05  -6.5867832200009436E-05
  -6.6263039178815668E-05  -6.6660617399188091E-05  -6.7060581088570584E-05
  -6.7462944559771516E-05  -6.7867722211476067E-05  -6.8274928528761397E-05
  -6.8684578083614989E-05  -6.9096685535456232E-05  -6.9511265631660838E-05
  -6.9928333208088683E-05  -7.0347903189614715E-05  -7.0769990590662990E-05
  -7.1194610515743981E-05  -7.1621778159995151E-05  -7.2051508809724597E-05
  -7.2483817842958196E-05  -7.2918720729989804E-05  -7.3356233033934984E-05
  -7.3796370411287820E-05  -7.4239148612481186E-05  -7.4684583482450444E-05
  -7.5132690961200499E-05  -7.5583487084376005E-05  -7.6036987983835519E-05
  -7.6493209888228408E-05  -7.6952169123575907E-05  -7.7413882113855240E-05
  -7.7878365381587266E-05  -7.8345635548427833E-05  -7.8815709335762623E-05
  -7.9288603565305378E-05  -7.9764335159700019E-05  -8.0242921143126153E-05
  -8.0724378641908255E-05  -8.1208724885128592E-05  -8.1695977205243804E-05
  -8.2186153038705002E-05  -8.2679269926581845E-05  -8.3175345515190246E-05
  -8.3674397556723827E-05  -8.4176443909889101E-05  -8.4681502540544712E-05
  -8.5189591522344209E-05  -8.5700729037382881E-05  -8.6214933376848330E-05
  -8.6732222941675113E-05  -8.7252616243203192E-05  -8.7776131903840289E-05
  -8.8302788657728393E-05  -8.8832605351414089E-05  -8.9365600944523035E-05
  -8.9901794510438389E-05  -9.0441205236983330E-05  -9.0983852427107816E-05
  -9.1529755499579168E-05  -9.2078933989677111E-05  -9.2631407549892761E-05
  -9.3187195950631928E-05  -9.3746319080922566E-05  -9.4308796949126530E-05
  -9.4874649683655601E-05  -9.5443897533691710E-05  -9.6016560869911574E-05
  -9.6592660185215739E-05  -9.7172216095461767E-05  -9.7755249340202146E-05
  -9.8341780783426329E-05  -9.8931831414307374E-05  -9.9525422347953031E-05
  -1.0012257482616147E-04  -1.0072331021818119E-04  -1.0132765002147596E-04
  -1.0193561586249387E-04  -1.0254722949744143E-04  -1.0316251281306199E-04
  -1.0378148782741901E-04  -1.0440417669068393E-04  -1.0503060168592889E-04
  -1.0566078522992403E-04  -1.0629474987393974E-04  -1.0693251830455360E-04
  -1.0757411334446231E-04  -1.0821955795329828E-04  -1.0886887522845133E-04
  -1.0952208840589514E-04  -1.1017922086101882E-04  -1.1084029610946341E-04
  -1.1150533780796327E-04  -1.1217436975519277E-04  -1.1284741589261779E-04
  -1.1352450030535259E-04  -1.1420564722302156E-04  -1.1489088102062639E-04
  -1.1558022621941831E-04  -1.1627370748777544E-04  -1.1697134964208566E-04
  -1.1767317764763476E-04  -1.1837921661949960E-04  -1.1908949182344696E-04
  -1.1980402867683767E-04  -1.2052285274953615E-04  -1.2124598976482542E-04
  -1.2197346560032764E-04  -1.2270530628892998E-04  -1.2344153801971652E-04
  -1.2418218713890498E-04  -1.2492728015078993E-04  -1.2567684371869099E-04
  -1.2643090466590704E-04  -1.2718948997667603E-04  -1.2795262679714077E-04
  -1.2872034243632010E-04  -1.2949266436708637E-04  -1.3026962022714839E-04
  -1.3105123782004038E-04  -1.3183754511611725E-04  -1.3262857025355510E-04
  -1.3342434153935836E-04  -1.3422488745037264E-04  -1.3503023663430391E-04
  -1.3584041791074350E-04  -1.3665546027219946E-04  -1.3747539288513409E-04
  -1.3830024509100741E-04  -1.3913004640732758E-04  -1.3996482652870679E-04
  -1.4080461532792394E-04  -1.4164944285699371E-04  -1.4249933934824192E-04
  -1.4335433521538740E-04  -1.4421446105463036E-04  -1.4507974764574704E-04
  -1.4595022595319148E-04  -1.4682592712720336E-04  -1.4770688250492276E-04
  -1.4859312361151147E-04  -1.4948468216128121E-04  -1.5038159005882843E-04
  -1.5128387940017597E-04  -1.5219158247392178E-04  -1.5310473176239416E-04
  -1.5402335994281415E-04  -1.5494749988846496E-04  -1.5587718466986817E-04
  -1.5681244755596732E-04  -1.5775332201531831E-04  -1.5869984171728701E-04
  -1.5965204053325417E-04  -1.6060995253782748E-04  -1.6157361201006094E-04
  -1.6254305343468145E-04  -1.6351831150332270E-04  -1.6449942111576690E-04
  -1.6548641738119342E-04  -1.6647933561943516E-04  -1.6747821136224253E-04
  -1.6848308035455480E-04  -1.6949397855577940E-04  -1.7051094214107842E-04
  -1.7153400750266344E-04  -1.7256321125109743E-04  -1.7359859021660523E-04
  -1.7464018145039119E-04  -1.7568802222596509E-04  -1.7674215004047597E-04
  -1.7780260261605392E-04  -1.7886941790116000E-04  -1.7994263407194403E-04
  -1.8102228953361082E-04  -1.8210842292179453E-04  -1.8320107310394097E-04
  -1.8430027918069864E-04  -1.8540608048731787E-04  -1.8651851659505828E-04
  -1.8763762731260493E-04  -1.8876345268749282E-04  -1.8989603300753987E-04
  -1.9103540880228859E-04  -1.9218162084445661E-04  -1.9333471015139524E-04
  -1.9449471798655768E-04  -1.9566168586097527E-04  -1.9683565553474310E-04
  -1.9801666901851433E-04  -1.9920476857500334E-04  -2.0039999672049824E-04
  -2.0160239622638222E-04  -2.0281201012066393E-04  -2.0402888168951730E-04
  -2.0525305447883062E-04  -2.0648457229576443E-04  -2.0772347921031945E-04
  -2.0896981955691329E-04  -2.1022363793596718E-04  -2.1148497921550158E-04
  -2.1275388853274208E-04  -2.1403041129573435E-04  -2.1531459318496900E-04
  -2.1660648015501646E-04  -2.1790611843617092E-04  -2.1921355453610514E-04
  -2.2052883524153414E-04  -2.2185200761988994E-04  -2.2318311902100533E-04
  -2.2452221707880838E-04  -2.2586934971302705E-04  -2.2722456513090371E-04
  -2.2858791182892043E-04  -2.2995943859453408E-04  -2.3133919450792228E-04
  -2.3272722894373927E-04  -2.3412359157288365E-04  -2.3552833236427454E-04
  -2.3694150158664056E-04  -2.3836314981031805E-04  -2.3979332790906101E-04
  -2.4123208706186119E-04  -2.4267947875477995E-04  -2.4413555478278984E-04
  -2.4560036725162858E-04  -2.4707396857966352E-04  -2.4855641149976686E-04
  -2.5004774906120330E-04  -2.5154803463152756E-04  -2.5305732189849451E-04
  -2.5457566487198017E-04  -2.5610311788591439E-04  -2.5763973560022487E-04
  -2.5918557300279310E-04  -2.6074068541142242E-04  -2.6230512847581658E-04
  -2.6387895817957198E-04  -2.6546223084218006E-04  -2.6705500312104334E-04
  -2.6865733201350225E-04  -2.7026927485887466E-04  -2.7189088934050798E-04
  -2.7352223348784294E-04  -2.7516336567848997E-04  -2.7681434464031846E-04
  -2.7847522945355764E-04  -2.8014607955291113E-04  -2.8182695472968333E-04
  -2.8351791513391917E-04  -2.8521902127655601E-04  -2.8693033403158925E-04
  -2.8865191463825035E-04  -2.9038382470319816E-04  -2.9212612620272321E-04
  -2.9387888148496572E-04  -2.9564215327214594E-04  -2.9741600466280904E-04
  -2.9920049913408265E-04  -3.0099570054394824E-04  -3.0280167313352603E-04
  -3.0461848152937371E-04  -3.0644619074579897E-04  -3.0828486618718570E-04
  -3.1013457365033426E-04  -3.1199537932681591E-04  -3.1386734980534133E-04
  -3.1575055207414286E-04  -3.1764505352337212E-04  -3.1955092194751056E-04
  -3.2146822554779587E-04  -3.2339703293466222E-04  -3.2533741313019469E-04
  -3.2728943557059975E-04  -3.2925317010868929E-04  -3.3122868701638007E-04
  -3.3321605698720847E-04  -3.3521535113885945E-04  -3.3722664101571180E-04
  -3.3924999859139763E-04  -3.4128549627137798E-04  -3.4333320689553301E-04
  -3.4539320374076926E-04  -3.4746556052364040E-04  -3.4955035140298577E-04
  -3.5164765098258350E-04  -3.5375753431381965E-04  -3.5588007689837410E-04
  -3.5801535469092148E-04  -3.6016344410184963E-04  -3.6232442199999254E-04
  -3.6449836571538174E-04  -3.6668535304201300E-04  -3.6888546224062902E-04
  -3.7109877204152060E-04  -3.7332536164734318E-04  -3.7556531073595071E-04
  -3.7781869946324680E-04  -3.8008560846605223E-04  -3.8236611886499064E-04
  -3.8466031226739049E-04  -3.8696827077020559E-04  -3.8929007696295178E-04
  -3.9162581393066255E-04  -3.9397556525686152E-04  -3.9633941502655300E-04
  -3.9871744782923055E-04  -4.0110974876190374E-04  -4.0351640343214249E-04
  -4.0593749796114008E-04  -4.0837311898679515E-04  -4.1082335366681051E-04
  -4.1328828968181238E-04  -4.1576801523848702E-04  -4.1826261907273679E-04
  -4.2077219045285528E-04  -4.2329681918272104E-04  -4.2583659560501010E-04
  -4.2839161060442940E-04  -4.3096195561096758E-04  -4.3354772260316654E-04
  -4.3614900411141237E-04  -4.3876589322124564E-04  -4.4139848357669216E-04
  -4.4404686938361314E-04  -4.4671114541307565E-04  -4.4939140700474365E-04
  -4.5208775007028886E-04  -4.5480027109682185E-04  -4.5752906715034478E-04
  -4.6027423587922381E-04  -4.6303587551768275E-04  -4.6581408488931768E-04
  -4.6860896341063254E-04  -4.7142061109459600E-04  -4.7424912855421951E-04
  -4.7709461700615717E-04  -4.7995717827432666E-04  -4.8283691479355232E-04
  -4.8573392961323000E-04  -4.8864832640101359E-04  -4.9158020944652374E-04
  -4.9452968366508012E-04  -4.9749685460145280E-04  -5.0048182843364037E-04
  -5.0348471197666697E-04  -5.0650561268640452E-04  -5.0954463866341698E-04
  -5.1260189865682745E-04  -5.1567750206820871E-04  -5.1877155895549767E-04
  -5.2188418003693200E-04  -5.2501547669501114E-04  -5.2816556098048172E-04
  -5.3133454561634578E-04  -5.3452254400189274E-04  -5.3772967021675745E-04
  -5.4095603902500045E-04  -5.4420176587921391E-04  -5.4746696692465149E-04
  -5.5075175900338416E-04  -5.5405625965847922E-04  -5.5738058713820590E-04
  -5.6072486040026543E-04  -5.6408919911604585E-04  -5.6747372367490427E-04
  -5.7087855518847270E-04  -5.7430381549499095E-04  -5.7774962716366498E-04
  -5.8121611349905213E-04  -5.8470339854547126E-04  -5.8821160709144021E-04
  -5.9174086467414066E-04  -5.9529129758390757E-04  -5.9886303286874846E-04
  -6.0245619833888668E-04  -6.0607092257133389E-04  -6.0970733491448972E-04
  -6.1336556549276909E-04  -6.1704574521125564E-04  -6.2074800576038583E-04
  -6.2447247962065845E-04  -6.2821930006737455E-04  -6.3198860117540394E-04
  -6.3578051782398168E-04  -6.3959518570153246E-04  -6.4343274131052424E-04
  -6.4729332197235108E-04  -6.5117706583224457E-04  -6.5508411186421625E-04
  -6.5901459987602741E-04  -6.6296867051419072E-04  -6.6694646526900070E-04
  -6.7094812647959469E-04  -6.7497379733904423E-04  -6.7902362189947664E-04
  -6.8309774507722737E-04  -6.8719631265802420E-04  -6.9131947130220042E-04
  -6.9546736854994150E-04  -6.9964015282656148E-04  -7.0383797344781283E-04
  -7.0806098062522538E-04  -7.1230932547148012E-04  -7.1658316000581385E-04
  -7.2088263715945557E-04  -7.2520791078109720E-04  -7.2955913564239528E-04
  -7.3393646744350689E-04  -7.3834006281865857E-04  -7.4277007934174738E-04
  -7.4722667553197729E-04  -7.5171001085952850E-04  -7.5622024575126064E-04
  -7.6075754159645056E-04  -7.6532206075256306E-04  -7.6991396655105881E-04
  -7.7453342330323556E-04  -7.7918059630610278E-04  -7.8385565184829525E-04
  -7.8855875721601815E-04  -7.9329008069903111E-04  -7.9804979159666506E-04
  -8.0283806022387813E-04  -8.0765505791734508E-04  -8.1250095704158527E-04
  -8.1737593099512622E-04  -8.2228015421670472E-04  -8.2721380219150434E-04
  -8.3217705145743101E-04  -8.3717007961142589E-04  -8.4219306531581632E-04
  -8.4724618830470414E-04  -8.5232962939039319E-04  -8.5744357046985446E-04
  -8.6258819453123039E-04  -8.6776368566037886E-04  -8.7297022904745433E-04
  -8.7820801099353074E-04  -8.8347721891726238E-04  -8.8877804136158539E-04
  -8.9411066800045957E-04  -8.9947528964565051E-04  -9.0487209825355094E-04
  -9.1030128693204526E-04  -9.1576304994741360E-04  -9.2125758273127792E-04
  -9.2678508188758792E-04  -9.3234574519965383E-04  -9.3793977163721305E-04
  -9.4356736136354778E-04  -9.4922871574263940E-04  -9.5492403734636743E-04
  -9.6065352996175298E-04  -9.6641739859824329E-04  -9.7221584949504127E-04
  -9.7804909012847905E-04  -9.8391732921943313E-04  -9.8982077674079037E-04
  -9.9575964392494909E-04  -1.0017341432713737E-03  -1.0077444885541902E-03
  -1.0137908948298279E-03  -1.0198735784447074E-03  -1.0259927570429742E-03
  -1.0321486495742777E-03  -1.0383414763015994E-03  -1.0445714588091248E-03
  -1.0508388200101647E-03  -1.0571437841551223E-03  -1.0634865768395104E-03
  -1.0698674250120121E-03  -1.0762865569825960E-03  -1.0827442024306730E-03
  -1.0892405924133081E-03  -1.0957759593734782E-03  -1.1023505371483781E-03
  -1.1089645609777799E-03  -1.1156182675124389E-03  -1.1223118948225528E-03
  -1.1290456824062680E-03  -1.1358198711982404E-03  -1.1426347035782452E-03
  -1.1494904233798383E-03  -1.1563872758990708E-03  -1.1633255079032548E-03
  -1.1703053676397799E-03  -1.1773271048449877E-03  -1.1843909707530908E-03
  -1.1914972181051554E-03  -1.1986461011581288E-03  -1.2058378756939262E-03
  -1.2130727990285694E-03  -1.2203511300213805E-03  -1.2276731290842325E-03
  -1.2350390581908519E-03  -1.2424491808861792E-03  -1.2499037622957852E-03
  -1.2574030691353429E-03  -1.2649473697201564E-03  -1.2725369339747462E-03
  -1.2801720334424940E-03  -1.2878529412953404E-03  -1.2955799323435464E-03
  -1.3033532830455093E-03  -1.3111732715176377E-03  -1.3190401775442884E-03
  -1.3269542825877570E-03  -1.3349158697983350E-03  -1.3429252240244223E-03
  -1.3509826318227013E-03  -1.3590883814683721E-03  -1.3672427629654487E-03
  -1.3754460680571172E-03  -1.3836985902361545E-03  -1.3920006247554121E-03
  -1.4003524686383572E-03  -1.4087544206896831E-03  -1.4172067815059785E-03
  -1.4257098534864625E-03  -1.4342639408437836E-03  -1.4428693496148816E-03
  -1.4515263876719161E-03  -1.4602353647332606E-03  -1.4689965923745595E-03
  -1.4778103840398544E-03  -1.4866770550527753E-03  -1.4955969226277969E-03
  -1.5045703058815659E-03  -1.5135975258442937E-03  -1.5226789054712151E-03
  -1.5318147696541204E-03  -1.5410054452329510E-03  -1.5502512610074679E-03
  -1.5595525477489884E-03  -1.5689096382121924E-03  -1.5783228671469999E-03
  -1.5877925713105199E-03  -1.5973190894790685E-03  -1.6069027624602606E-03
  -1.6165439331051734E-03  -1.6262429463205822E-03  -1.6360001490812672E-03
  -1.6458158904423979E-03  -1.6556905215519889E-03  -1.6656243956634279E-03
  -1.6756178681480831E-03  -1.6856712965079811E-03  -1.6957850403885634E-03
  -1.7059594615915182E-03  -1.7161949240876882E-03  -1.7264917940300550E-03
  -1.7368504397668023E-03  -1.7472712318544557E-03  -1.7577545430711001E-03
  -1.7683007484296789E-03  -1.7789102251913689E-03  -1.7895833528790361E-03
  -1.8003205132907730E-03  -1.8111220905135147E-03  -1.8219884709367359E-03
  -1.8329200432662318E-03  -1.8439171985379791E-03  -1.8549803301320797E-03
  -1.8661098337867856E-03  -1.8773061076126137E-03  -1.8885695521065366E-03
  -1.8999005701662611E-03  -1.9112995671045957E-03  -1.9227669506638951E-03
  -1.9343031310305990E-03  -1.9459085208498512E-03  -1.9575835352402099E-03
  -1.9693285918084423E-03  -1.9811441106644097E-03  -1.9930305144360387E-03
  -2.0049882282843841E-03  -2.0170176799187791E-03  -2.0291192996120767E-03
  -2.0412935202159792E-03  -2.0535407771764638E-03  -2.0658615085492960E-03
  -2.0782561550156346E-03  -2.0907251598977321E-03  -2.1032689691747280E-03
  -2.1158880314985319E-03  -2.1285827982098077E-03  -2.1413537233540454E-03
  -2.1542012636977348E-03  -2.1671258787446302E-03  -2.1801280307521139E-03
  -2.1932081847476572E-03  -2.2063668085453786E-03  -2.2196043727626992E-03
  -2.2329213508370969E-03  -2.2463182190429632E-03  -2.2597954565085547E-03
  -2.2733535452330493E-03  -2.2869929701037029E-03  -2.3007142189131048E-03
  -2.3145177823765389E-03  -2.3284041541494459E-03  -2.3423738308449892E-03
  -2.3564273120517251E-03  -2.3705651003513789E-03  -2.3847877013367224E-03
  -2.3990956236295611E-03  -2.4134893788988272E-03  -2.4279694818787781E-03
  -2.4425364503873025E-03  -2.4571908053443378E-03  -2.4719330707903935E-03
  -2.4867637739051846E-03  -2.5016834450263753E-03  -2.5166926176684369E-03
  -2.5317918285416088E-03  -2.5469816175709820E-03  -2.5622625279156860E-03
  -2.5776351059881974E-03  -2.5930999014737543E-03  -2.6086574673498939E-03
  -2.6243083599060959E-03  -2.6400531387635513E-03  -2.6558923668950404E-03
  -2.6718266106449343E-03  -2.6878564397493083E-03  -2.7039824273561788E-03
  -2.7202051500458584E-03  -2.7365251878514272E-03  -2.7529431242793298E-03
  -2.7694595463300929E-03  -2.7860750445191634E-03  -2.8027902128978663E-03
  -2.8196056490744940E-03  -2.8365219542355125E-03  -2.8535397331668952E-03
  -2.8706595942755834E-03  -2.8878821496110701E-03  -2.9052080148871157E-03
  -2.9226378095035840E-03  -2.9401721565684119E-03  -2.9578116829197089E-03
  -2.9755570191479846E-03  -2.9934087996185033E-03  -3.0113676624937786E-03
  -3.0294342497561911E-03  -3.0476092072307449E-03  -3.0658931846079523E-03
  -3.0842868354668601E-03  -3.1027908172982037E-03  -3.1214057915277035E-03
  -3.1401324235394885E-03  -3.1589713826996710E-03  -3.1779233423800428E-03
  -3.1969889799819268E-03  -3.2161689769601549E-03  -3.2354640188471959E-03
  -3.2548747952774169E-03  -3.2744020000114926E-03  -3.2940463309609532E-03
  -3.3138084902128782E-03  -3.3336891840547358E-03  -3.3536891229993615E-03
  -3.3738090218100908E-03  -3.3940495995260318E-03  -3.4144115794874880E-03
  -3.4348956893615308E-03  -3.4555026611677187E-03  -3.4762332313039690E-03
  -3.4970881405725763E-03  -3.5180681342063870E-03  -3.5391739618951218E-03
  -3.5604063778118611E-03  -3.5817661406396671E-03  -3.6032540135983804E-03
  -3.6248707644715582E-03  -3.6466171656335720E-03  -3.6684939940768752E-03
  -3.6905020314394036E-03  -3.7126420640321667E-03  -3.7349148828669677E-03
  -3.7573212836843092E-03  -3.7798620669814475E-03  -3.8025380380406100E-03
  -3.8253500069573877E-03  -3.8482987886692718E-03  -3.8713852029843756E-03
  -3.8946100746103103E-03  -3.9179742331832343E-03  -3.9414785132970637E-03
  -3.9651237545328625E-03  -3.9889108014883861E-03  -4.0128405038078177E-03
  -4.0369137162116469E-03  -4.0611312985267562E-03  -4.0854941157166466E-03
  -4.1100030379118638E-03  -4.1346589404405816E-03  -4.1594627038593701E-03
  -4.1844152139841433E-03  -4.2095173619212728E-03  -4.2347700440989013E-03
  -4.2601741622984041E-03  -4.2857306236860696E-03  -4.3114403408449267E-03
  -4.3373042318067805E-03  -4.3633232200844139E-03  -4.3894982347039823E-03
  -4.4158302102375990E-03  -4.4423200868360891E-03  -4.4689688102619524E-03
  -4.4957773319224950E-03  -4.5227466089031677E-03  -4.5498776040010800E-03
  -4.5771712857587150E-03  -4.6046286284978314E-03  -4.6322506123535586E-03
  -4.6600382233086927E-03  -4.6879924532281800E-03  -4.7161142998937925E-03
  -4.7444047670390189E-03  -4.7728648643841293E-03  -4.8014956076714629E-03
  -4.8302980187008935E-03  -4.8592731253655139E-03  -4.8884219616875096E-03
  -4.9177455678542439E-03  -4.9472449902545441E-03  -4.9769212815151892E-03
  -5.0067755005376085E-03  -5.0368087125347875E-03  -5.0670219890683746E-03
  -5.0974164080860038E-03  -5.1279930539588287E-03  -5.1587530175192580E-03
  -5.1896973960989133E-03  -5.2208272935667923E-03  -5.2521438203676539E-03
  -5.2836480935606091E-03  -5.3153412368579338E-03  -5.3472243806640994E-03
  -5.3792986621150176E-03  -5.4115652251175029E-03  -5.4440252203889674E-03
  -5.4766798054973163E-03  -5.5095301449010871E-03  -5.5425774099897912E-03
  -5.5758227791245030E-03  -5.6092674376786479E-03  -5.6429125780790412E-03
  -5.6767593998471371E-03  -5.7108091096405127E-03  -5.7450629212945784E-03
  -5.7795220558645262E-03  -5.8141877416674993E-03  -5.8490612143250005E-03
  -5.8841437168055278E-03  -5.9194364994674554E-03  -5.9549408201021378E-03
  -5.9906579439772557E-03  -6.0265891438804038E-03  -6.0627357001629082E-03
  -6.0990989007838866E-03  -6.1356800413545545E-03  -6.1724804251827659E-03
  -6.2095013633177969E-03  -6.2467441745953783E-03  -6.2842101856829665E-03
  -6.3219007311252637E-03  -6.3598171533899815E-03  -6.3979608029138572E-03
  -6.4363330381489135E-03  -6.4749352256089684E-03  -6.5137687399163978E-03
  -6.5528349638491468E-03  -6.5921352883879965E-03  -6.6316711127640858E-03
  -6.6714438445066773E-03  -6.7114548994911876E-03  -6.7517057019874779E-03
  -6.7921976847083914E-03  -6.8329322888585507E-03  -6.8739109641834219E-03
  -6.9151351690186352E-03  -6.9566063703395608E-03  -6.9983260438111526E-03
  -7.0402956738380559E-03  -7.0825167536149765E-03  -7.1249907851773141E-03
  -7.1677192794520634E-03  -7.2107037563089752E-03  -7.2539457446120026E-03
  -7.2974467822709893E-03  -7.3412084162936490E-03  -7.3852322028378084E-03
  -7.4295197072639166E-03  -7.4740725041878330E-03  -7.5188921775338757E-03
  -7.5639803205881711E-03  -7.6093385360522401E-03  -7.6549684360968885E-03
  -7.7008716424163612E-03  -7.7470497862827817E-03  -7.7935045086008530E-03
  -7.8402374599628524E-03  -7.8872503007039064E-03  -7.9345447009575246E-03
  -7.9821223407114464E-03  -8.0299849098637369E-03  -8.0781341082791953E-03
  -8.1265716458460095E-03  -8.1752992425327443E-03  -8.2243186284455556E-03
  -8.2736315438857334E-03  -8.3232397394075227E-03  -8.3731449758762035E-03
  -8.4233490245265007E-03  -8.4738536670212489E-03  -8.5246606955103402E-03
  -8.5757719126900011E-03  -8.6271891318623131E-03  -8.6789141769950517E-03
  -8.7309488827818083E-03  -8.7832950947023848E-03  -8.8359546690835178E-03
  -8.8889294731598571E-03  -8.9422213851352537E-03  -8.9958322942443360E-03
  -9.0497641008143882E-03  -9.1040187163274992E-03  -9.1585980634830456E-03
  -9.2135040762604085E-03  -9.2687386999820483E-03  -9.3243038913768256E-03
  -9.3802016186436531E-03  -9.4364338615154069E-03  -9.4930026113231643E-03
  -9.5499098710607154E-03  -9.6071576554493821E-03  -9.6647479910031385E-03
  -9.7226829160939957E-03  -9.7809644810177288E-03  -9.8395947480598555E-03
  -9.8985757915619425E-03  -9.9579096979881890E-03  -1.0017598565992311E-02
  -1.0077644506484733E-02  -1.0138049642700053E-02  -1.0198816110264814E-02
  -1.0259946057265578E-02  -1.0321441644317289E-02  -1.0383305044631913E-02
  -1.0445538444087403E-02  -1.0508144041296947E-02  -1.0571124047678486E-02
  -1.0634480687524565E-02  -1.0698216198072442E-02  -1.0762332829574506E-02
  -1.0826832845368990E-02  -1.0891718521950960E-02  -1.0956992149043608E-02
  -1.1022656029669821E-02  -1.1088712480224061E-02  -1.1155163830544499E-02
  -1.1222012423985466E-02  -1.1289260617490183E-02  -1.1356910781663763E-02
  -1.1424965300846517E-02  -1.1493426573187512E-02  -1.1562297010718462E-02
  -1.1631579039427841E-02  -1.1701275099335322E-02  -1.1771387644566466E-02
  -1.1841919143427694E-02  -1.1912872078481556E-02  -1.1984248946622237E-02
  -1.2056052259151356E-02  -1.2128284541854049E-02  -1.2200948335075285E-02
  -1.2274046193796479E-02  -1.2347580687712375E-02  -1.2421554401308151E-02
  -1.2495969933936833E-02  -1.2570829899896946E-02  -1.2646136928510415E-02
  -1.2721893664200744E-02  -1.2798102766571423E-02  -1.2874766910484609E-02
  -1.2951888786140033E-02  -1.3029471099154160E-02  -1.3107516570639610E-02
  -1.3186027937284791E-02  -1.3265007951433774E-02  -1.3344459381166430E-02
  -1.3424385010378757E-02  -1.3504787638863482E-02  -1.3585670082390819E-02
  -1.3667035172789539E-02  -1.3748885758028181E-02  -1.3831224702296523E-02
  -1.3914054886087230E-02  -1.3997379206277751E-02  -1.4081200576212380E-02
  -1.4165521925784536E-02  -1.4250346201519243E-02  -1.4335676366655786E-02
  -1.4421515401230560E-02  -1.4507866302160123E-02  -1.4594732083324362E-02
  -1.4682115775649946E-02  -1.4770020427193808E-02  -1.4858449103226907E-02
  -1.4947404886318093E-02  -1.5036890876418123E-02  -1.5126910190943855E-02
  -1.5217465964862545E-02  -1.5308561350776326E-02  -1.5400199519006766E-02
  -1.5492383657679604E-02  -1.5585116972809570E-02  -1.5678402688385305E-02
  -1.5772244046454442E-02  -1.5866644307208740E-02  -1.5961606749069303E-02
  -1.6057134668771931E-02  -1.6153231381452509E-02  -1.6249900220732489E-02
  -1.6347144538804408E-02  -1.6444967706517519E-02  -1.6543373113463374E-02
  -1.6642364168061571E-02  -1.6741944297645413E-02  -1.6842116948547675E-02
  -1.6942885586186333E-02  -1.7044253695150349E-02  -1.7146224779285377E-02
  -1.7248802361779548E-02  -1.7351989985249165E-02  -1.7455791211824386E-02
  -1.7560209623234884E-02  -1.7665248820895398E-02  -1.7770912425991311E-02
  -1.7877204079564071E-02  -1.7984127442596552E-02  -1.8091686196098369E-02
  -1.8199884041191002E-02  -1.8308724699192848E-02  -1.8418211911704164E-02
  -1.8528349440691809E-02  -1.8639141068573888E-02  -1.8750590598304164E-02
  -1.8862701853456360E-02  -1.8975478678308212E-02  -1.9088924937925328E-02
  -1.9203044518244838E-02  -1.9317841326158779E-02  -1.9433319289597260E-02
  -1.9549482357611333E-02  -1.9666334500455591E-02  -1.9783879709670493E-02
  -1.9902121998164324E-02  -2.0021065400294840E-02  -2.0140713971950632E-02
  -2.0261071790632020E-02  -2.0382142955531632E-02  -2.0503931587614588E-02
  -2.0626441829698219E-02  -2.0749677846531391E-02  -2.0873643824873372E-02
  -2.0998343973572191E-02  -2.1123782523642529E-02  -2.1249963728343115E-02
  -2.1376891863253551E-02  -2.1504571226350567E-02  -2.1633006138083763E-02
  -2.1762200941450701E-02  -2.1892160002071365E-02  -2.2022887708262044E-02
  -2.2154388471108448E-02  -2.2286666724538232E-02  -2.2419726925392715E-02
  -2.2553573553497939E-02  -2.2688211111734875E-02  -2.2823644126108933E-02
  -2.2959877145818566E-02  -2.3096914743323069E-02  -2.3234761514409532E-02
  -2.3373422078258810E-02  -2.3512901077510657E-02  -2.3653203178327829E-02
  -2.3794333070459243E-02  -2.3936295467302082E-02  -2.4079095105962890E-02
  -2.4222736747317525E-02  -2.4367225176070088E-02  -2.4512565200810587E-02
  -2.4658761654071545E-02  -2.4805819392383278E-02  -2.4953743296328025E-02
  -2.5102538270592709E-02  -2.5252209244020423E-02  -2.5402761169660549E-02
  -2.5554199024817474E-02  -2.5706527811097873E-02  -2.5859752554456505E-02
  -2.6013878305240531E-02  -2.6168910138232235E-02  -2.6324853152690172E-02
  -2.6481712472388650E-02  -2.6639493245655586E-02  -2.6798200645408572E-02
  -2.6957839869189169E-02  -2.7118416139195474E-02  -2.7279934702312700E-02
  -2.7442400830141933E-02  -2.7605819819026857E-02  -2.7770196990078547E-02
  -2.7935537689198153E-02  -2.8101847287097456E-02  -2.8269131179317310E-02
  -2.8437394786243825E-02  -2.8606643553122285E-02  -2.8776882950068760E-02
  -2.8948118472079294E-02  -2.9120355639036723E-02  -2.9293599995714854E-02
  -2.9467857111780259E-02  -2.9643132581791323E-02  -2.9819432025194628E-02
  -2.9996761086318633E-02  -3.0175125434364496E-02  -3.0354530763394057E-02
  -3.0534982792314831E-02  -3.0716487264862036E-02  -3.0899049949577494E-02
  -3.1082676639785430E-02  -3.1267373153564981E-02  -3.1453145333719457E-02
  -3.1639999047742236E-02  -3.1827940187779132E-02  -3.2016974670587346E-02
  -3.2207108437490722E-02  -3.2398347454331330E-02  -3.2590697711417371E-02
  -3.2784165223467041E-02  -3.2978756029548667E-02  -3.3174476193016687E-02
  -3.3371331801443527E-02  -3.3569328966547338E-02  -3.3768473824115366E-02
  -3.3968772533923025E-02  -3.4170231279648335E-02  -3.4372856268781962E-02
  -3.4576653732532443E-02  -3.4781629925726712E-02  -3.4987791126705671E-02
  -3.5195143637214883E-02  -3.5403693782290059E-02  -3.5613447910137437E-02
  -3.5824412392008793E-02  -3.6036593622071067E-02  -3.6249998017270441E-02
  -3.6464632017190766E-02  -3.6680502083906247E-02  -3.6897614701828216E-02
  -3.7115976377545871E-02  -3.7335593639660970E-02  -3.7556473038616138E-02
  -3.7778621146516950E-02  -3.8002044556947293E-02  -3.8226749884778241E-02
  -3.8452743765970104E-02  -3.8680032857367437E-02  -3.8908623836487195E-02
  -3.9138523401299440E-02  -3.9369738270000856E-02  -3.9602275180780723E-02
  -3.9836140891579150E-02  -4.0071342179837675E-02  -4.0307885842241681E-02
  -4.0545778694454845E-02  -4.0785027570845282E-02  -4.1025639324203153E-02
  -4.1267620825449720E-02  -4.1510978963337622E-02  -4.1755720644142187E-02
  -4.2001852791343504E-02  -4.2249382345299326E-02  -4.2498316262908384E-02
  -4.2748661517264017E-02  -4.3000425097297949E-02  -4.3253614007414017E-02
  -4.3508235267111547E-02  -4.3764295910598390E-02  -4.4021802986393181E-02
  -4.4280763556916798E-02  -4.4541184698072722E-02  -4.4803073498816105E-02
  -4.5066437060711291E-02  -4.5331282497477685E-02  -4.5597616934523577E-02
  -4.5865447508467862E-02  -4.6134781366649301E-02  -4.6405625666623158E-02
  -4.6677987575644904E-02  -4.6951874270140866E-02  -4.7227292935165414E-02
  -4.7504250763844569E-02  -4.7782754956805729E-02  -4.8062812721593177E-02
  -4.8344431272069270E-02  -4.8627617827800902E-02  -4.8912379613430951E-02
  -4.9198723858034650E-02  -4.9486657794460279E-02  -4.9776188658654130E-02
  -5.0067323688969413E-02  -5.0360070125458650E-02  -5.0654435209149501E-02
  -5.0950426181303542E-02  -5.1248050282657720E-02  -5.1547314752648142E-02
  -5.1848226828616055E-02  -5.2150793744995344E-02  -5.2455022732481607E-02
  -5.2760921017182175E-02  -5.3068495819746854E-02  -5.3377754354479064E-02
  -5.3688703828426956E-02  -5.4001351440454176E-02  -5.4315704380289896E-02
  -5.4631769827557825E-02  -5.4949554950783630E-02  -5.5269066906380622E-02
  -5.5590312837613114E-02  -5.5913299873537228E-02  -5.6238035127918543E-02
  -5.6564525698126415E-02  -5.6892778664004419E-02  -5.7222801086716395E-02
  -5.7554600007567923E-02  -5.7888182446802591E-02  -5.8223555402372673E-02
  -5.8560725848683784E-02  -5.8899700735313129E-02  -5.9240486985700634E-02
  -5.9583091495812777E-02  -5.9927521132778605E-02  -6.0273782733497164E-02
  -6.0621883103216263E-02  -6.0971829014081790E-02  -6.1323627203657166E-02
  -6.1677284373412467E-02  -6.2032807187182619E-02  -6.2390202269594110E-02
  -6.2749476204459934E-02  -6.3110635533141793E-02  -6.3473686752879468E-02
  -6.3838636315086364E-02  -6.4205490623611153E-02  -6.4574256032964350E-02
  -6.4944938846509884E-02  -6.5317545314620418E-02  -6.5692081632796454E-02
  -6.6068553939748059E-02  -6.6446968315438962E-02  -6.6827330779092364E-02
  -6.7209647287157476E-02  -6.7593923731236641E-02  -6.7980165935972101E-02
  -6.8368379656891839E-02  -6.8758570578213510E-02  -6.9150744310606582E-02
  -6.9544906388910963E-02  -6.9941062269812157E-02  -7.0339217329472237E-02
  -7.0739376861115214E-02  -7.1141546072567008E-02  -7.1545730083748579E-02
  -7.1951933924121941E-02  -7.2360162530087840E-02  -7.2770420742334932E-02
  -7.3182713303139066E-02  -7.3597044853612376E-02  -7.4013419930901048E-02
  -7.4431842965331244E-02  -7.4852318277502147E-02  -7.5274850075325445E-02
  -7.5699442451010290E-02  -7.6126099377993112E-02  -7.6554824707811234E-02
  -7.6985622166919399E-02  -7.7418495353448594E-02  -7.7853447733906123E-02
  -7.8290482639815862E-02  -7.8729603264298245E-02  -7.9170812658588580E-02
  -7.9614113728493224E-02  -8.0059509230782228E-02  -8.0507001769517986E-02
  -8.0956593792318496E-02  -8.1408287586554717E-02  -8.1862085275480667E-02
  -8.2317988814295390E-02  -8.2775999986136037E-02  -8.3236120398000782E-02
  -8.3698351476600624E-02  -8.4162694464139168E-02  -8.4629150414019305E-02
  -8.5097720186475725E-02  -8.5568404444132162E-02  -8.6041203647482564E-02
  -8.6516118050294841E-02  -8.6993147694936268E-02  -8.7472292407619431E-02
  -8.7953551793567702E-02  -8.8436925232099020E-02  -8.8922411871626916E-02
  -8.9410010624577860E-02  -8.9899720162223404E-02  -9.0391538909426458E-02
  -9.0885465039300270E-02  -9.1381496467779072E-02  -9.1879630848099109E-02
  -9.2379865565189317E-02  -9.2882197729969820E-02  -9.3386624173557795E-02
  -9.3893141441379058E-02  -9.4401745787184257E-02  -9.4912433166968804E-02
  -9.5425199232794924E-02  -9.5940039326515042E-02  -9.6456948473394991E-02
  -9.6975921375636182E-02  -9.7496952405795090E-02  -9.8020035600099448E-02
  -9.8545164651659287E-02  -9.9072332903572369E-02  -9.9601533341922122E-02
  -1.0013275858866731E-01  -1.0066600089442211E-01  -1.0120125213112545E-01
  -1.0173850378459830E-01  -1.0227774694698780E-01  -1.0281897230909734E-01
  -1.0336217015260070E-01  -1.0390733034213985E-01  -1.0445444231730476E-01
  -1.0500349508449426E-01  -1.0555447720865674E-01  -1.0610737680490950E-01
  -1.0666218153003593E-01  -1.0721887857385877E-01  -1.0777745465048912E-01
  -1.0833789598944950E-01  -1.0890018832667017E-01  -1.0946431689535757E-01
  -1.1003026641673390E-01  -1.1059802109064672E-01  -1.1116756458604764E-01
  -1.1173888003133911E-01  -1.1231195000458830E-01  -1.1288675652360716E-01
  -1.1346328103589780E-01  -1.1404150440846227E-01  -1.1462140691747573E-01
  -1.1520296823782256E-01  -1.1578616743249426E-01  -1.1637098294184840E-01
  -1.1695739257272837E-01  -1.1754537348744240E-01  -1.1813490219260227E-01
  -1.1872595452781987E-01  -1.1931850565426243E-01  -1.1991253004306467E-01
  -1.2050800146359800E-01  -1.2110489297159678E-01  -1.2170317689714009E-01
  -1.2230282483248998E-01  -1.2290380761978517E-01  -1.2350609533859017E-01
  -1.2410965729330008E-01  -1.2471446200040034E-01  -1.2532047717558231E-01
  -1.2592766972071373E-01  -1.2653600571066534E-01  -1.2714545037999300E-01
  -1.2775596810947612E-01  -1.2836752241251267E-01  -1.2898007592137156E-01
  -1.2959359037330215E-01  -1.3020802659650274E-01  -1.3082334449594807E-01
  -1.3143950303907656E-01  -1.3205646024133924E-01  -1.3267417315161037E-01
  -1.3329259783746181E-01  -1.3391168937030176E-01  -1.3453140181038045E-01
  -1.3515168819166287E-01  -1.3577250050657150E-01  -1.3639378969060048E-01
  -1.3701550560680326E-01  -1.3763759703015552E-01  -1.3826001163179644E-01
  -1.3888269596315000E-01  -1.3950559543992974E-01  -1.4012865432602858E-01
  -1.4075181571729822E-01  -1.4137502152521997E-01  -1.4199821246047070E-01
  -1.4262132801638819E-01  -1.4324430645233802E-01  -1.4386708477698765E-01
  -1.4448959873149053E-01  -1.4511178277258502E-01  -1.4573357005561302E-01
  -1.4635489241746213E-01  -1.4697568035943767E-01  -1.4759586303006852E-01
  -1.4821536820785292E-01  -1.4883412228395007E-01  -1.4945205024482322E-01
  -1.5006907565484054E-01  -1.5068512063884035E-01  -1.5130010586466772E-01
  -1.5191395052568923E-01  -1.5252657232329331E-01  -1.5313788744938425E-01
  -1.5374781056887710E-01  -1.5435625480220269E-01  -1.5496313170783083E-01
  -1.5556835126482055E-01  -1.5617182185540709E-01  -1.5677345024763514E-01
  -1.5737314157804816E-01  -1.5797079933444441E-01  -1.5856632533870993E-01
  -1.5915961972974058E-01  -1.5975058094646305E-01  -1.6033910571096838E-01
  -1.6092508901176916E-01  -1.6150842408719326E-01  -1.6208900240892773E-01
  -1.6266671366572566E-01  -1.6324144574729027E-01  -1.6381308472835099E-01
  -1.6438151485294528E-01  -1.6494661851892259E-01  -1.6550827626268558E-01
  -1.6606636674418485E-01  -1.6662076673218379E-01  -1.6717135108981093E-01
  -1.6771799276041696E-01  -1.6826056275375506E-01  -1.6879893013250241E-01
  -1.6933296199914277E-01  -1.6986252348322892E-01  -1.7038747772904564E-01
  -1.7090768588369365E-01  -1.7142300708561517E-01  -1.7193329845358377E-01
  -1.7243841507617941E-01  -1.7293821000177229E-01  -1.7343253422903834E-01
  -1.7392123669803003E-01  -1.7440416428182681E-01  -1.7488116177879023E-01
  -1.7535207190544863E-01  -1.7581673529003727E-01  -1.7627499046672099E-01
  -1.7672667387052526E-01  -1.7717161983300364E-01  -1.7760966057866964E-01
  -1.7804062622222117E-01  -1.7846434476658646E-01  -1.7888064210182161E-01
  -1.7928934200488858E-01  -1.7969026614034517E-01  -1.8008323406197713E-01
  -1.8046806321540435E-01  -1.8084456894169273E-01  -1.8121256448200360E-01
  -1.8157186098331435E-01  -1.8192226750524260E-01  -1.8226359102800774E-01
  -1.8259563646156385E-01  -1.8291820665593808E-01  -1.8323110241280924E-01
  -1.8353412249836146E-01  -1.8382706365744822E-01  -1.8410972062910241E-01
  -1.8438188616342779E-01  -1.8464335103990839E-01  -1.8489390408717130E-01
  -1.8513333220424000E-01  -1.8536142038331432E-01  -1.8557795173411329E-01
  -1.8578270750981810E-01  -1.8597546713465146E-01  -1.8615600823313022E-01
  -1.8632410666102750E-01  -1.8647953653808100E-01  -1.8662207028248429E-01
  -1.8675147864719624E-01  -1.8686753075810544E-01  -1.8696999415408486E-01
  -1.8705863482897200E-01  -1.8713321727550949E-01  -1.8719350453128095E-01
  -1.8723925822667564E-01  -1.8727023863491518E-01  -1.8728620472417626E-01
  -1.8728691421184002E-01  -1.8727212362090037E-01  -1.8724158833856200E-01
  -1.8719506267705716E-01  -1.8713229993671057E-01  -1.8705305247128004E-01
  -1.8695707175559972E-01  -1.8684410845555163E-01  -1.8671391250038943E-01
  -1.8656623315743848E-01  -1.8640081910919312E-01  -1.8621741853283233E-01
  -1.8601577918217199E-01  -1.8579564847207153E-01  -1.8555677356531097E-01
  -1.8529890146195160E-01  -1.8502177909119330E-01  -1.8472515340573858E-01
  -1.8440877147867207E-01  -1.8407238060286152E-01  -1.8371572839288558E-01
  -1.8333856288949016E-01  -1.8294063266657351E-01  -1.8252168694069856E-01
  -1.8208147568312752E-01  -1.8161974973437262E-01  -1.8113626092125340E-01
  -1.8063076217644919E-01  -1.8010300766053286E-01  -1.7955275288646905E-01
  -1.7897975484655712E-01  -1.7838377214179790E-01  -1.7776456511365910E-01
  -1.7712189597821174E-01  -1.7645552896260847E-01  -1.7576523044387019E-01
  -1.7505076908994566E-01  -1.7431191600300622E-01  -1.7354844486493384E-01
  -1.7276013208495858E-01  -1.7194675694939943E-01  -1.7110810177345831E-01
  -1.7024395205501525E-01  -1.6935409663036965E-01  -1.6843832783186996E-01
  -1.6749644164737115E-01  -1.6652823788145710E-01  -1.6553352031836172E-01
  -1.6451209688652113E-01  -1.6346377982468524E-01  -1.6238838584951573E-01
  -1.6128573632459506E-01  -1.6015565743076704E-01  -1.5899798033773024E-01
  -1.5781254137679904E-01  -1.5659918221474989E-01  -1.5535775002866345E-01
  -1.5408809768167422E-01  -1.5279008389953605E-01  -1.5146357344791017E-01
  -1.5010843731028006E-01  -1.4872455286639577E-01  -1.4731180407114858E-01
  -1.4587008163377424E-01  -1.4439928319728199E-01  -1.4289931351800339E-01
  -1.4137008464515466E-01  -1.3981151610030232E-01  -1.3822353505662119E-01
  -1.3660607651783066E-01  -1.3495908349669314E-01  -1.3328250719295670E-01
  -1.3157630717061913E-01  -1.2984045153439044E-01  -1.2807491710522537E-01
  -1.2627968959479510E-01  -1.2445476377876293E-01  -1.2260014366872521E-01
  -1.2071584268267228E-01  -1.1880188381382087E-01  -1.1685829979766214E-01
  -1.1488513327706484E-01  -1.1288243696526407E-01  -1.1085027380656090E-01
  -1.0878871713454762E-01  -1.0669785082766510E-01  -1.0457776946188832E-01
  -1.0242857846032496E-01  -1.0025039423949997E-01  -9.8043344352085615E-02
  -9.5807567625822168E-02  -9.3543214298359129E-02  -9.1250446147729897E-02
  -8.8929436618154556E-02  -8.6580370940846502E-02  -8.4203446249477634E-02
  -8.1798871689934327E-02  -7.9366868523973358E-02  -7.6907670226361941E-02
  -7.4421522575058366E-02  -7.1908683733963752E-02  -6.9369424327744358E-02
  -6.6804027508194030E-02  -6.4212789011573901E-02  -6.1596017206333745E-02
  -5.8954033130584324E-02  -5.6287170518654797E-02  -5.3595775816032823E-02
  -5.0880208181947932E-02  -4.8140839478821140E-02  -4.5378054247765497E-02
  -4.2592249669283988E-02  -3.9783835508274447E-02  -3.6953234042412055E-02
  -3.4100879972945114E-02  -3.1227220316903618E-02  -2.8332714279686998E-02
  -2.5417833106966322E-02  -2.2483059914806688E-02  -1.9528889496891511E-02
  -1.6555828107707483E-02  -1.3564393220532524E-02  -1.0555113259056711E-02
  -7.5285273014601434E-03  -4.4851847557715986E-03  -1.4256450053396436E-03
   1.6495229767363696E-03   4.7397410453434742E-03   7.8444223343541956E-03
   1.0962971741935744E-02   1.4094786451161339E-02   1.7239256486846634E-02
   2.0395765309450847E-02   2.3563690446787418E-02   2.6742404164175920E-02
   2.9931274173539940E-02   3.3129664381812238E-02   3.6336935678846653E-02
   3.9552446764857370E-02   4.2775555017207832E-02   4.6005617396156183E-02
   4.9241991388927250E-02   5.2484035991226134E-02   5.5731112725034025E-02
   5.8982586691233144E-02   6.2237827655293280E-02   6.5496211163923554E-02
   6.8757119690241328E-02   7.2019943804647588E-02   7.5284083368214488E-02
   7.8548948744999625E-02   8.1813962029292794E-02   8.5078558283388075E-02
   8.8342186781051088E-02   9.1604312251425221E-02   9.4864416117695693E-02
   9.8121997724406496E-02   1.0137657554691093E-01   1.0462768837603204E-01
   1.0787489647062415E-01   1.1111778267036157E-01   1.1435595346074455E-01
   1.1758903998200947E-01   1.2081669897336772E-01   1.2403861364378224E-01
   1.2725449446032633E-01   1.3046407984506850E-01   1.3366713677139183E-01
   1.3686346125069432E-01   1.4005287870054034E-01   1.4323524418554054E-01
   1.4641044252254565E-01   1.4957838824214298E-01   1.5273902539896453E-01
   1.5589232722393803E-01   1.5903829561236493E-01   1.6217696044257185E-01
   1.6530837872088025E-01   1.6843263354975588E-01   1.7154983291724671E-01
   1.7466010830719311E-01   1.7776361313118630E-01   1.8086052098486904E-01
   1.8395102373289746E-01   1.8703532942871373E-01   1.9011366007720334E-01
   1.9318624925031164E-01   1.9625333956776325E-01   1.9931518005713891E-01
   2.0237202340970206E-01   2.0542412315050668E-01   2.0847173074343209E-01
   2.1151509265385290E-01   2.1455444739362797E-01   2.1759002257495616E-01
   2.2062203200135225E-01   2.2365067282551820E-01   2.2667612280517493E-01
   2.2969853768894680E-01   2.3271804876510879E-01   2.3573476060637724E-01
   2.3874874904391280E-01   2.4176005940326606E-01   2.4476870503409912E-01
   2.4777466616412838E-01   2.5077788910582111E-01   2.5377828584192547E-01
   2.5677573401288983E-01   2.5977007732563240E-01   2.6276112639894267E-01
   2.6574866005604347E-01   2.6873242706952294E-01   2.7171214835799362E-01
   2.7468751962747417E-01   2.7765821444368111E-01   2.8062388771420971E-01
   2.8358417955206067E-01   2.8653871948420911E-01   2.8948713096103051E-01
   2.9242903611449023E-01   2.9536406070642918E-01   2.9829183920668845E-01
   3.0121201992992191E-01   3.0412427012060322E-01   3.0702828088886602E-01
   3.0992377194802029E-01   3.1281049604153155E-01   3.1568824296516501E-01
   3.1855684308482912E-01   3.2141616902557951E-01   3.2426613149432859E-01
   3.2710667152942247E-01   3.2993775997125285E-01   3.3275939954549427E-01
   3.3557162370703264E-01   3.3837449552019300E-01   3.4116810532942932E-01
   3.4395256725216694E-01   3.4672801437605910E-01   3.4949459260766330E-01
   3.5225245318994730E-01   3.5500174399645229E-01   3.5774259981717910E-01
   3.6047513196781433E-01   3.6319941766764241E-01   3.6591548972615551E-01
   3.6862332713559925E-01   3.7132284716944614E-01   3.7401389952383213E-01
   3.7669626290914854E-01   3.7936964431361070E-01   3.8203368094298951E-01
   3.8468794462172889E-01   3.8733194825221046E-01   3.8996515379641800E-01
   3.9258698118139407E-01   3.9519681753678654E-01   3.9779402623783772E-01
   4.0037795533151793E-01   4.0294794504620030E-01   4.0550333420772960E-01
   4.0804346549331827E-01   4.1056768954157496E-01   4.1307536799946259E-01
   4.1556587562627473E-01   4.1803860159432554E-01   4.2049295013043880E-01
   4.2292834063604529E-01   4.2534420741075069E-01   4.2773999908780280E-01
   4.3011517787234216E-01   4.3246921865623544E-01   4.3480160806765600E-01
   4.3711184349988313E-01   4.3939943215221428E-01   4.4166389010637841E-01
   4.4390474145424602E-01   4.4612151748669698E-01   4.4831375594900230E-01
   4.5048100036472932E-01   4.5262279942778288E-01   4.5473870646052900E-01
   4.5682827893486599E-01   4.5889107805244583E-01   4.6092666837991719E-01
   4.6293461753495341E-01   4.6491449591888534E-01   4.6686587649191919E-01
   4.6878833458715458E-01   4.7068144775988063E-01   4.7254479566891811E-01
   4.7437795998705867E-01   4.7618052433793395E-01   4.7795207425690800E-01
   4.7969219717383355E-01   4.8140048241573580E-01   4.8307652122768918E-01
   4.8471990681033655E-01   4.8633023437265999E-01   4.8790710119875608E-01
   4.8945010672749639E-01   4.9095885264406075E-01   4.9243294298243329E-01
   4.9387198423803114E-01   4.9527558548971246E-01   4.9664335853047659E-01
   4.9797491800622418E-01   4.9926988156199714E-01   5.0052786999516263E-01
   5.0174850741504662E-01   5.0293142140855551E-01   5.0407624321136202E-01
   5.0518260788425473E-01   5.0625015449428679E-01   5.0727852630037507E-01
   5.0826737094303520E-01   5.0921634063795229E-01   5.1012509237311443E-01
   5.1099328810925482E-01   5.1182059498336685E-01   5.1260668551507849E-01
   5.1335123781568903E-01   5.1405393579968683E-01   5.1471446939859056E-01
   5.1533253477696106E-01   5.1590783455046019E-01   5.1644007800583358E-01
   5.1692898132272080E-01   5.1737426779719586E-01   5.1777566806696462E-01
   5.1813292033814773E-01   5.1844577061358910E-01   5.1871397292263699E-01
   5.1893728955235396E-01   5.1911549128011036E-01   5.1924835760752475E-01
   5.1933567699571059E-01   5.1937724710179323E-01   5.1937287501665153E-01
   5.1932237750383980E-01   5.1922558123963547E-01   5.1908232305414626E-01
   5.1889245017340535E-01   5.1865582046236258E-01   5.1837230266866641E-01
   5.1804177666711104E-01   5.1766413370460207E-01   5.1723927664547165E-01
   5.1676712021694249E-01   5.1624759125451680E-01   5.1568062894703282E-01
   5.1506618508109536E-01   5.1440422428455290E-01   5.1369472426866059E-01
   5.1293767606851670E-01   5.1213308428133331E-01   5.1128096730204897E-01
   5.1038135755575242E-01   5.0943430172634174E-01   5.0843986098079785E-01
   5.0739811118841083E-01   5.0630914313425035E-01   5.0517306272613194E-01
   5.0398999119429189E-01   5.0276006528294659E-01   5.0148343743287316E-01
   5.0016027595412427E-01   4.9879076518796245E-01   4.9737510565707160E-01
   4.9591351420309832E-01   4.9440622411055885E-01   4.9285348521614442E-01
   4.9125556400246889E-01   4.8961274367530461E-01   4.8792532422338247E-01
   4.8619362245985065E-01   4.8441797204452891E-01   4.8259872348613853E-01
   4.8073624412373733E-01   4.7883091808665484E-01   4.7688314623228784E-01
   4.7489334606119482E-01   4.7286195160900829E-01   4.7078941331477531E-01
   4.6867619786543047E-01   4.6652278801620567E-01   4.6432968238688166E-01
   4.6209739523389809E-01   4.5982645619843976E-01   4.5751741003073232E-01
   4.5517081629088724E-01   4.5278724902674006E-01   4.5036729642923901E-01
   4.4791156046603475E-01   4.4542065649403068E-01   4.4289521285173328E-01
   4.4033587043234379E-01   4.3774328223860381E-01   4.3511811292048536E-01
   4.3246103829688226E-01   4.2977274486251948E-01   4.2705392928134550E-01
   4.2430529786771864E-01   4.2152756605672714E-01   4.1872145786501508E-01
   4.1588770534349584E-01   4.1302704802335100E-01   4.1014023235670904E-01
   4.0722801115339574E-01   4.0429114301513019E-01   4.0133039176852675E-01
   3.9834652589823261E-01   3.9534031798149982E-01   3.9231254412545580E-01
   3.8926398340829377E-01   3.8619541732555729E-01   3.8310762924264852E-01
   3.8000140385516024E-01   3.7687752665549723E-01   3.7373678341170591E-01
   3.7057995965462204E-01   3.6740784017650313E-01   3.6422120854148082E-01
   3.6102084660856271E-01   3.5780753406784799E-01   3.5458204799056320E-01
   3.5134516239346258E-01   3.4809764781808067E-01   3.4484027092526370E-01
   3.4157379410535221E-01   3.3829897510432844E-01   3.3501656666618890E-01
   3.3172731619174933E-01   3.2843196541403613E-01   3.2513125009037036E-01
   3.2182589971119824E-01   3.1851663722567841E-01   3.1520417878398915E-01
   3.1188923349627373E-01   3.0857250320810165E-01   3.0525468229228114E-01
   3.0193645745682024E-01   2.9861850756879404E-01   2.9530150349384165E-01
   2.9198610795097918E-01   2.8867297538238362E-01   2.8536275183776805E-01
   2.8205607487294038E-01   2.7875357346210544E-01   2.7545586792344512E-01
   2.7216356985748213E-01   2.6887728209770823E-01   2.6559759867293475E-01
   2.6232510478079868E-01   2.5906037677183819E-01   2.5580398214353012E-01
   2.5255647954366528E-01   2.4931841878241912E-01   2.4609034085246201E-01
   2.4287277795644022E-01   2.3966625354114454E-01   2.3647128233767942E-01
   2.3328837040693290E-01   2.3011801518964667E-01   2.2696070556038053E-01
   2.2381692188466637E-01   2.2068713607864865E-01   2.1757181167051332E-01
   2.1447140386301516E-01   2.1138635959642343E-01   2.0831711761121927E-01
   2.0526410850989607E-01   2.0222775481722696E-01   1.9920847103841222E-01
   1.9620666371444784E-01   1.9322273147443245E-01   1.9025706508329129E-01
   1.8731004748827437E-01   1.8438205385019185E-01   1.8147345159724174E-01
   1.7858460042604080E-01   1.7571585234015957E-01   1.7286755167177156E-01
   1.7004003508367083E-01   1.6723363157406601E-01   1.6444866247485912E-01
   1.6168544144207689E-01   1.5894427443965004E-01   1.5622545971649154E-01
   1.5352928777696109E-01   1.5085604134485550E-01   1.4820599532111611E-01
   1.4557941673549488E-01   1.4297656469246978E-01   1.4039769031174595E-01
   1.3784303666372485E-01   1.3531283870036362E-01   1.3280732318188673E-01
   1.3032670859984660E-01   1.2787120509706171E-01   1.2544101438498875E-01
   1.2303632965910974E-01   1.2065733551293445E-01   1.1830420785123502E-01
   1.1597711380314100E-01   1.1367621163573031E-01   1.1140165066875540E-01
   1.0915357119114272E-01   1.0693210437989871E-01   1.0473737222204688E-01
   1.0256948744020757E-01   1.0042855342241658E-01   9.8314664156758658E-02
   9.6227904171369560E-02   9.4168348480334979E-02   9.2136062535986357E-02
   9.0131102188063403E-02   8.8153513650180454E-02   8.6203333473999860E-02
   8.4280588531479628E-02   8.2385296005525993E-02   8.0517463389343388E-02
   7.8677088494736647E-02   7.6864159469580418E-02   7.5078654824633176E-02
   7.3320543469833521E-02   7.1589784760178451E-02   6.9886328551245810E-02
   6.8210115264385515E-02   6.6561075961568739E-02   6.4939132429848459E-02
   6.3344197275352301E-02   6.1776174026694934E-02   6.0234957247667260E-02
   5.8720432659030361E-02   5.7232477269214210E-02   5.5770959513695380E-02
   5.4335739402804221E-02   5.2926668677688957E-02   5.1543590974144335E-02
   5.0186341993993265E-02   4.8854749683693265E-02   4.7548634419824258E-02
   4.6267809201101184E-02   4.5012079846543117E-02   4.3781245199420761E-02
   4.2575097336596153E-02   4.1393421782861615E-02   4.0235997729880076E-02
   3.9102598259325279E-02   3.7992990569818419E-02   3.6906936207256713E-02
   3.5844191298130289E-02   3.4804506785425335E-02   3.3787628666714323E-02
   3.2793298234038412E-02   3.1821252315191818E-02   3.0871223516024098E-02
   2.9942940463383045E-02   2.9036128048328644E-02   2.8150507669256655E-02
   2.7285797474579796E-02   2.6441712604623767E-02   2.5617965432405822E-02
   2.4814265802974179E-02   2.4030321270997617E-02   2.3265837336306116E-02
   2.2520517677095283E-02   2.1794064380519122E-02   2.1086178170408289E-02
   2.0396558631863158E-02   1.9724904432483731E-02   1.9070913540011055E-02
   1.8434283436167549E-02   1.7814711326496282E-02   1.7211894346011992E-02
   1.6625529760489342E-02   1.6055315163226277E-02   1.5500948667132964E-02
   1.4962129092009053E-02   1.4438556146884033E-02   1.3929930607307515E-02
   1.3435954487487984E-02   1.2956331207190065E-02   1.2490765753311629E-02
   1.2038964836073071E-02   1.1600637039761880E-02   1.1175492967986053E-02
   1.0763245383400044E-02   1.0363609341876929E-02   9.9763023211098447E-03
   9.6010443436351962E-03   9.2375580942788641E-03   8.8855690320353981E-03
   8.5448054963982809E-03   8.2149988081674091E-03   7.8958833647674326E-03
   7.5871967301178794E-03   7.2886797191028963E-03   7.0000764766950255E-03
   6.7211345517936500E-03   6.4516049658446704E-03   6.1912422763135428E-03
   5.9398046350890498E-03   5.6970538419001135E-03   5.4627553928325483E-03
   5.2366785240369473E-03   5.0185962507228793E-03   4.8082854015382356E-03
   4.6055266484359503E-03   4.4101045321333909E-03   4.2218074832725237E-03
   4.0404278393914471E-03   3.8657618578201752E-03   3.6976097246154676E-03
   3.5357755596512825E-03   3.3800674179828350E-03   3.2302972876035209E-03
   3.0862810837149111E-03   2.9478386396307936E-03   2.8147936944367792E-03
   2.6869738775273087E-03   2.5642106901420146E-03   2.4463394840233172E-03
   2.3331994373168618E-03   2.2246335278359609E-03   2.1204885038105894E-03
   2.0206148522406739E-03   1.9248667649724980E-03   1.8331021026159312E-03
   1.7451823564189714E-03   1.6609726082147034E-03   1.5803414885542924E-03
   1.5031611331380054E-03   1.4293071376545365E-03   1.3586585111370639E-03
   1.2910976279425516E-03   1.2265101784587737E-03   1.1647851186414430E-03
   1.1058146184816371E-03   1.0494940095014669E-03   9.9572173137361117E-04
   9.4439927775796632E-04   8.9543114144623247E-04   8.4872475890279274E-04
   8.0419045428771008E-04   7.6174138304514088E-04   7.2129347513787232E-04
   6.8276537800609734E-04   6.4607839932591881E-04   6.1115644964044669E-04
   5.7792598493370455E-04   5.4631594921492152E-04   5.1625771717813838E-04
   4.8768503699941586E-04   4.6053397333129941E-04   4.3474285055158002E-04
   4.1025219632078033E-04   3.8700468550021652E-04   3.6494508447992456E-04
   3.4402019596320438E-04   3.2417880425203232E-04   3.0537162107511861E-04
   2.8755123199795203E-04   2.7067204345177138E-04   2.5469023041604710E-04
   2.3956368478673777E-04   2.2525196446031596E-04   2.1171624316132918E-04
   1.9891926103908793E-04   1.8682527605694160E-04   1.7540001619552968E-04
   1.6461063248937041E-04   1.5442565291418076E-04   1.4481493714040662E-04
   1.3574963216658379E-04   1.2720212884435004E-04   1.1914601930518260E-04
   1.1155605529725137E-04   1.0440810743915072E-04   9.7679125395703462E-05
   9.1347098979522540E-05   8.5391020180565629E-05   7.9790846124527085E-05
   7.4527462959580367E-05   6.9582650669711428E-05   6.4939048811669763E-05
   6.0580123171407934E-05   5.6490133334783138E-05   5.2654101166253056E-05
   4.9057780188315247E-05   4.5687625853510501E-05   4.2530766699938354E-05
   3.9574976380414098E-05   3.6808646554631432E-05   3.4220760632982334E-05
   3.1800868360024112E-05   2.9539061224972665E-05   2.7425948686038861E-05
   2.5452635194911199E-05   2.3610698007220490E-05   2.1892165764400903E-05
   2.0289497831983975E-05   1.8795564379027872E-05   1.7403627183091140E-05
   1.6107321144907301E-05   1.4900636496702898E-05   1.3777901687924745E-05
   1.2733766932001772E-05   1.1763188397660722E-05   1.0861413028242035E-05
   1.0023963972421123E-05   9.2466266097292149E-06   8.5254351542858643E-06
   7.8566598202004495E-06   7.2367945321712505E-06   6.6625451649065354E-06
   6.1308182951109848E-06   5.6387104499217014E-06   5.1834978358391550E-06
   4.7626265323788127E-06   4.3737031348672778E-06   4.0144858310213539E-06
   3.6828758961782680E-06   3.3769095922890795E-06   3.0947504560438774E-06
   2.8346819617655160E-06   2.5951005449872874E-06   2.3745089729178422E-06
   2.1715100482929259E-06   1.9848006334169034E-06   1.8131659815066943E-06
   1.6554743627656534E-06   1.5106719729341015E-06   1.3777781123858690E-06
   1.2558806241653825E-06   1.1441315796867833E-06   1.0417432011444721E-06
   9.4798401001264100E-07   8.6217519133903476E-07   7.8368716386476402E-07
   7.1193634632681595E-07   6.4638211062241259E-07   5.8652391283399069E-07
   5.3189859342983420E-07   4.8207783826777145E-07   4.3666579233746638E-07
   3.9529681848023793E-07   3.5763339362369808E-07   3.2336413536146652E-07
   2.9220195199548417E-07   2.6388230943975321E-07   2.3816160865961848E-07
   2.1481566758759675E-07   1.9363830177081352E-07   1.7443999759836227E-07
   1.5704667740279149E-07   1.4129853095779353E-07   1.2704896655991596E-07
   1.1416358916917422E-07   1.0251925183278267E-07   9.2003194491317354E-08
   8.2512238329908104E-08   7.3952033487197774E-08   6.6236360397646361E-08
   5.9286481391653963E-08   5.3030539355936124E-08   4.7403000427633932E-08
   4.2344137859882397E-08   3.7799554354101453E-08   3.3719740305237101E-08
   3.0059665550694111E-08   2.6778402351903950E-08   2.3838777469507237E-08
   2.1207051319229508E-08   1.8852622314332857E-08   1.6747754609131462E-08
   1.4867327687347262E-08  -0.0000000000000000E+00  -0.0000000000000000E+00
  -0.0000000000000000E+00  -0.0000000000000000E+00
       </PP_GIPAW_WFS_PS>
     </PP_GIPAW_ORBITAL.2>
   </PP_GIPAW_ORBITALS>
   <PP_GIPAW_VLOCAL>
     <PP_GIPAW_VLOCAL_AE size="2291">
  -3.0205989270710032E+00  -3.0207225206334520E+00  -3.0208468557572754E+00
  -3.0426485312399243E+00  -3.0815571761092073E+00  -3.0403828747309620E+00
  -3.0655786351238477E+00  -3.0615131339069013E+00  -3.0491439851445068E+00
  -3.0652906386590244E+00  -3.0533194966525250E+00  -3.0561430114045867E+00
  -3.0595862637253801E+00  -3.0528771630028992E+00  -3.0576537403283175E+00
  -3.0555856362460050E+00  -3.0541630581769579E+00  -3.0562501696179529E+00
  -3.0540420353201498E+00  -3.0545976327880164E+00  -3.0544984124552284E+00
  -3.0535893572580437E+00  -3.0541043204861151E+00  -3.0533107311721865E+00
  -3.0532275450386006E+00  -3.0532662078177766E+00  -3.0525895118791810E+00
  -3.0526911613560368E+00  -3.0524578478843334E+00  -3.0520446656342255E+00
  -3.0520544635930418E+00  -3.0517700282209330E+00  -3.0515193255451805E+00
  -3.0514190598144855E+00  -3.0511710215226486E+00  -3.0509823122972057E+00
  -3.0508263202122667E+00  -3.0506197026236848E+00  -3.0504474912741468E+00
  -3.0502768842509673E+00  -3.0500957515383158E+00  -3.0499287148779595E+00
  -3.0497605779042662E+00  -3.0495930706658219E+00  -3.0494308550004199E+00
  -3.0492693113862339E+00  -3.0491101072705176E+00  -3.0489535073396103E+00
  -3.0487985204902408E+00  -3.0486456666223565E+00  -3.0484947403223202E+00
  -3.0483455773106702E+00  -3.0481982372316829E+00  -3.0480525986563762E+00
  -3.0479086097259809E+00  -3.0477662307606352E+00  -3.0476253943047924E+00
  -3.0474860582967236E+00  -3.0473481692292554E+00  -3.0472116836321836E+00
  -3.0470765562995790E+00  -3.0469427429513511E+00  -3.0468102066602989E+00
  -3.0466789056099386E+00  -3.0465488009079174E+00  -3.0464198629413635E+00
  -3.0462920511060299E+00  -3.0461653381536928E+00  -3.0460396878340728E+00
  -3.0459150732359452E+00  -3.0457914670971808E+00  -3.0456688394980880E+00
  -3.0455471640904843E+00  -3.0454264205952111E+00  -3.0453065773593582E+00
  -3.0451876185271862E+00  -3.0450695196708746E+00  -3.0449522601105965E+00
  -3.0448358169517800E+00  -3.0447201786241012E+00  -3.0446053186766098E+00
  -3.0444912255538994E+00  -3.0443778792190908E+00  -3.0442652665240595E+00
  -3.0441533684506692E+00  -3.0440421759103509E+00  -3.0439316693200080E+00
  -3.0438218402359829E+00  -3.0437126734641287E+00  -3.0436041568216421E+00
  -3.0434962805687409E+00  -3.0433890320288213E+00  -3.0432824004785810E+00
  -3.0431763793088851E+00  -3.0430709526233697E+00  -3.0429661177253009E+00
  -3.0428618620455219E+00  -3.0427581779550485E+00  -3.0426550578980196E+00
  -3.0425524947309706E+00  -3.0424504795679455E+00  -3.0423490066030463E+00
  -3.0422480693883718E+00  -3.0421476610377063E+00  -3.0420477759910769E+00
  -3.0419484056948720E+00  -3.0418495503361047E+00  -3.0417511981279244E+00
  -3.0416533479058745E+00  -3.0415559953291087E+00  -3.0414591321423261E+00
  -3.0413627570004023E+00  -3.0412668644429601E+00  -3.0411714495669688E+00
  -3.0410765117288805E+00  -3.0409820424452265E+00  -3.0408880419506117E+00
  -3.0407945043672089E+00  -3.0407014284051863E+00  -3.0406088073839177E+00
  -3.0405166433791639E+00  -3.0404249283242746E+00  -3.0403336636014271E+00
  -3.0402428420482810E+00  -3.0401524656249119E+00  -3.0400625280396660E+00
  -3.0399730293949325E+00  -3.0398839656564869E+00  -3.0397953351932605E+00
  -3.0397071355702501E+00  -3.0396193638020654E+00  -3.0395320209808401E+00
  -3.0394450997074638E+00  -3.0393586021678116E+00  -3.0392725269008505E+00
  -3.0391868675877762E+00  -3.0391016265042858E+00  -3.0390168009339047E+00
  -3.0389323870388614E+00  -3.0388483863586817E+00  -3.0387647934350746E+00
  -3.0386816106888581E+00  -3.0385988331503428E+00  -3.0385164610956976E+00
  -3.0384344921080859E+00  -3.0383529246917922E+00  -3.0382717577578280E+00
  -3.0381909894789749E+00  -3.0381106179281989E+00  -3.0380306424794061E+00
  -3.0379510609094642E+00  -3.0378718727937954E+00  -3.0377930743657444E+00
  -3.0377146682456719E+00  -3.0376366481616675E+00  -3.0375590165185877E+00
  -3.0374817699339736E+00  -3.0374049070514380E+00  -3.0373284277451416E+00
  -3.0372523289764981E+00  -3.0371766106030025E+00  -3.0371012715612875E+00
  -3.0370263079436128E+00  -3.0369517208947268E+00  -3.0368775090770446E+00
  -3.0368036688642501E+00  -3.0367302003200134E+00  -3.0366571032239662E+00
  -3.0365843725447674E+00  -3.0365120107870407E+00  -3.0364400159060239E+00
  -3.0363683822319771E+00  -3.0362971157655303E+00  -3.0362262074501150E+00
  -3.0361556612342424E+00  -3.0360854736371254E+00  -3.0360156421180600E+00
  -3.0359461682981830E+00  -3.0358770485373436E+00  -3.0358082803786512E+00
  -3.0357398658912298E+00  -3.0356717991657143E+00  -3.0356040830789159E+00
  -3.0355367135290994E+00  -3.0354696888354460E+00  -3.0354030100008638E+00
  -3.0353366721675088E+00  -3.0352706764307955E+00  -3.0352050208255332E+00
  -3.0351397020519468E+00  -3.0350747208854854E+00  -3.0350100754265692E+00
  -3.0349457618001860E+00  -3.0348817825941130E+00  -3.0348181317778407E+00
  -3.0347548113796492E+00  -3.0346918184951468E+00  -3.0346291501437141E+00
  -3.0345668078203158E+00  -3.0345047880815632E+00  -3.0344430879584752E+00
  -3.0343817098848396E+00  -3.0343206478336295E+00  -3.0342599037947395E+00
  -3.0341994739676275E+00  -3.0341393569534980E+00  -3.0340795531363760E+00
  -3.0340200586660737E+00  -3.0339608719318161E+00  -3.0339019941983159E+00
  -3.0338434193090955E+00  -3.0337851505203326E+00  -3.0337271823891552E+00
  -3.0336695148278481E+00  -3.0336121474966484E+00  -3.0335550758190077E+00
  -3.0334982996919297E+00  -3.0334418199492696E+00  -3.0333856292967720E+00
  -3.0333297317650656E+00  -3.0332741232494991E+00  -3.0332188002856215E+00
  -3.0331637654832391E+00  -3.0331090138913885E+00  -3.0330545441030892E+00
  -3.0330003574179254E+00  -3.0329464476403061E+00  -3.0328928169686264E+00
  -3.0328394622974990E+00  -3.0327863810789872E+00  -3.0327335738572501E+00
  -3.0326810363348486E+00  -3.0326287692259482E+00  -3.0325767705816569E+00
  -3.0325250359211915E+00  -3.0324735679901322E+00  -3.0324223624198874E+00
  -3.0323714167300908E+00  -3.0323207328400454E+00  -3.0322703049175463E+00
  -3.0322201346943101E+00  -3.0321702185739090E+00  -3.0321205557692830E+00
  -3.0320711442413093E+00  -3.0320219829572768E+00  -3.0319730690538029E+00
  -3.0319244026314118E+00  -3.0318759801712014E+00  -3.0318278019161302E+00
  -3.0317798651585859E+00  -3.0317321684956573E+00  -3.0316847095967141E+00
  -3.0316374887234567E+00  -3.0315905021206686E+00  -3.0315437497375770E+00
  -3.0314972289826092E+00  -3.0314509386045083E+00  -3.0314048779116374E+00
  -3.0313590433615363E+00  -3.0313134354203215E+00  -3.0312680504969234E+00
  -3.0312228889680268E+00  -3.0311779479067091E+00  -3.0311332257581540E+00
  -3.0310887217683149E+00  -3.0310444343448459E+00  -3.0310003609434344E+00
  -3.0309565007831236E+00  -3.0309128513473467E+00  -3.0308694132412732E+00
  -3.0308261823941756E+00  -3.0307831584520519E+00  -3.0307403403332320E+00
  -3.0306977255216081E+00  -3.0306553128955418E+00  -3.0306131009551507E+00
  -3.0305710881779655E+00  -3.0305292725789439E+00  -3.0304876539208250E+00
  -3.0304462289943674E+00  -3.0304049974490068E+00  -3.0303639578477357E+00
  -3.0303231072733405E+00  -3.0302824461151152E+00  -3.0302419717395703E+00
  -3.0302016827815241E+00  -3.0301615783903642E+00  -3.0301216555475801E+00
  -3.0300819148979445E+00  -3.0300423533104541E+00  -3.0300029701583315E+00
  -3.0299637637053709E+00  -3.0299247321868084E+00  -3.0298858745941764E+00
  -3.0298471902980650E+00  -3.0298086751946589E+00  -3.0297703311772817E+00
  -3.0297321541292312E+00  -3.0296941441821525E+00  -3.0296562998785190E+00
  -3.0296186179668272E+00  -3.0295810998465562E+00  -3.0295437421176481E+00
  -3.0295065435518227E+00  -3.0294695040436910E+00  -3.0294326203454309E+00
  -3.0293958929350553E+00  -3.0293593189774062E+00  -3.0293228972079840E+00
  -3.0292866278067589E+00  -3.0292505072259996E+00  -3.0292145359286011E+00
  -3.0291787109531438E+00  -3.0291430322545123E+00  -3.0291074980861521E+00
  -3.0290721070482980E+00  -3.0290368567077461E+00  -3.0290017485566381E+00
  -3.0289667779827898E+00  -3.0289319456815336E+00  -3.0288972496929061E+00
  -3.0288626892415214E+00  -3.0288282619258378E+00  -3.0287939677959730E+00
  -3.0287598038279739E+00  -3.0287257711995861E+00  -3.0286918657956527E+00
  -3.0286580880586187E+00  -3.0286244371443085E+00  -3.0285909097331309E+00
  -3.0285575062808316E+00  -3.0285242254697673E+00  -3.0284910646885770E+00
  -3.0284580244091290E+00  -3.0284251014314241E+00  -3.0283922971623554E+00
  -3.0283596070996817E+00  -3.0283270325920326E+00  -3.0282945716127894E+00
  -3.0282622221248290E+00  -3.0282299842510780E+00  -3.0281978554097315E+00
  -3.0281658353196024E+00  -3.0281339227141877E+00  -3.0281021156311452E+00
  -3.0280704140153798E+00  -3.0280388152387387E+00  -3.0280073193466377E+00
  -3.0279759246501845E+00  -3.0279446298282191E+00  -3.0279134338454732E+00
  -3.0278823358096210E+00  -3.0278513332563572E+00  -3.0278204271312856E+00
  -3.0277896143516898E+00  -3.0277588947066847E+00  -3.0277282668894991E+00
  -3.0276977291274969E+00  -3.0276672815985739E+00  -3.0276369215393513E+00
  -3.0276066490415028E+00  -3.0275764625047858E+00  -3.0275463602869910E+00
  -3.0275163423274458E+00  -3.0274864064484546E+00  -3.0274565521842023E+00
  -3.0274267782980746E+00  -3.0273970827400709E+00  -3.0273674657096032E+00
  -3.0273379259892277E+00  -3.0273084612520944E+00  -3.0272790712761313E+00
  -3.0272497553734312E+00  -3.0272205107900589E+00  -3.0271913385569578E+00
  -3.0271622359456507E+00  -3.0271332024695927E+00  -3.0271042371970798E+00
  -3.0270753381700706E+00  -3.0270465056555960E+00  -3.0270177374767533E+00
  -3.0269890328394200E+00  -3.0269603911966732E+00  -3.0269318101784624E+00
  -3.0269032901151278E+00  -3.0268748290974012E+00  -3.0268464265132753E+00
  -3.0268180810946679E+00  -3.0267897909822170E+00  -3.0267615567679211E+00
  -3.0267333761171282E+00  -3.0267052482272492E+00  -3.0266771725196442E+00
  -3.0266491472616450E+00  -3.0266211715227089E+00  -3.0265932449515689E+00
  -3.0265653655931160E+00  -3.0265375326289501E+00  -3.0265097459159511E+00
  -3.0264820026596815E+00  -3.0264543035780598E+00  -3.0264266464024248E+00
  -3.0263990309746358E+00  -3.0263714555420411E+00  -3.0263439192744874E+00
  -3.0263164216298106E+00  -3.0262889609077717E+00  -3.0262615363794430E+00
  -3.0262341471214702E+00  -3.0262067920057119E+00  -3.0261794694642132E+00
  -3.0261521799881175E+00  -3.0261249205984857E+00  -3.0260976919521378E+00
  -3.0260704920123960E+00  -3.0260433198035859E+00  -3.0260161750844636E+00
  -3.0259890559953067E+00  -3.0259619621894984E+00  -3.0259348921029106E+00
  -3.0259078447945469E+00  -3.0258808198390357E+00  -3.0258538156489601E+00
  -3.0258268313081196E+00  -3.0257998661888728E+00  -3.0257729183164161E+00
  -3.0257459880391226E+00  -3.0257190734837680E+00  -3.0256921735750546E+00
  -3.0256652879980184E+00  -3.0256384152249418E+00  -3.0256115539816339E+00
  -3.0255847041021955E+00  -3.0255578640944498E+00  -3.0255310328507456E+00
  -3.0255042098151912E+00  -3.0254773933468484E+00  -3.0254505830991434E+00
  -3.0254237776699684E+00  -3.0253969764434503E+00  -3.0253701779728197E+00
  -3.0253433814907962E+00  -3.0253165860324707E+00  -3.0252897906698966E+00
  -3.0252629942378260E+00  -3.0252361957825169E+00  -3.0252093946070748E+00
  -3.0251825889993129E+00  -3.0251557788024588E+00  -3.0251289627165718E+00
  -3.0251021393891979E+00  -3.0250753086111630E+00  -3.0250484683172369E+00
  -3.0250216186619867E+00  -3.0249947578972369E+00  -3.0249678852605490E+00
  -3.0249410000064545E+00  -3.0249141002764142E+00  -3.0248871863770304E+00
  -3.0248602563936071E+00  -3.0248333095400661E+00  -3.0248063449941953E+00
  -3.0247793613862419E+00  -3.0247523583173295E+00  -3.0247253343441125E+00
  -3.0246982885167069E+00  -3.0246712199161738E+00  -3.0246441277861815E+00
  -3.0246170104432410E+00  -3.0245898676769114E+00  -3.0245626981736691E+00
  -3.0245355008007464E+00  -3.0245082747583378E+00  -3.0244810187439231E+00
  -3.0244537323251270E+00  -3.0244264139626718E+00  -3.0243990628899806E+00
  -3.0243716782137318E+00  -3.0243442584601499E+00  -3.0243168032783245E+00
  -3.0242893112015783E+00  -3.0242617813489265E+00  -3.0242342129848403E+00
  -3.0242066042674582E+00  -3.0241789553218776E+00  -3.0241512643124708E+00
  -3.0241235305529712E+00  -3.0240957529205570E+00  -3.0240679307178238E+00
  -3.0240400620373640E+00  -3.0240121471906942E+00  -3.0239841840028774E+00
  -3.0239561720879826E+00  -3.0239281102104192E+00  -3.0238999972049916E+00
  -3.0238718323442049E+00  -3.0238436145374097E+00  -3.0238153426464702E+00
  -3.0237870156166817E+00  -3.0237586324016861E+00  -3.0237301921499857E+00
  -3.0237016938150107E+00  -3.0236731360443327E+00  -3.0236445181581133E+00
  -3.0236158389786181E+00  -3.0235870972646599E+00  -3.0235582922826598E+00
  -3.0235294228371563E+00  -3.0235004879980361E+00  -3.0234714864738206E+00
  -3.0234424171821797E+00  -3.0234132795955180E+00  -3.0233840720190885E+00
  -3.0233547936587248E+00  -3.0233254436086212E+00  -3.0232960202980683E+00
  -3.0232665233475822E+00  -3.0232369510737618E+00  -3.0232073028345892E+00
  -3.0231775772334757E+00  -3.0231477731939753E+00  -3.0231178900851066E+00
  -3.0230879262721011E+00  -3.0230578809656077E+00  -3.0230277529436775E+00
  -3.0229975412780399E+00  -3.0229672444171309E+00  -3.0229368620451043E+00
  -3.0229063923024957E+00  -3.0228758344565887E+00  -3.0228451874512228E+00
  -3.0228144497075156E+00  -3.0227836208584637E+00  -3.0227526990972762E+00
  -3.0227216836236734E+00  -3.0226905734325462E+00  -3.0226593668124186E+00
  -3.0226280634502571E+00  -3.0225966616074240E+00  -3.0225651603343571E+00
  -3.0225335584731030E+00  -3.0225018550330911E+00  -3.0224700484677549E+00
  -3.0224381379829768E+00  -3.0224061224077889E+00  -3.0223740002660699E+00
  -3.0223417708386791E+00  -3.0223094323568001E+00  -3.0222769843409028E+00
  -3.0222444250768388E+00  -3.0222117537019528E+00  -3.0221789689159251E+00
  -3.0221460692788189E+00  -3.0221130541098220E+00  -3.0220799218128875E+00
  -3.0220466713156879E+00  -3.0220133014776236E+00  -3.0219798107662412E+00
  -3.0219461985066647E+00  -3.0219124629359122E+00  -3.0218786031910070E+00
  -3.0218446179580036E+00  -3.0218105059262181E+00  -3.0217762657413081E+00
  -3.0217418965406697E+00  -3.0217073967116481E+00  -3.0216727651730175E+00
  -3.0216380007441073E+00  -3.0216031017376710E+00  -3.0215680675019070E+00
  -3.0215328962764505E+00  -3.0214975870887142E+00  -3.0214621385112532E+00
  -3.0214265491444778E+00  -3.0213908180026454E+00  -3.0213549435212226E+00
  -3.0213189244416667E+00  -3.0212827597175029E+00  -3.0212464474648417E+00
  -3.0212099870283096E+00  -3.0211733766617379E+00  -3.0211366150899779E+00
  -3.0210997011113467E+00  -3.0210626333359385E+00  -3.0210254102085665E+00
  -3.0209880307038155E+00  -3.0209504933124229E+00  -3.0209127965809968E+00
  -3.0208749393652883E+00  -3.0208369199693168E+00  -3.0207987372983269E+00
  -3.0207603898799138E+00  -3.0207218761988308E+00  -3.0206831952051125E+00
  -3.0206443448330691E+00  -3.0206053244258073E+00  -3.0205661320373154E+00
  -3.0205267665191675E+00  -3.0204872262806659E+00  -3.0204475100281489E+00
  -3.0204076160320863E+00  -3.0203675432489252E+00  -3.0203272899759828E+00
  -3.0202868547172788E+00  -3.0202462362075591E+00  -3.0202054325631811E+00
  -3.0201644428333307E+00  -3.0201232652078471E+00  -3.0200818981596980E+00
  -3.0200403403808620E+00  -3.0199985900824955E+00  -3.0199566460367131E+00
  -3.0199145065740742E+00  -3.0198721701381177E+00  -3.0198296352610590E+00
  -3.0197869002214142E+00  -3.0197439638103556E+00  -3.0197008241338730E+00
  -3.0196574796730089E+00  -3.0196139291180844E+00  -3.0195701705086027E+00
  -3.0195262023684846E+00  -3.0194820233767858E+00  -3.0194376314443816E+00
  -3.0193930254301176E+00  -3.0193482033245078E+00  -3.0193031636856396E+00
  -3.0192579048496908E+00  -3.0192124252101755E+00  -3.0191667229981682E+00
  -3.0191207966119742E+00  -3.0190746443523304E+00  -3.0190282645734090E+00
  -3.0189816555860389E+00  -3.0189348156213782E+00  -3.0188877430770744E+00
  -3.0188404361855445E+00  -3.0187928930952226E+00  -3.0187451123132050E+00
  -3.0186970918859704E+00  -3.0186488302864292E+00  -3.0186003254940847E+00
  -3.0185515758401995E+00  -3.0185025796409590E+00  -3.0184533350389109E+00
  -3.0184038401245772E+00  -3.0183540933363262E+00  -3.0183040925905291E+00
  -3.0182538362700844E+00  -3.0182033223810207E+00  -3.0181525492720542E+00
  -3.0181015148954589E+00  -3.0180502173858827E+00  -3.0179986550755560E+00
  -3.0179468259329223E+00  -3.0178947280018678E+00  -3.0178423595154444E+00
  -3.0177897185446176E+00  -3.0177368029402585E+00  -3.0176836111480063E+00
  -3.0176301409441915E+00  -3.0175763904299955E+00  -3.0175223577626213E+00
  -3.0174680406532772E+00  -3.0174134375768653E+00  -3.0173585461033543E+00
  -3.0173033645146234E+00  -3.0172478906505065E+00  -3.0171921224810601E+00
  -3.0171360579295192E+00  -3.0170796952903776E+00  -3.0170230318994813E+00
  -3.0169660661032354E+00  -3.0169087958666969E+00  -3.0168512186913250E+00
  -3.0167933329381351E+00  -3.0167351361604182E+00  -3.0166766261994646E+00
  -3.0166178013936467E+00  -3.0165586588345690E+00  -3.0164991970957127E+00
  -3.0164394134461348E+00  -3.0163793058529982E+00  -3.0163188724621821E+00
  -3.0162581103896318E+00  -3.0161970181092634E+00  -3.0161355928041904E+00
  -3.0160738325219190E+00  -3.0160117350395574E+00  -3.0159492978339677E+00
  -3.0158865188912354E+00  -3.0158233956753646E+00  -3.0157599258847028E+00
  -3.0156961075786151E+00  -3.0156319376849106E+00  -3.0155674146324025E+00
  -3.0155025354727925E+00  -3.0154372980226523E+00  -3.0153717000776896E+00
  -3.0153057387941220E+00  -3.0152394122935777E+00  -3.0151727175315983E+00
  -3.0151056526068349E+00  -3.0150382146980856E+00  -3.0149704013742151E+00
  -3.0149022104481165E+00  -3.0148336388758943E+00  -3.0147646846556091E+00
  -3.0146953449306828E+00  -3.0146256171680310E+00  -3.0145554990823267E+00
  -3.0144849876316111E+00  -3.0144140806728945E+00  -3.0143427752965204E+00
  -3.0142710689405261E+00  -3.0141989591331688E+00  -3.0141264429374037E+00
  -3.0140535179533199E+00  -3.0139801812602198E+00  -3.0139064302391283E+00
  -3.0138322623717895E+00  -3.0137576744912464E+00  -3.0136826643335106E+00
  -3.0136072287627900E+00  -3.0135313651004498E+00  -3.0134550707319305E+00
  -3.0133783425063934E+00  -3.0133011779355638E+00  -3.0132235738967479E+00
  -3.0131455276347601E+00  -3.0130670363928127E+00  -3.0129880969571894E+00
  -3.0129087068299580E+00  -3.0128288626840836E+00  -3.0127485617480247E+00
  -3.0126678011571824E+00  -3.0125865776460081E+00  -3.0125048885826198E+00
  -3.0124227305662519E+00  -3.0123401007740527E+00  -3.0122569962300552E+00
  -3.0121734135439335E+00  -3.0120893500088819E+00  -3.0120048021562447E+00
  -3.0119197672070386E+00  -3.0118342416597015E+00  -3.0117482225784573E+00
  -3.0116617067834230E+00  -3.0115746908895749E+00  -3.0114871719286911E+00
  -3.0113991463759384E+00  -3.0113106111765995E+00  -3.0112215630429029E+00
  -3.0111319984641627E+00  -3.0110419144754359E+00  -3.0109513073389400E+00
  -3.0108601739425769E+00  -3.0107685109602702E+00  -3.0106763146825233E+00
  -3.0105835820906233E+00  -3.0104903093575279E+00  -3.0103964932509486E+00
  -3.0103021303619109E+00  -3.0102072168262777E+00  -3.0101117495669309E+00
  -3.0100157246970620E+00  -3.0099191387571684E+00  -3.0098219883005424E+00
  -3.0097242694062287E+00  -3.0096259787926192E+00  -3.0095271125472158E+00
  -3.0094276670169862E+00  -3.0093276387120844E+00  -3.0092270236068375E+00
  -3.0091258182672211E+00  -3.0090240186345460E+00  -3.0089216210579344E+00
  -3.0088186218491866E+00  -3.0087150168873267E+00  -3.0086108026144389E+00
  -3.0085059748442577E+00  -3.0084005299483407E+00  -3.0082944638132942E+00
  -3.0081877725230690E+00  -3.0080804522315616E+00  -3.0079724986353016E+00
  -3.0078639081178373E+00  -3.0077546762376071E+00  -3.0076447991086304E+00
  -3.0075342727023258E+00  -3.0074230926560159E+00  -3.0073112550971857E+00
  -3.0071987555872997E+00  -3.0070855900690114E+00  -3.0069717543814680E+00
  -3.0068572440270733E+00  -3.0067420550229360E+00  -3.0066261828161172E+00
  -3.0065096231418820E+00  -3.0063923718039702E+00  -3.0062744241158228E+00
  -3.0061557759776218E+00  -3.0060364226784961E+00  -3.0059163598848726E+00
  -3.0057955831928305E+00  -3.0056740877920256E+00  -3.0055518694926651E+00
  -3.0054289233901423E+00  -3.0053052450515860E+00  -3.0051808298765184E+00
  -3.0050556730129978E+00  -3.0049297699958899E+00  -3.0048031159069124E+00
  -3.0046757060809353E+00  -3.0045475358031468E+00  -3.0044186000824231E+00
  -3.0042888943082513E+00  -3.0041584133594301E+00  -3.0040271525838969E+00
  -3.0038951068428084E+00  -3.0037622712569023E+00  -3.0036286409248620E+00
  -3.0034942105947722E+00  -3.0033589755145962E+00  -3.0032229302999163E+00
  -3.0030860699838033E+00  -3.0029483895053675E+00  -3.0028098834052366E+00
  -3.0026705468074608E+00  -3.0025303741896461E+00  -3.0023893603637335E+00
  -3.0022475001557867E+00  -3.0021047879320983E+00  -3.0019612186423785E+00
  -3.0018167866018599E+00  -3.0016714864635734E+00  -3.0015253128659154E+00
  -3.0013782600438468E+00  -3.0012303227268236E+00  -3.0010814950822513E+00
  -3.0009317716328536E+00  -3.0007811467616969E+00  -3.0006296146061753E+00
  -3.0004771696545873E+00  -3.0003238059702948E+00  -3.0001695178032195E+00
  -3.0000142994585559E+00  -2.9998581448210904E+00  -2.9997010482293662E+00
  -2.9995430035563513E+00  -2.9993840048762821E+00  -2.9992240462674498E+00
  -2.9990631215024304E+00  -2.9989012246696087E+00  -2.9987383494536570E+00
  -2.9985744898681523E+00  -2.9984096395147670E+00  -2.9982437923001921E+00
  -2.9980769418868460E+00  -2.9979090818960188E+00  -2.9977402060579048E+00
  -2.9975703078505909E+00  -2.9973993809028050E+00  -2.9972274187579684E+00
  -2.9970544147557265E+00  -2.9968803625066878E+00  -2.9967052552195059E+00
  -2.9965290863180329E+00  -2.9963518492049448E+00  -2.9961735369383140E+00
  -2.9959941429309640E+00  -2.9958136602587926E+00  -2.9956320820193074E+00
  -2.9954494014546182E+00  -2.9952656114303897E+00  -2.9950807051038519E+00
  -2.9948946753242760E+00  -2.9947075150353504E+00  -2.9945192171896298E+00
  -2.9943297744513031E+00  -2.9941391797871524E+00  -2.9939474257501497E+00
  -2.9937545051299863E+00  -2.9935604106137239E+00  -2.9933651346307788E+00
  -2.9931686699308533E+00  -2.9929710088402777E+00  -2.9927721438937378E+00
  -2.9925720675402596E+00  -2.9923707720120234E+00  -2.9921682497747617E+00
  -2.9919644929125435E+00  -2.9917594938193095E+00  -2.9915532445081694E+00
  -2.9913457371346959E+00  -2.9911369638476506E+00  -2.9909269165026249E+00
  -2.9907155872165410E+00  -2.9905029677717225E+00  -2.9902890500855701E+00
  -2.9900738260122575E+00  -2.9898572871749010E+00  -2.9896394254243175E+00
  -2.9894202323055983E+00  -2.9891996994325272E+00  -2.9889778184126512E+00
  -2.9887545806343070E+00  -2.9885299776601344E+00  -2.9883040007343120E+00
  -2.9880766412415571E+00  -2.9878478905259196E+00  -2.9876177396486501E+00
  -2.9873861799349233E+00  -2.9871532023540284E+00  -2.9869187979947145E+00
  -2.9866829579295180E+00  -2.9864456729400182E+00  -2.9862069340400521E+00
  -2.9859667319636882E+00  -2.9857250574632070E+00  -2.9854819013416960E+00
  -2.9852372540687422E+00  -2.9849911064251025E+00  -2.9847434487527287E+00
  -2.9844942715874301E+00  -2.9842435653903081E+00  -2.9839913203569046E+00
  -2.9837375269310793E+00  -2.9834821751725329E+00  -2.9832252553222007E+00
  -2.9829667574866523E+00  -2.9827066715945811E+00  -2.9824449877408150E+00
  -2.9821816956912430E+00  -2.9819167854121535E+00  -2.9816502465568426E+00
  -2.9813820688962607E+00  -2.9811122420787579E+00  -2.9808407556198988E+00
  -2.9805675991005445E+00  -2.9802927619010831E+00  -2.9800162334045059E+00
  -2.9797380029709766E+00  -2.9794580597452551E+00  -2.9791763930078266E+00
  -2.9788929917561977E+00  -2.9786078450525930E+00  -2.9783209419304235E+00
  -2.9780322711413811E+00  -2.9777418216670428E+00  -2.9774495821058609E+00
  -2.9771555412094641E+00  -2.9768596876252076E+00  -2.9765620097758605E+00
  -2.9762624962341993E+00  -2.9759611352880939E+00  -2.9756579153139735E+00
  -2.9753528245448777E+00  -2.9750458511016991E+00  -2.9747369831373840E+00
  -2.9744262086007640E+00  -2.9741135154405485E+00  -2.9737988915884710E+00
  -2.9734823246943267E+00  -2.9731638026113711E+00  -2.9728433128375804E+00
  -2.9725208429854759E+00  -2.9721963805408151E+00  -2.9718699128325889E+00
  -2.9715414272356182E+00  -2.9712109109003668E+00  -2.9708783510708874E+00
  -2.9705437347334658E+00  -2.9702070488803551E+00  -2.9698682804917493E+00
  -2.9695274162666037E+00  -2.9691844430409828E+00  -2.9688393474113401E+00
  -2.9684921159460549E+00  -2.9681427351658507E+00  -2.9677911914030628E+00
  -2.9674374710386195E+00  -2.9670815602381335E+00  -2.9667234451483959E+00
  -2.9663631118586116E+00  -2.9660005462576993E+00  -2.9656357342959088E+00
  -2.9652686616866410E+00  -2.9648993141447524E+00  -2.9645276773176872E+00
  -2.9641537366177646E+00  -2.9637774775774957E+00  -2.9633988854357880E+00
  -2.9630179454487102E+00  -2.9626346428122874E+00  -2.9622489624881250E+00
  -2.9618608895095462E+00  -2.9614704086765058E+00  -2.9610775047742410E+00
  -2.9606821625011017E+00  -2.9602843663668228E+00  -2.9598841009133818E+00
  -2.9594813504670290E+00  -2.9590760993178837E+00  -2.9586683316846396E+00
  -2.9582580315836244E+00  -2.9578451830725245E+00  -2.9574297699501173E+00
  -2.9570117760799057E+00  -2.9565911850733047E+00  -2.9561679805347598E+00
  -2.9557421459667790E+00  -2.9553136646776528E+00  -2.9548825200048103E+00
  -2.9544486950513722E+00  -2.9540121728984747E+00  -2.9535729365356098E+00
  -2.9531309687270468E+00  -2.9526862523082817E+00  -2.9522387698278645E+00
  -2.9517885038509144E+00  -2.9513354368170277E+00  -2.9508795509657659E+00
  -2.9504208285727547E+00  -2.9499592516562556E+00  -2.9494948022256127E+00
  -2.9490274621646306E+00  -2.9485572131672142E+00  -2.9480840369480870E+00
  -2.9476079149575258E+00  -2.9471288286588466E+00  -2.9466467593519594E+00
  -2.9461616881685320E+00  -2.9456735962507983E+00  -2.9451824644797018E+00
  -2.9446882737199105E+00  -2.9441910047123634E+00  -2.9436906379923853E+00
  -2.9431871541144319E+00  -2.9426805333710120E+00  -2.9421707560332857E+00
  -2.9416578022388671E+00  -2.9411416519363303E+00  -2.9406222850627262E+00
  -2.9400996813060396E+00  -2.9395738203593189E+00  -2.9390446816859015E+00
  -2.9385122446678840E+00  -2.9379764886184834E+00  -2.9374373925821589E+00
  -2.9368949356527034E+00  -2.9363490966422678E+00  -2.9357998543315280E+00
  -2.9352471873562553E+00  -2.9346910741773264E+00  -2.9341314931997999E+00
  -2.9335684226272445E+00  -2.9330018405720666E+00  -2.9324317250404839E+00
  -2.9318580538182801E+00  -2.9312808046781371E+00  -2.9306999551504611E+00
  -2.9301154826880791E+00  -2.9295273646370599E+00  -2.9289355781176636E+00
  -2.9283401002249363E+00  -2.9277409078159655E+00  -2.9271379776835951E+00
  -2.9265312864665041E+00  -2.9259208106274888E+00  -2.9253065265596234E+00
  -2.9246884104430348E+00  -2.9240664383697266E+00  -2.9234405862983865E+00
  -2.9228108299711928E+00  -2.9221771451052492E+00  -2.9215395071668033E+00
  -2.9208978915346870E+00  -2.9202522734694729E+00  -2.9196026280052059E+00
  -2.9189489301323008E+00  -2.9182911545938910E+00  -2.9176292760954281E+00
  -2.9169632690950316E+00  -2.9162931079682806E+00  -2.9156187669491325E+00
  -2.9149402200552048E+00  -2.9142574412486635E+00  -2.9135704042679151E+00
  -2.9128790827324775E+00  -2.9121834501405122E+00  -2.9114834797747862E+00
  -2.9107791448290925E+00  -2.9100704183074928E+00  -2.9093572730771240E+00
  -2.9086396818724900E+00  -2.9079176172155496E+00  -2.9071910515635104E+00
  -2.9064599571321050E+00  -2.9057243060289757E+00  -2.9049840702306273E+00
  -2.9042392214853909E+00  -2.9034897314702697E+00  -2.9027355716346404E+00
  -2.9019767133117345E+00  -2.9012131276948723E+00  -2.9004447857432973E+00
  -2.8996716583661946E+00  -2.8988937162192596E+00  -2.8981109298475678E+00
  -2.8973232696547315E+00  -2.8965307058144520E+00  -2.8957332084394909E+00
  -2.8949307473771233E+00  -2.8941232924001645E+00  -2.8933108130932075E+00
  -2.8924932788356137E+00  -2.8916706589376524E+00  -2.8908429224422525E+00
  -2.8900100383281040E+00  -2.8891719753356533E+00  -2.8883287020819797E+00
  -2.8874801870352869E+00  -2.8866263984391440E+00  -2.8857673044567602E+00
  -2.8849028730122264E+00  -2.8840330719106713E+00  -2.8831578687999180E+00
  -2.8822772311040841E+00  -2.8813911261771179E+00  -2.8804995211104956E+00
  -2.8796023828944839E+00  -2.8786996783532297E+00  -2.8777913740988001E+00
  -2.8768774366392966E+00  -2.8759578322669013E+00  -2.8750325271312960E+00
  -2.8741014872377466E+00  -2.8731646783731977E+00  -2.8722220662180522E+00
  -2.8712736162373038E+00  -2.8703192937635689E+00  -2.8693590639640720E+00
  -2.8683928918053114E+00  -2.8674207421458178E+00  -2.8664425796144859E+00
  -2.8654583687285862E+00  -2.8644680738264947E+00  -2.8634716590445035E+00
  -2.8624690884258444E+00  -2.8614603257747362E+00  -2.8604453347775083E+00
  -2.8594240789597065E+00  -2.8583965216345937E+00  -2.8573626260215148E+00
  -2.8563223551109314E+00  -2.8552756717699554E+00  -2.8542225387075124E+00
  -2.8531629184229339E+00  -2.8520967733233102E+00  -2.8510240655853853E+00
  -2.8499447572823771E+00  -2.8488588102803849E+00  -2.8477661863142347E+00
  -2.8466668469657321E+00  -2.8455607536105973E+00  -2.8444478675355378E+00
  -2.8433281498040794E+00  -2.8422015613546847E+00  -2.8410680629887315E+00
  -2.8399276152885791E+00  -2.8387801787593050E+00  -2.8376257136827516E+00
  -2.8364641802258332E+00  -2.8352955384101168E+00  -2.8341197480524283E+00
  -2.8329367688920910E+00  -2.8317465604466836E+00  -2.8305490821331118E+00
  -2.8293442932077455E+00  -2.8281321527538013E+00  -2.8269126197574117E+00
  -2.8256856529993097E+00  -2.8244512111636633E+00  -2.8232092527807771E+00
  -2.8219597362060740E+00  -2.8207026197109437E+00  -2.8194378613642193E+00
  -2.8181654191463044E+00  -2.8168852508829270E+00  -2.8155973142407915E+00
  -2.8143015668018641E+00  -2.8129979659588122E+00  -2.8116864690112897E+00
  -2.8103670331273078E+00  -2.8090396153087593E+00  -2.8077041724865217E+00
  -2.8063606614121626E+00  -2.8050090387604389E+00  -2.8036492610359756E+00
  -2.8022812846643927E+00  -2.8009050659408867E+00  -2.7995205610179346E+00
  -2.7981277259799926E+00  -2.7967265167539255E+00  -2.7953168891774745E+00
  -2.7938987989919224E+00  -2.7924722017884189E+00  -2.7910370531125439E+00
  -2.7895933083503794E+00  -2.7881409228216700E+00  -2.7866798517504314E+00
  -2.7852100502304467E+00  -2.7837314733120739E+00  -2.7822440759045919E+00
  -2.7807478128645107E+00  -2.7792426389525420E+00  -2.7777285088319421E+00
  -2.7762053771092869E+00  -2.7746731982894186E+00  -2.7731319268182566E+00
  -2.7715815170712328E+00  -2.7700219233263512E+00  -2.7684530998407810E+00
  -2.7668750007610425E+00  -2.7652875802018180E+00  -2.7636907922224467E+00
  -2.7620845907988500E+00  -2.7604689298932112E+00  -2.7588437633864307E+00
  -2.7572090451364661E+00  -2.7555647289584102E+00  -2.7539107686099942E+00
  -2.7522471178453314E+00  -2.7505737303539353E+00  -2.7488905598357065E+00
  -2.7471975599272822E+00  -2.7454946842744326E+00  -2.7437818865056882E+00
  -2.7420591202127786E+00  -2.7403263390172805E+00  -2.7385834964996376E+00
  -2.7368305462631737E+00  -2.7350674419199059E+00  -2.7332941370614772E+00
  -2.7315105853340031E+00  -2.7297167403578038E+00  -2.7279125558077904E+00
  -2.7260979853765162E+00  -2.7242729827709589E+00  -2.7224375017628750E+00
  -2.7205914961350106E+00  -2.7187349197337145E+00  -2.7168677264570196E+00
  -2.7149898702378188E+00  -2.7131013050979895E+00  -2.7112019850927522E+00
  -2.7092918643724380E+00  -2.7073708971599300E+00  -2.7054390377354096E+00
  -2.7034962405021248E+00  -2.7015424599219724E+00  -2.6995776505695610E+00
  -2.6976017671310912E+00  -2.6956147643735280E+00  -2.6936165972117045E+00
  -2.6916072206500061E+00  -2.6895865898365297E+00  -2.6875546600575668E+00
  -2.6855113867088458E+00  -2.6834567253681656E+00  -2.6813906317231981E+00
  -2.6793130616623961E+00  -2.6772239711948331E+00  -2.6751233165264092E+00
  -2.6730110540377852E+00  -2.6708871402696723E+00  -2.6687515319880757E+00
  -2.6666041861163636E+00  -2.6644450598104217E+00  -2.6622741104276750E+00
  -2.6600912955272773E+00  -2.6578965729234110E+00  -2.6556899006265908E+00
  -2.6534712369080427E+00  -2.6512405402868713E+00  -2.6489977695090943E+00
  -2.6467428836207341E+00  -2.6444758418957983E+00  -2.6421966039087739E+00
  -2.6399051295184002E+00  -2.6376013788510453E+00  -2.6352853123659252E+00
  -2.6329568907947927E+00  -2.6306160752053449E+00  -2.6282628269920774E+00
  -2.6258971078520168E+00  -2.6235188798612561E+00  -2.6211281054031885E+00
  -2.6187247472453516E+00  -2.6163087685132651E+00  -2.6138801326886285E+00
  -2.6114388036622076E+00  -2.6089847456839403E+00  -2.6065179234255180E+00
  -2.6040383019604496E+00  -2.6015458467609016E+00  -2.5990405237557770E+00
  -2.5965222992711876E+00  -2.5939911401097180E+00  -2.5914470134972993E+00
  -2.5888898871370181E+00  -2.5863197292054623E+00  -2.5837365083357189E+00
  -2.5811401936791443E+00  -2.5785307548565268E+00  -2.5759081620166890E+00
  -2.5732723858191435E+00  -2.5706233974362180E+00  -2.5679611686012143E+00
  -2.5652856715659320E+00  -2.5625968791523679E+00  -2.5598947647493202E+00
  -2.5571793023035698E+00  -2.5544504663659282E+00  -2.5517082320609887E+00
  -2.5489525751305653E+00  -2.5461834719304672E+00  -2.5434008994216115E+00
  -2.5406048352252539E+00  -2.5377952575793437E+00  -2.5349721453879890E+00
  -2.5321354782269805E+00  -2.5292852363171914E+00  -2.5264214005960839E+00
  -2.5235439526642462E+00  -2.5206528748439303E+00  -2.5177481501697634E+00
  -2.5148297623817037E+00  -2.5118976959779400E+00  -2.5089519361839234E+00
  -2.5059924689718680E+00  -2.5030192811028571E+00  -2.5000323600896559E+00
  -2.4970316942244204E+00  -2.4940172726200958E+00  -2.4909890851678842E+00
  -2.4879471225715539E+00  -2.4848913763846201E+00  -2.4818218389644162E+00
  -2.4787385035304021E+00  -2.4756413641372470E+00  -2.4725304157308909E+00
  -2.4694056541043605E+00  -2.4662670759353174E+00  -2.4631146788155722E+00
  -2.4599484612185520E+00  -2.4567684225233872E+00  -2.4535745630617516E+00
  -2.4503668840629715E+00  -2.4471453877160312E+00  -2.4439100771427493E+00
  -2.4406609564493369E+00  -2.4373980306866603E+00  -2.4341213058830555E+00
  -2.4308307890756984E+00  -2.4275264882707988E+00  -2.4242084124935710E+00
  -2.4208765717683280E+00  -2.4175309771619347E+00  -2.4141716407530338E+00
  -2.4107985756532186E+00  -2.4074117960469734E+00  -2.4040113171475461E+00
  -2.4005971552318592E+00  -2.3971693276712904E+00  -2.3937278528838548E+00
  -2.3902727503973100E+00  -2.3868040408076574E+00  -2.3833217458432694E+00
  -2.3798258883129049E+00  -2.3763164921401363E+00  -2.3727935823927662E+00
  -2.3692571852431983E+00  -2.3657073279958936E+00  -2.3621440391196886E+00
  -2.3585673482013965E+00  -2.3549772859981650E+00  -2.3513738844055410E+00
  -2.3477571765068932E+00  -2.3441271965319919E+00  -2.3404839798844650E+00
  -2.3368275631599276E+00  -2.3331579841211445E+00  -2.3294752817125062E+00
  -2.3257794960896883E+00  -2.3220706685768207E+00  -2.3183488417090601E+00
  -2.3146140592080333E+00  -2.3108663660180540E+00  -2.3071058082690366E+00
  -2.3033324332965610E+00  -2.2995462896664143E+00  -2.2957474271302614E+00
  -2.2919358966678320E+00  -2.2881117504547590E+00  -2.2842750419024314E+00
  -2.2804258256184400E+00  -2.2765641574206574E+00  -2.2726900943611090E+00
  -2.2688036946835037E+00  -2.2649050178446388E+00  -2.2609941245279943E+00
  -2.2570710766051785E+00  -2.2531359371639321E+00  -2.2491887704866791E+00
  -2.2452296420707087E+00  -2.2412586185972594E+00  -2.2372757679356772E+00
  -2.2332811591651214E+00  -2.2292748625290666E+00  -2.2252569494495584E+00
  -2.2212274925421092E+00  -2.2171865655672258E+00  -2.2131342434589230E+00
  -2.2090706022963951E+00  -2.2049957193210501E+00  -2.2009096728990438E+00
  -2.1968125425257328E+00  -2.1927044088383782E+00  -2.1885853535677637E+00
  -2.1844554595493673E+00  -2.1803148107293131E+00  -2.1761634921170270E+00
  -2.1720015898051246E+00  -2.1678291909350982E+00  -2.1636463837145894E+00
  -2.1594532573707999E+00  -2.1552499021506315E+00  -2.1510364093284267E+00
  -2.1468128711547285E+00  -2.1425793808597500E+00  -2.1383360326541911E+00
  -2.1340829216779538E+00  -2.1298201440149649E+00  -2.1255477966532217E+00
  -2.1212659774928730E+00  -2.1169747853032312E+00  -2.1126743197079034E+00
  -2.1083646811932080E+00  -2.1040459710467472E+00  -2.0997182913689505E+00
  -2.0953817450321406E+00  -2.0910364356827924E+00  -2.0866824676919293E+00
  -2.0823199461431923E+00  -2.0779489768292136E+00  -2.0735696661952048E+00
  -2.0691821213294372E+00  -2.0647864499560447E+00  -2.0603827603738170E+00
  -2.0559711614638032E+00  -2.0515517626334256E+00  -2.0471246738251692E+00
  -2.0426900054512842E+00  -2.0382478683846648E+00  -2.0337983739414858E+00
  -2.0293416338240950E+00  -2.0248777601081587E+00  -2.0204068652228271E+00
  -2.0159290618915242E+00  -2.0114444631263408E+00  -2.0069531821784357E+00
  -2.0024553325259467E+00  -1.9979510278181198E+00  -1.9934403818516997E+00
  -1.9889235085513444E+00  -1.9844005219087655E+00  -1.9798715359638284E+00
  -1.9753366647768944E+00  -1.9707960223718815E+00  -1.9662497227198024E+00
  -1.9616978796859208E+00  -1.9571406070160178E+00  -1.9525780182728130E+00
  -1.9480102268103203E+00  -1.9434373457493948E+00  -1.9388594879128560E+00
  -1.9342767658101567E+00  -1.9296892915801818E+00  -1.9250971769776590E+00
  -1.9205005333045126E+00  -1.9158994713852115E+00  -1.9112941015396718E+00
  -1.9066845335177274E+00  -1.9020708764732781E+00  -1.8974532389357448E+00
  -1.8928317287447436E+00  -1.8882064530329763E+00  -1.8835775181699184E+00
  -1.8789450297413595E+00  -1.8743090924883345E+00  -1.8696698102773341E+00
  -1.8650272860735058E+00  -1.8603816218773412E+00  -1.8557329186999993E+00
  -1.8510812765326554E+00  -1.8464267942895674E+00  -1.8417695697844483E+00
  -1.8371096996854999E+00  -1.8324472794913589E+00  -1.8277824034785219E+00
  -1.8231151646716433E+00  -1.8184456548240484E+00  -1.8137739643596538E+00
  -1.8091001823523341E+00  -1.8044243965043056E+00  -1.7997466930919583E+00
  -1.7950671569563967E+00  -1.7903858714594754E+00  -1.7857029184758277E+00
  -1.7810183783428366E+00  -1.7763323298510012E+00  -1.7716448502238180E+00
  -1.7669560150817452E+00  -1.7622658984366599E+00  -1.7575745726605967E+00
  -1.7528821084879362E+00  -1.7481885749799719E+00  -1.7434940395246961E+00
  -1.7387985678317452E+00  -1.7341022239121344E+00  -1.7294050700782653E+00
  -1.7247071669521288E+00  -1.7200085734462713E+00  -1.7153093467836313E+00
  -1.7106095424921666E+00  -1.7059092144264092E+00  -1.7012084147670254E+00
  -1.6965071940411820E+00  -1.6918056011517801E+00  -1.6871036833846547E+00
  -1.6824014864435810E+00  -1.6776990544874171E+00  -1.6729964301517564E+00
  -1.6682936545999669E+00  -1.6635907675579609E+00  -1.6588878073749882E+00
  -1.6541848110627879E+00  -1.6494818143608232E+00  -1.6447788518053796E+00
  -1.6400759567865995E+00  -1.6353731616274634E+00  -1.6306704976713147E+00
  -1.6259679953526860E+00  -1.6212656843012998E+00  -1.6165635934296285E+00
  -1.6118617510480793E+00  -1.6071601849632835E+00  -1.6024589225983237E+00
  -1.5977579911240158E+00  -1.5930574175747554E+00  -1.5883572289971395E+00
  -1.5836574525846876E+00  -1.5789581158391774E+00  -1.5742592467178227E+00
  -1.5695608738029256E+00  -1.5648630264800656E+00  -1.5601657351081855E+00
  -1.5554690312114701E+00  -1.5507729476794669E+00  -1.5460775189586691E+00
  -1.5413827812708285E+00  -1.5366887728238827E+00  -1.5319955340427116E+00
  -1.5273031077930928E+00  -1.5226115396221234E+00  -1.5179208780094078E+00
  -1.5132311746079870E+00  -1.5085424845096347E+00  -1.5038548665093374E+00
  -1.4991683833697014E+00  -1.4944831021018459E+00  -1.4897990942411856E+00
  -1.4851164361382994E+00  -1.4804352092412616E+00  -1.4757555003918388E+00
  -1.4710774021232955E+00  -1.4664010129534568E+00  -1.4617264376869763E+00
  -1.4570537877179646E+00  -1.4523831813262338E+00  -1.4477147439808542E+00
  -1.4430486086358074E+00  -1.4383849160288495E+00  -1.4337238149695022E+00
  -1.4290654626281734E+00  -1.4244100248183267E+00  -1.4197576762673936E+00
  -1.4151086008849749E+00  -1.4104629920162384E+00  -1.4058210526885713E+00
  -1.4011829958410322E+00  -1.3965490445423376E+00  -1.3919194322058317E+00
  -1.3872944027166205E+00  -1.3826742107112846E+00  -1.3780591216038236E+00
  -1.3734494117729563E+00  -1.3688453686454789E+00  -1.3642472907700840E+00
  -1.3596554878622964E+00  -1.3550702808212716E+00  -1.3504920017148923E+00
  -1.3459209937313181E+00  -1.3413576110981740E+00  -1.3368022189640651E+00
  -1.3322551932414470E+00  -1.3277169204133363E+00  -1.3231877972955681E+00
  -1.3186682307601125E+00  -1.3141586374107059E+00  -1.3096594432190283E+00
  -1.3051710831115206E+00  -1.3006940005077121E+00  -1.2962286468171726E+00
  -1.2917754808833586E+00  -1.2873349683774582E+00  -1.2829075811512578E+00
  -1.2784937965315557E+00  -1.2740940965747742E+00  -1.2697089672650106E+00
  -1.2653388976744311E+00  -1.2609843790703297E+00  -1.2566459039775109E+00
  -1.2523239652053859E+00  -1.2480190548232784E+00  -1.2437316631069755E+00
  -1.2394622774397657E+00  -1.2352113811910876E+00  -1.2309794525589992E+00
  -1.2267669633850902E+00  -1.2225743779577509E+00  -1.2184021517917556E+00
  -1.2142507303927395E+00  -1.2101205480299055E+00  -1.2060120264914436E+00
  -1.2019255738612611E+00  -1.1978615832940063E+00  -1.1938204318251224E+00
  -1.1898024791982631E+00  -1.1858080667245314E+00  -1.1818375161988126E+00
  -1.1778911288543139E+00  -1.1739691843777795E+00  -1.1700719400046531E+00
  -1.1661996296764880E+00  -1.1623524632993043E+00  -1.1585306260806663E+00
  -1.1547342779936809E+00  -1.1509635533357108E+00  -1.1472185604152099E+00
  -1.1434993813789631E+00  -1.1398060721693140E+00  -1.1361386626270464E+00
  -1.1324971567650377E+00  -1.1288815331860700E+00  -1.1252917456816485E+00
  -1.1217277239935928E+00  -1.1181893747658904E+00  -1.1146765826655838E+00
  -1.1111892116840900E+00  -1.1077271066333974E+00  -1.1042900948034116E+00
  -1.1008779878059707E+00  -1.0974905835758859E+00  -1.0941276685425916E+00
  -1.0907890199343893E+00  -1.0874744082131522E+00  -1.0841835996263911E+00
  -1.0809163588346502E+00  -1.0776724515862655E+00  -1.0744516474326689E+00
  -1.0712537223939658E+00  -1.0680784615750110E+00  -1.0649256616315830E+00
  -1.0617951330642281E+00  -1.0586867022233906E+00  -1.0556002129594466E+00
  -1.0525355278228885E+00  -1.0494925286807568E+00  -1.0464711166241776E+00
  -1.0434712110366946E+00  -1.0404927476176933E+00  -1.0375356752021456E+00
  -1.0345999511301136E+00  -1.0316855349494320E+00  -1.0287923801433414E+00
  -1.0259204235914570E+00  -1.0230695724201817E+00  -1.0202396878403968E+00
  -1.0174305655502187E+00  -1.0146419122516965E+00  -1.0118733177303629E+00
  -1.0091242219765613E+00  -1.0063938767146223E+00  -1.0036813007406518E+00
  -1.0009852283655258E+00  -9.9830405029603864E-01  -9.9563574627720997E-01
  -9.9297780880204656E-01  -9.9032715729745269E-01  -9.8768004223407235E-01
  -9.8503193880198237E-01  -9.8237742993106503E-01  -9.7971007875834049E-01
  -9.7702229102260463E-01  -9.7430516828916580E-01  -9.7154835358202130E-01
  -9.6873987174048770E-01  -9.6586596770743094E-01  -9.6291094713296743E-01
  -9.5985702491557601E-01  -9.5668418888717977E-01  -9.5337008749434504E-01
  -9.4988995228964779E-01  -9.4621656811327792E-01  -9.4232030600110228E-01
  -9.3816923612736358E-01  -9.3372934027286192E-01  -9.2896484525464529E-01
  -9.2383870043415328E-01  -9.1831322338513721E-01  -9.1235093798535882E-01
  -9.0591562801198111E-01  -8.9897362651709567E-01  -8.9149535611660458E-01
  -8.8345712719058878E-01  -8.7484318908834713E-01  -8.6564801271527514E-01
  -8.5587876035015908E-01  -8.4555786925682719E-01  -8.3472563887398821E-01
  -8.2344266717299852E-01  -8.1179193154313589E-01  -7.9988025685865571E-01
  -7.8783886491415001E-01  -7.7582266602968097E-01  -7.6400795024029000E-01
  -7.5258818069748623E-01  -7.4176770407646342E-01  -7.3175338524802236E-01
  -7.2274444520902348E-01  -7.1492110919074003E-01  -7.0843300496901773E-01
  -7.0338851319197770E-01  -6.9984637636613289E-01  -6.9781075210790777E-01
  -6.9723052767210547E-01  -6.9800314440420375E-01  -6.9998252499757774E-01
  -7.0299010280225138E-01  -7.0682755663877628E-01  -7.1128973617006697E-01
  -7.1617642076608978E-01  -7.2130191700634150E-01  -7.2650195670355211E-01
  -7.3163779976910714E-01  -7.3659779537502423E-01  -7.4129687516440812E-01
  -7.4567454470810079E-01  -7.4969193057875805E-01  -7.5332836563358052E-01
  -7.5657788860785025E-01  -7.5944592230219266E-01  -7.6194629380654055E-01
  -7.6409867890890182E-01  -7.6592649308858951E-01  -7.6745521132043826E-01
  -7.6871107518969883E-01  -7.6972013409844930E-01  -7.7050756430710565E-01
  -7.7109721175767798E-01  -7.7151130994794537E-01  -7.7177033093699410E-01
  -7.7189293450928809E-01  -7.7189598731197295E-01  -7.7179462969251444E-01
  -7.7160237316475788E-01  -7.7133121566072960E-01  -7.7099176513660816E-01
  -7.7059336489861741E-01  -7.7014421604293259E-01  -7.6965149401798538E-01
  -7.6912145753969519E-01  -7.6855954888356959E-01  -7.6797048525793510E-01
  -7.6735834130593417E-01  -7.6672662313557660E-01  -7.6607833439011663E-01
  -7.6541603496787902E-01  -7.6474189307971419E-01  -7.6405773129196108E-01
  -7.6336506717977748E-01  -7.6266514922288320E-01  -7.6195898846468635E-01
  -7.6124738646783452E-01  -7.6053095998438502E-01  -7.5981016277366298E-01
  -7.5908530491113957E-01  -7.5835656988010602E-01  -7.5762402974942833E-01
  -7.5688765865818319E-01  -7.5614734479454115E-01  -7.5540290108014629E-01
  -7.5465407467734313E-01  -7.5390055548110801E-01  -7.5314198367347507E-01
  -7.5237795646796879E-01  -7.5160803412415722E-01  -7.5083174526908503E-01
  -7.5004859164704529E-01  -7.4925805229520348E-01  -7.4845958724246964E-01
  -7.4765264072277171E-01  -7.4683664399044092E-01  -7.4601101774446932E-01
  -7.4517517418447632E-01  -7.4432851874738237E-01  -7.4347045155485936E-01
  -7.4260036855094502E-01  -7.4171766241618486E-01  -7.4082172322695050E-01
  -7.3991193891848894E-01  -7.3898769553466448E-01  -7.3804837731641448E-01
  -7.3709336664366232E-01  -7.3612204381074697E-01  -7.3513378670888552E-01
  -7.3412797040389155E-01  -7.3310396660729882E-01  -7.3206114310858961E-01
  -7.3099886313387086E-01  -7.2991648469197101E-01  -7.2881335987759321E-01
  -7.2768883419314090E-01  -7.2654224588957583E-01  -7.2537292531611863E-01
  -7.2418019433673553E-01  -7.2296336582002385E-01  -7.2172174317708548E-01
  -7.2045462002990435E-01  -7.1916127996588175E-01  -7.1784099644831334E-01
  -7.1649303283203314E-01  -7.1511664256259577E-01  -7.1371106955301189E-01
  -7.1227554870887444E-01  -7.1080930668528119E-01  -7.0931156284746211E-01
  -7.0778153042514347E-01  -7.0621841793085316E-01  -7.0462143078671413E-01
  -7.0298977322077350E-01  -7.0132265038273001E-01  -6.9961927072866026E-01
  -6.9787884866646022E-01  -6.9610060741726065E-01  -6.9428378215602815E-01
  -6.9242762336456165E-01  -6.9053140043803896E-01  -6.8859440547131001E-01
  -6.8661595726777547E-01  -6.8459540553009912E-01  -6.8253213517929623E-01
  -6.8042557082515476E-01  -6.7827518134372566E-01  -6.7608048449248481E-01
  -6.7384105159473506E-01  -6.7155651219405643E-01  -6.6922655869688519E-01
  -6.6685095089681690E-01  -6.6442952040304515E-01  -6.6196217490427989E-01
  -6.5944890219517427E-01  -6.5688977398163750E-01  -6.5428494938708914E-01
  -6.5163467810832232E-01  -6.4893930322538840E-01  -6.4619926358751867E-01
  -6.4341509578290013E-01  -6.4058743561400500E-01  -6.3771701911137624E-01
  -6.3480468303313875E-01  -6.3185136482771831E-01  -6.2885810208251647E-01
  -6.2582603143817128E-01  -6.2275638695087199E-01  -6.1965049795218319E-01
  -6.1650978637542131E-01  -6.1333576360333431E-01  -6.1013002681978967E-01
  -6.0689425492703863E-01  -6.0363020404738676E-01  -6.0033970261735592E-01
  -5.9702464615857498E-01  -5.9368699171621642E-01  -5.9032875204518565E-01
  -5.8695198954715144E-01  -5.8355881003483223E-01  -5.8015135635011705E-01
  -5.7673180186691142E-01  -5.7330234394243051E-01  -5.6986519734375551E-01
  -5.6642258767926934E-01  -5.6297674489002603E-01  -5.5952989681568344E-01
  -5.5608426288078372E-01  -5.5264204791158389E-01  -5.4920543612787298E-01
  -5.4577658531912032E-01  -5.4235762122360753E-01  -5.3895063213573335E-01
  -5.3555766374766611E-01  -5.3218071423306035E-01  -5.2882172963113805E-01
  -5.2548259927385643E-01  -5.2216515201670710E-01  -5.1887115197770628E-01
  -5.1560229515929012E-01  -5.1236020605323107E-01  -5.0914643456418562E-01
  -5.0596245318516508E-01  -5.0280965442072867E-01  -4.9968934845487606E-01
  -4.9660276105115680E-01  -4.9355103168280995E-01  -4.9053521187894689E-01
  -4.8755626378588157E-01  -4.8461505892880702E-01  -4.8171237716706533E-01
  -4.7884890584144446E-01  -4.7602523909562022E-01  -4.7324187737434648E-01
  -4.7049922708355046E-01  -4.6779760041533636E-01  -4.6513721532432512E-01
  -4.6251819565208052E-01  -4.5994057140392819E-01  -4.5740427916229631E-01
  -4.5490916263986059E-01  -4.5245497337747681E-01  -4.5004137156987201E-01
  -4.4766792703582187E-01  -4.4533412031599129E-01  -4.4303934391852012E-01
  -4.4078290369489342E-01  -4.3856402035645248E-01  -4.3638183114079715E-01
  -4.3423539161554914E-01  -4.3212367763222626E-01  -4.3004558743632021E-01
  -4.2799994392457819E-01  -4.2598549706754146E-01  -4.2400092648525228E-01
  -4.2204484419609684E-01  -4.2011579752613465E-01  -4.1821227218647261E-01
  -4.1633269552876162E-01  -4.1447543996488712E-01  -4.1263882655924777E-01
  -4.1082112879813193E-01  -4.0902057652018015E-01  -4.0723536001858285E-01
  -4.0546363430161442E-01  -4.0370352351234112E-01  -4.0195312549696022E-01
  -4.0021051650939338E-01  -3.9847375605429947E-01  -3.9674089184334660E-01
  -3.9500996485580647E-01  -3.9327901450562214E-01  -3.9154608382003131E-01
  -3.8980922491446418E-01  -3.8806650360917594E-01  -3.8631600741041777E-01
  -3.8455584195758918E-01  -3.8278416517117991E-01  -3.8099904479937724E-01
  -3.7919904306809621E-01  -3.7738191616848499E-01  -3.7554633593814901E-01
  -3.7369056452040189E-01  -3.7181303786688125E-01  -3.6991224987086052E-01
  -3.6798676331194602E-01  -3.6603521373576564E-01  -3.6405631316056697E-01
  -3.6204885349960947E-01  -3.6001170967703583E-01  -3.5794384243066318E-01
  -3.5584430077921408E-01  -3.5371222415193604E-01  -3.5154684416322751E-01
  -3.4934748602865795E-01  -3.4711356962215822E-01  -3.4484461016572154E-01
  -3.4254021855715450E-01  -3.4020010133993517E-01  -3.3782406031691092E-01
  -3.3541199182076381E-01  -3.3296388564702650E-01  -3.3047982366770157E-01
  -3.2795997813388073E-01  -3.2540460968707136E-01  -3.2281406509749327E-01
  -3.2018877474458513E-01  -3.1752924986377540E-01  -3.1483607957699400E-01
  -3.1210992773190549E-01  -3.0935152956858403E-01  -3.0656168823712482E-01
  -3.0374127119008321E-01  -3.0089120646867823E-01  -2.9801247890631793E-01
  -2.9510612627151961E-01  -2.9217323536792394E-01  -2.8921493811433935E-01
  -2.8623240762081742E-01  -2.8322685428129946E-01  -2.8019952189717123E-01
  -2.7715168384848082E-01  -2.7408463932780774E-01  -2.7099970964848907E-01
  -2.6789823463992590E-01  -2.6478156914124201E-01  -2.6165107960128869E-01
  -2.5850814079456585E-01  -2.5535413265905860E-01  -2.5219043726293078E-01
  -2.4901843590368644E-01  -2.4583950634427371E-01  -2.4265502018889393E-01
  -2.3946634039985537E-01  -2.3627481895649696E-01  -2.3308179465697088E-01
  -2.2988859106113133E-01  -2.2669651457435386E-01  -2.2350685266946102E-01
  -2.2032087224524682E-01  -2.1713981811781369E-01  -2.1396491164191614E-01
  -2.1079734945864972E-01  -2.0763830236514969E-01  -2.0448891430237034E-01
  -2.0135030145632579E-01  -1.9822355146833373E-01  -1.9510972274936725E-01
  -1.9200984389376644E-01  -1.8892491318762722E-01  -1.8585589820673026E-01
  -1.8280373549931420E-01  -1.7976933034898729E-01  -1.7675355661277553E-01
  -1.7375725662992461E-01  -1.7078124119666621E-01  -1.6782628960273449E-01
  -1.6489314972510119E-01  -1.6198253817488475E-01  -1.5909514049341023E-01
  -1.5623161139345423E-01  -1.5339257504200041E-01  -1.5057862538101008E-01
  -1.4779032648266713E-01  -1.4502821293600368E-01  -1.4229279026172367E-01
  -1.3958453535241308E-01  -1.3690389693529265E-01  -1.3425129605496652E-01
  -1.3162712657374692E-01  -1.2903175568720368E-01  -1.2646552445282974E-01
  -1.2392874832983296E-01  -1.2142171772813307E-01  -1.1894469856487497E-01
  -1.1649793282680762E-01  -1.1408163913706755E-01  -1.1169601332495592E-01
  -1.0934122899745352E-01  -1.0701743811132061E-01  -1.0472477154468102E-01
  -1.0246333966714594E-01  -1.0023323290756578E-01  -9.8034522318626846E-02
  -9.5867260137543736E-02  -9.3731480342202245E-02  -9.1627199202173812E-02
  -8.9554415824059000E-02  -8.7513112690710285E-02  -8.5503256193923002E-02
  -8.3524797160228301E-02  -8.1577671369486071E-02  -7.9661800066003444E-02
  -7.7777090461957687E-02  -7.5923436232927299E-02  -7.4100718005376043E-02
  -7.2308803835969007E-02  -7.0547549682614716E-02  -6.8816799867166836E-02
  -6.7116387529735769E-02  -6.5446135074578526E-02  -6.3805854607562010E-02
  -6.2195348365200860E-02  -6.0614409135299439E-02  -5.9062820669225503E-02
  -5.7540358085866446E-02  -5.6046788267324787E-02  -5.4581870246417495E-02
  -5.3145355586051171E-02  -5.1736988750555289E-02  -5.0356507469056622E-02
  -4.9003643090983269E-02  -4.7678120933793040E-02  -4.6379660623019743E-02
  -4.5107976424737017E-02  -4.3862777570536325E-02  -4.2643768575120956E-02
  -4.1450649546615093E-02  -4.0283116489689484E-02  -3.9140861601600914E-02
  -3.8023573561248129E-02  -3.6930937811338979E-02  -3.5862636833767010E-02
  -3.4818350418291892E-02  -3.3797755924618783E-02  -3.2800528537965966E-02
  -3.1826341518212023E-02  -3.0874866442710876E-02  -2.9945773442859282E-02
  -2.9038731434501568E-02  -2.8153408342252630E-02  -2.7289471317820335E-02
  -2.6446586952403584E-02  -2.5624421483242614E-02  -2.4822640994396343E-02
  -2.4040911611817619E-02  -2.3278899692797297E-02  -2.2536272009847029E-02
  -2.1812695929086728E-02  -2.1107839583202344E-02  -2.0421372039041059E-02
  -1.9752963459903319E-02  -1.9102285262597881E-02  -1.8469010269317042E-02
  -1.7852812854396216E-02  -1.7253369086013947E-02  -1.6670356862893556E-02
  -1.6103456046063277E-02  -1.5552348585732657E-02  -1.5016718643343698E-02
  -1.4496252708851506E-02  -1.3990639713294400E-02  -1.3499571136707701E-02
  -1.3022741111438583E-02  -1.2559846520920534E-02  -1.2110587093961258E-02
  -1.1674665494604754E-02  -1.1251787407623098E-02  -1.0841661619695924E-02
  -1.0444000096336529E-02  -1.0058518054623666E-02  -9.6849340317975985E-03
  -9.3229699497811829E-03  -8.9723511756864306E-03  -8.6328065783668126E-03
  -8.3040685810786222E-03  -7.9858732103135401E-03  -7.6779601408647749E-03
  -7.3800727371924777E-03  -7.0919580911519555E-03  -6.8133670561504088E-03
  -6.5440542778001081E-03  -6.2837782211320106E-03  -6.0323011944398899E-03
  -5.7893893698244088E-03  -5.5548128005024127E-03  -5.3283454349554206E-03
  -5.1097651279869523E-03  -4.8988536487565067E-03  -4.6953966858681506E-03
  -4.4991838495805330E-03  -4.3100086712142245E-03  -4.1276685998289540E-03
  -3.9519649962449542E-03  -3.7827031244826457E-03  -3.6196921406950432E-03
  -3.4627450796678870E-03  -3.3116788389642659E-03  -3.1663141607868846E-03
  -3.0264756116351031E-03  -2.8919915598324270E-03  -2.7626941510008897E-03
  -2.6384192815555141E-03  -2.5190065702995019E-03  -2.4042993281903281E-03
  -2.2941445263565600E-03  -2.1883927624390628E-03  -2.0868982253301766E-03
  -1.9895186583904156E-03  -1.8961153212088916E-03  -1.8065529499901116E-03
  -1.7206997166343274E-03  -1.6384271865862669E-03  -1.5596102755245679E-03
  -1.4841272049631743E-03  -1.4118594568337589E-03  -1.3426917271215659E-03
  -1.2765118786217922E-03  -1.2132108928853140E-03  -1.1526828214197958E-03
  -1.0948247362140913E-03  -1.0395366796493938E-03  -9.8672161386099489E-04
  -9.3628536961485047E-04  -8.8813659475914816E-04  -8.4218670231095514E-04
  -7.9834981823805702E-04  -7.5654272899369334E-04  -7.1668482885880384E-04
  -6.7869806714894400E-04  -6.4250689533772653E-04  -6.0803821415004176E-04
  -5.7522132067490709E-04  -5.4398785554774214E-04  -5.1427175024834713E-04
  -4.8600917456255628E-04  -4.5913848425094018E-04  -4.3360016896680547E-04
  -4.0933680046644887E-04  -3.8629298115076859E-04  -3.6441529297518566E-04
  -3.4365224676663421E-04  -3.2395423198035408E-04  -3.0527346693170440E-04
  -2.8756394953279046E-04  -2.7078140856611746E-04  -2.5488325552115894E-04
  -2.3982853702390365E-04  -2.2557788788081395E-04  -2.1209348476519007E-04
  -1.9933900056493486E-04  -1.8727955941253492E-04  -1.7588169241862295E-04
  -1.6511329412512371E-04  -1.5494357969322140E-04  -1.4534304292935647E-04
  -1.3628341462872698E-04  -1.2773762260563973E-04  -1.1967975158102125E-04
  -1.1208500433614911E-04  -1.0492966357573090E-04  -9.8191054597202704E-05
  -9.1847508774534116E-05  -8.5878327876545853E-05  -8.0263749133343670E-05
  -7.4984911864605985E-05  -7.0023820988980348E-05   1.5983879357963460E-11
   1.5983970307614844E-11   1.5984043489524068E-11   1.5984102253157207E-11
   1.5984149331400074E-11   1.5984186951169693E-11   1.5984216924724280E-11
   1.5984240724938705E-11   1.5984259547281061E-11   1.5984274360771872E-11
   1.5984285949828111E-11   1.5984294948577209E-11   1.5984301868957638E-11
   1.5984307123699553E-11   1.5984311045095192E-11   1.5984313900303916E-11
   1.5984315903822114E-11   1.5984317227621849E-11   1.5984317986850492E-11
   1.5984318386581500E-11   1.5984318386581661E-11   1.5984318386581664E-11
   1.5984318386581509E-11   1.5984318386581635E-11
     </PP_GIPAW_VLOCAL_AE>
     <PP_GIPAW_VLOCAL_PS size="2291">
  -3.3830287145919378E-04  -3.4033268865759503E-04  -3.4237468475863700E-04
  -3.4442893283572563E-04  -3.4649550640070695E-04  -3.4857447940649816E-04
  -3.5066592624973360E-04  -3.5276992177342713E-04  -3.5488654126965063E-04
  -3.5701586048222835E-04  -3.5915795560944713E-04  -3.6131290330678292E-04
  -3.6348078068964521E-04  -3.6566166533613513E-04  -3.6785563528982210E-04
  -3.7006276906253712E-04  -3.7228314563718184E-04  -3.7451684447055488E-04
  -3.7676394549619572E-04  -3.7902452912724467E-04  -3.8129867625932070E-04
  -3.8358646827341624E-04  -3.8588798703880932E-04  -3.8820331491599351E-04
  -3.9053253475962506E-04  -3.9287572992148783E-04  -3.9523298425347627E-04
  -3.9760438211059563E-04  -3.9999000835398148E-04  -4.0238994835393516E-04
  -4.0480428799297998E-04  -4.0723311366893435E-04  -4.0967651229800272E-04
  -4.1213457131788654E-04  -4.1460737869091369E-04  -4.1709502290718529E-04
  -4.1959759298774264E-04  -4.2211517848775331E-04  -4.2464786949971534E-04
  -4.2719575665668127E-04  -4.2975893113550196E-04  -4.3233748466008884E-04
  -4.3493150950469635E-04  -4.3754109849722443E-04  -4.4016634502253965E-04
  -4.4280734302581758E-04  -4.4546418701590457E-04  -4.4813697206869948E-04
  -4.5082579383055622E-04  -4.5353074852170637E-04  -4.5625193293970283E-04
  -4.5898944446288276E-04  -4.6174338105385365E-04  -4.6451384126299758E-04
  -4.6730092423199885E-04  -4.7010472969739105E-04  -4.7292535799412720E-04
  -4.7576291005916861E-04  -4.7861748743509893E-04  -4.8148919227375604E-04
  -4.8437812733988841E-04  -4.8728439601483311E-04  -4.9020810230021410E-04
  -4.9314935082166481E-04  -4.9610824683257184E-04  -4.9908489621784181E-04
  -5.0207940549768990E-04  -5.0509188183145231E-04  -5.0812243302142054E-04
  -5.1117116751669934E-04  -5.1423819441708733E-04  -5.1732362347698150E-04
  -5.2042756510930458E-04  -5.2355013038945608E-04  -5.2669143105928758E-04
  -5.2985157953110054E-04  -5.3303068889167047E-04  -5.3622887290629188E-04
  -5.3944624602285135E-04  -5.4268292337592103E-04  -5.4593902079088080E-04
  -5.4921465478806135E-04  -5.5250994258691495E-04  -5.5582500211020982E-04
  -5.5915995198825032E-04  -5.6251491156312117E-04  -5.6589000089295931E-04
  -5.6928534075624993E-04  -5.7270105265614735E-04  -5.7613725882482507E-04
  -5.7959408222784834E-04  -5.8307164656857472E-04  -5.8657007629258164E-04
  -5.9008949659211836E-04  -5.9363003341058728E-04  -5.9719181344705012E-04
  -6.0077496416076175E-04  -6.0437961377573233E-04  -6.0800589128531422E-04
  -6.1165392645681988E-04  -6.1532384983616377E-04  -6.1901579275253494E-04
  -6.2272988732309709E-04  -6.2646626645771516E-04  -6.3022506386371281E-04
  -6.3400641405065618E-04  -6.3781045233516753E-04  -6.4163731484576819E-04
  -6.4548713852774899E-04  -6.4936006114807161E-04  -6.5325622130029814E-04
  -6.5717575840955084E-04  -6.6111881273750157E-04  -6.6508552538739087E-04
  -6.6907603830907727E-04  -6.7309049430411727E-04  -6.7712903703087549E-04
  -6.8119181100966518E-04  -6.8527896162792030E-04  -6.8939063514539755E-04
  -6.9352697869941120E-04  -6.9768814031009754E-04  -7.0187426888571264E-04
  -7.0608551422796019E-04  -7.1032202703735260E-04  -7.1458395891860422E-04
  -7.1887146238605528E-04  -7.2318469086913098E-04  -7.2752379871783123E-04
  -7.3188894120825433E-04  -7.3628027454815338E-04  -7.4069795588252614E-04
  -7.4514214329923908E-04  -7.4961299583468336E-04  -7.5411067347946675E-04
  -7.5863533718413913E-04  -7.6318714886495121E-04  -7.6776627140965009E-04
  -7.7237286868330629E-04  -7.7700710553418016E-04  -7.8166914779961773E-04
  -7.8635916231198854E-04  -7.9107731690465318E-04  -7.9582378041797089E-04
  -8.0059872270534026E-04  -8.0540231463927902E-04  -8.1023472811753638E-04
  -8.1509613606924687E-04  -8.1998671246111623E-04  -8.2490663230364903E-04
  -8.2985607165741017E-04  -8.3483520763932503E-04  -8.3984421842901865E-04
  -8.4488328327519014E-04  -8.4995258250202942E-04  -8.5505229751566794E-04
  -8.6018261081067127E-04  -8.6534370597657014E-04  -8.7053576770442908E-04
  -8.7575898179345624E-04  -8.8101353515765185E-04  -8.8629961583249742E-04
  -8.9161741298168405E-04  -8.9696711690388287E-04  -9.0234891903955168E-04
  -9.0776301197779009E-04  -9.1320958946322747E-04  -9.1868884640295811E-04
  -9.2420097887351590E-04  -9.2974618412788943E-04  -9.3532466060258269E-04
  -9.4093660792471531E-04  -9.4658222691916376E-04  -9.5226171961575277E-04
  -9.5797528925648044E-04  -9.6372314030279411E-04  -9.6950547844290515E-04
  -9.7532251059915002E-04  -9.8117444493539541E-04  -9.8706149086448753E-04
  -9.9298385905574453E-04  -9.9894176144249710E-04  -1.0049354112296701E-03
  -1.0109650229014153E-03  -1.0170308122287837E-03  -1.0231329962774472E-03
  -1.0292717934154690E-03  -1.0354474233211148E-03  -1.0416601069907143E-03
  -1.0479100667465718E-03  -1.0541975262449187E-03  -1.0605227104839195E-03
  -1.0668858458117230E-03  -1.0732871599345600E-03  -1.0797268819248945E-03
  -1.0862052422296188E-03  -1.0927224726783021E-03  -1.0992788064914845E-03
  -1.1058744782890229E-03  -1.1125097240984884E-03  -1.1191847813636117E-03
  -1.1258998889527780E-03  -1.1326552871675783E-03  -1.1394512177514058E-03
  -1.1462879238981079E-03  -1.1531656502606880E-03  -1.1600846429600613E-03
  -1.1670451495938612E-03  -1.1740474192453003E-03  -1.1810917024920827E-03
  -1.1881782514153725E-03  -1.1953073196088121E-03  -1.2024791621875993E-03
  -1.2096940357976147E-03  -1.2169521986246067E-03  -1.2242539104034297E-03
  -1.2315994324273410E-03  -1.2389890275573457E-03  -1.2464229602316109E-03
  -1.2539014964749204E-03  -1.2614249039082002E-03  -1.2689934517580929E-03
  -1.2766074108665896E-03  -1.2842670537007272E-03  -1.2919726543623342E-03
  -1.2997244885978403E-03  -1.3075228338081447E-03  -1.3153679690585411E-03
  -1.3232601750887065E-03  -1.3311997343227445E-03  -1.3391869308792929E-03
  -1.3472220505816922E-03  -1.3553053809682092E-03  -1.3634372113023329E-03
  -1.3716178325831204E-03  -1.3798475375556103E-03  -1.3881266207213022E-03
  -1.3964553783486924E-03  -1.4048341084838740E-03  -1.4132631109612089E-03
  -1.4217426874140468E-03  -1.4302731412855305E-03  -1.4388547778394450E-03
  -1.4474879041711463E-03  -1.4561728292185490E-03  -1.4649098637731816E-03
  -1.4736993204913079E-03  -1.4825415139051157E-03  -1.4914367604339691E-03
  -1.5003853783957374E-03  -1.5093876880181798E-03  -1.5184440114504078E-03
  -1.5275546727744110E-03  -1.5367199980166569E-03  -1.5459403151597544E-03
  -1.5552159541541934E-03  -1.5645472469301477E-03  -1.5739345274093568E-03
  -1.5833781315170742E-03  -1.5928783971940854E-03  -1.6024356644088042E-03
  -1.6120502751694366E-03  -1.6217225735362184E-03  -1.6314529056337306E-03
  -1.6412416196632785E-03  -1.6510890659153586E-03  -1.6609955967821896E-03
  -1.6709615667703250E-03  -1.6809873325133340E-03  -1.6910732527845669E-03
  -1.7012196885099961E-03  -1.7114270027811253E-03  -1.7216955608679837E-03
  -1.7320257302322010E-03  -1.7424178805401536E-03  -1.7528723836761910E-03
  -1.7633896137559462E-03  -1.7739699471397213E-03  -1.7846137624459562E-03
  -1.7953214405647757E-03  -1.8060933646716210E-03  -1.8169299202409582E-03
  -1.8278314950600763E-03  -1.8387984792429572E-03  -1.8498312652442434E-03
  -1.8609302478732744E-03  -1.8720958243082183E-03  -1.8833283941102844E-03
  -1.8946283592380182E-03  -1.9059961240616874E-03  -1.9174320953777490E-03
  -1.9289366824234108E-03  -1.9405102968912691E-03  -1.9521533529440458E-03
  -1.9638662672294043E-03  -1.9756494588948634E-03  -1.9875033496027888E-03
  -1.9994283635454912E-03  -2.0114249274603944E-03  -2.0234934706453139E-03
  -2.0356344249738163E-03  -2.0478482249106696E-03  -2.0601353075273949E-03
  -2.0724961125179026E-03  -2.0849310822142271E-03  -2.0974406616023570E-03
  -2.1100252983381534E-03  -2.1226854427633737E-03  -2.1354215479217819E-03
  -2.1482340695753613E-03  -2.1611234662206255E-03  -2.1740901991050207E-03
  -2.1871347322434337E-03  -2.2002575324347939E-03  -2.2134590692787751E-03
  -2.2267398151926058E-03  -2.2401002454279680E-03  -2.2535408380879997E-03
  -2.2670620741444131E-03  -2.2806644374546957E-03  -2.2943484147794290E-03
  -2.3081144957997042E-03  -2.3219631731346457E-03  -2.3358949423590357E-03
  -2.3499103020210520E-03  -2.3640097536600990E-03  -2.3781938018247648E-03
  -2.3924629540908664E-03  -2.4068177210796161E-03  -2.4212586164758915E-03
  -2.4357861570466193E-03  -2.4504008626592610E-03  -2.4651032563004181E-03
  -2.4798938640945480E-03  -2.4947732153227870E-03  -2.5097418424418856E-03
  -2.5248002811032724E-03  -2.5399490701722067E-03  -2.5551887517470712E-03
  -2.5705198711787631E-03  -2.5859429770902121E-03  -2.6014586213960081E-03
  -2.6170673593221500E-03  -2.6327697494259142E-03  -2.6485663536158421E-03
  -2.6644577371718425E-03  -2.6804444687654212E-03  -2.6965271204800255E-03
  -2.7127062678315192E-03  -2.7289824897887734E-03  -2.7453563687943831E-03
  -2.7618284907855060E-03  -2.7783994452148311E-03  -2.7950698250716680E-03
  -2.8118402269031659E-03  -2.8287112508356593E-03  -2.8456835005961421E-03
  -2.8627575835338658E-03  -2.8799341106420747E-03  -2.8972136965798698E-03
  -2.9145969596941954E-03  -2.9320845220419710E-03  -2.9496770094123467E-03
  -2.9673750513490920E-03  -2.9851792811731257E-03  -3.0030903360051737E-03
  -3.0211088567885665E-03  -3.0392354883121775E-03  -3.0574708792334812E-03
  -3.0758156821017756E-03  -3.0942705533815291E-03  -3.1128361534758595E-03
  -3.1315131467501765E-03  -3.1503022015559436E-03  -3.1692039902545947E-03
  -3.1882191892415924E-03  -3.2073484789706293E-03  -3.2265925439779776E-03
  -3.2459520729069750E-03  -3.2654277585326664E-03  -3.2850202977866014E-03
  -3.3047303917817551E-03  -3.3245587458376230E-03  -3.3445060695054592E-03
  -3.3645730765936559E-03  -3.3847604851932889E-03  -3.4050690177038086E-03
  -3.4254994008588915E-03  -3.4460523657524368E-03  -3.4667286478647229E-03
  -3.4875289870887295E-03  -3.5084541277566107E-03  -3.5295048186663154E-03
  -3.5506818131083935E-03  -3.5719858688929356E-03  -3.5934177483766929E-03
  -3.6149782184903543E-03  -3.6366680507659826E-03  -3.6584880213646207E-03
  -3.6804389111040649E-03  -3.7025215054867933E-03  -3.7247365947280803E-03
  -3.7470849737842584E-03  -3.7695674423811705E-03  -3.7921848050427782E-03
  -3.8149378711199423E-03  -3.8378274548193881E-03  -3.8608543752328287E-03
  -3.8840194563662766E-03  -3.9073235271695215E-03  -3.9307674215657866E-03
  -3.9543519784815658E-03  -3.9780780418766440E-03  -4.0019464607742809E-03
  -4.0259580892915998E-03  -4.0501137866701346E-03  -4.0744144173065740E-03
  -4.0988608507836911E-03  -4.1234539619014535E-03  -4.1481946307083154E-03
  -4.1730837425327117E-03  -4.1981221880147196E-03  -4.2233108631379371E-03
  -4.2486506692615304E-03  -4.2741425131524813E-03  -4.2997873070180319E-03
  -4.3255859685383093E-03  -4.3515394208991712E-03  -4.3776485928252269E-03
  -4.4039144186130618E-03  -4.4303378381646613E-03  -4.4569197970210483E-03
  -4.4836612463960866E-03  -4.5105631432105385E-03  -4.5376264501262812E-03
  -4.5648521355807501E-03  -4.5922411738215886E-03  -4.6197945449414964E-03
  -4.6475132349132918E-03  -4.6753982356251928E-03  -4.7034505449162966E-03
  -4.7316711666122698E-03  -4.7600611105612679E-03  -4.7886213926700612E-03
  -4.8173530349403786E-03  -4.8462570655054592E-03  -4.8753345186668441E-03
  -4.9045864349313772E-03  -4.9340138610484106E-03  -4.9636178500472722E-03
  -4.9933994612749279E-03  -5.0233597604338650E-03  -5.0534998196202427E-03
  -5.0838207173622106E-03  -5.1143235386585219E-03  -5.1450093750173235E-03
  -5.1758793244952132E-03  -5.2069344917365220E-03  -5.2381759880128108E-03
  -5.2696049312626518E-03  -5.3012224461315904E-03  -5.3330296640123967E-03
  -5.3650277230855260E-03  -5.3972177683598282E-03  -5.4296009517135211E-03
  -5.4621784319353875E-03  -5.4949513747662151E-03  -5.5279209529405099E-03
  -5.5610883462284440E-03  -5.5944547414780391E-03  -5.6280213326576449E-03
  -5.6617893208986301E-03  -5.6957599145383529E-03  -5.7299343291633796E-03
  -5.7643137876529620E-03  -5.7988995202227864E-03  -5.8336927644689774E-03
  -5.8686947654123540E-03  -5.9039067755429706E-03  -5.9393300548649100E-03
  -5.9749658709413664E-03  -6.0108154989399597E-03  -6.0468802216783668E-03
  -6.0831613296701940E-03  -6.1196601211711251E-03  -6.1563779022253831E-03
  -6.1933159867124197E-03  -6.2304756963939148E-03  -6.2678583609610530E-03
  -6.3054653180820803E-03  -6.3432979134501414E-03  -6.3813575008314196E-03
  -6.4196454421135505E-03  -6.4581631073543236E-03  -6.4969118748306872E-03
  -6.5358931310880450E-03  -6.5751082709898379E-03  -6.6145586977674371E-03
  -6.6542458230703233E-03  -6.6941710670165803E-03  -6.7343358582436629E-03
  -6.7747416339595150E-03  -6.8153898399939562E-03  -6.8562819308503851E-03
  -6.8974193697578018E-03  -6.9388036287231329E-03  -6.9804361885838651E-03
  -7.0223185390610211E-03  -7.0644521788124142E-03  -7.1068386154862547E-03
  -7.1494793657750581E-03  -7.1923759554698751E-03  -7.2355299195148749E-03
  -7.2789428020622101E-03  -7.3226161565272474E-03  -7.3665515456441209E-03
  -7.4107505415215913E-03  -7.4552147256992923E-03  -7.4999456892042579E-03
  -7.5449450326078278E-03  -7.5902143660828781E-03  -7.6357553094613794E-03
  -7.6815694922923458E-03  -7.7276585539000804E-03  -7.7740241434427941E-03
  -7.8206679199715797E-03  -7.8675915524897260E-03  -7.9147967200123796E-03
  -7.9622851116266189E-03  -8.0100584265517874E-03  -8.0581183742003005E-03
  -8.1064666742387340E-03  -8.1551050566492991E-03  -8.2040352617917308E-03
  -8.2532590404654684E-03  -8.3027781539722831E-03  -8.3525943741792202E-03
  -8.4027094835819605E-03  -8.4531252753685393E-03  -8.5038435534834644E-03
  -8.5548661326921918E-03  -8.6061948386460044E-03  -8.6578315079472931E-03
  -8.7097779882151886E-03  -8.7620361381516246E-03  -8.8146078276077847E-03
  -8.8674949376509344E-03  -8.9206993606316745E-03  -8.9742230002515556E-03
  -9.0280677716311746E-03  -9.0822356013785972E-03  -9.1367284276582302E-03
  -9.1915482002601114E-03  -9.2466968806695724E-03  -9.3021764421373967E-03
  -9.3579888697503024E-03  -9.4141361605019191E-03  -9.4706203233641678E-03
  -9.5274433793590321E-03  -9.5846073616308331E-03  -9.6421143155188647E-03
  -9.6999662986305014E-03  -9.7581653809147451E-03  -9.8167136447361806E-03
  -9.8756131849494170E-03  -9.9348661089739346E-03  -9.9944745368694098E-03
  -1.0054440601411476E-02  -1.0114766448167941E-02  -1.0175454235575433E-02
  -1.0236506135016579E-02  -1.0297924330897551E-02  -1.0359711020726151E-02
  -1.0421868415190327E-02  -1.0484398738237147E-02  -1.0547304227152292E-02
  -1.0610587132639975E-02  -1.0674249718903364E-02  -1.0738294263725490E-02
  -1.0802723058550607E-02  -1.0867538408566078E-02  -1.0932742632784737E-02
  -1.0998338064127719E-02  -1.1064327049507827E-02  -1.1130711949913368E-02
  -1.1197495140492481E-02  -1.1264679010638009E-02  -1.1332265964072856E-02
  -1.1400258418935830E-02  -1.1468658807868055E-02  -1.1537469578099818E-02
  -1.1606693191538042E-02  -1.1676332124854180E-02  -1.1746388869572686E-02
  -1.1816865932160041E-02  -1.1887765834114215E-02  -1.1959091112054763E-02
  -1.2030844317813417E-02  -1.2103028018525218E-02  -1.2175644796720203E-02
  -1.2248697250415623E-02  -1.2322187993208713E-02  -1.2396119654370054E-02
  -1.2470494878937441E-02  -1.2545316327810356E-02  -1.2620586677844957E-02
  -1.2696308621949658E-02  -1.2772484869181320E-02  -1.2849118144841945E-02
  -1.2926211190575985E-02  -1.3003766764468244E-02  -1.3081787641142316E-02
  -1.3160276611859685E-02  -1.3239236484619327E-02  -1.3318670084257989E-02
  -1.3398580252551031E-02  -1.3478969848313814E-02  -1.3559841747503833E-02
  -1.3641198843323307E-02  -1.3723044046322474E-02  -1.3805380284503477E-02
  -1.3888210503424876E-02  -1.3971537666306738E-02  -1.4055364754136450E-02
  -1.4139694765775059E-02  -1.4224530718064312E-02  -1.4309875645934323E-02
  -1.4395732602511835E-02  -1.4482104659229214E-02  -1.4568994905934015E-02
  -1.4656406450999245E-02  -1.4744342421434253E-02  -1.4832805962996300E-02
  -1.4921800240302813E-02  -1.5011328436944258E-02  -1.5101393755597717E-02
  -1.5191999418141157E-02  -1.5283148665768350E-02  -1.5374844759104460E-02
  -1.5467090978322389E-02  -1.5559890623259753E-02  -1.5653247013536580E-02
  -1.5747163488673700E-02  -1.5841643408211824E-02  -1.5936690151831391E-02
  -1.6032307119473073E-02  -1.6128497731458993E-02  -1.6225265428614726E-02
  -1.6322613672391913E-02  -1.6420545944991774E-02  -1.6519065749489172E-02
  -1.6618176609957552E-02  -1.6717882071594567E-02  -1.6818185700848403E-02
  -1.6919091085544995E-02  -1.7020601835015862E-02  -1.7122721580226746E-02
  -1.7225453973907057E-02  -1.7328802690680031E-02  -1.7432771427193683E-02
  -1.7537363902252554E-02  -1.7642583856950222E-02  -1.7748435054802610E-02
  -1.7854921281882073E-02  -1.7962046346952264E-02  -1.8069814081603897E-02
  -1.8178228340391192E-02  -1.8287293000969186E-02  -1.8397011964231887E-02
  -1.8507389154451187E-02  -1.8618428519416641E-02  -1.8730134030576127E-02
  -1.8842509683177161E-02  -1.8955559496409240E-02  -1.9069287513547025E-02
  -1.9183697802094151E-02  -1.9298794453928205E-02  -1.9414581585446282E-02
  -1.9531063337711600E-02  -1.9648243876600923E-02  -1.9766127392952759E-02
  -1.9884718102716643E-02  -2.0004020247103096E-02  -2.0124038092734567E-02
  -2.0244775931797368E-02  -2.0366238082194246E-02  -2.0488428887698178E-02
  -2.0611352718106782E-02  -2.0735013969397861E-02  -2.0859417063885780E-02
  -2.0984566450378717E-02  -2.1110466604337005E-02  -2.1237122028032178E-02
  -2.1364537250707152E-02  -2.1492716828737362E-02  -2.1621665345792587E-02
  -2.1751387413000159E-02  -2.1881887669108702E-02  -2.2013170780653114E-02
  -2.2145241442120531E-02  -2.2278104376117002E-02  -2.2411764333535551E-02
  -2.2546226093724791E-02  -2.2681494464658988E-02  -2.2817574283108721E-02
  -2.2954470414812755E-02  -2.3092187754651047E-02  -2.3230731226818426E-02
  -2.3370105784999651E-02  -2.3510316412545258E-02  -2.3651368122648547E-02
  -2.3793265958523685E-02  -2.3936014993584651E-02  -2.4079620331625459E-02
  -2.4224087107001302E-02  -2.4369420484810743E-02  -2.4515625661079204E-02
  -2.4662707862943174E-02  -2.4810672348835879E-02  -2.4959524408673706E-02
  -2.5109269364043969E-02  -2.5259912568393755E-02  -2.5411459407219613E-02
  -2.5563915298258837E-02  -2.5717285691681357E-02  -2.5871576070283103E-02
  -2.6026791949680470E-02  -2.6182938878505691E-02  -2.6340022438603748E-02
  -2.6498048245229954E-02  -2.6657021947249150E-02  -2.6816949227335858E-02
  -2.6977835802175491E-02  -2.7139687422667064E-02  -2.7302509874126753E-02
  -2.7466308976492864E-02  -2.7631090584532003E-02  -2.7796860588046240E-02
  -2.7963624912081809E-02  -2.8131389517138717E-02  -2.8300160399381775E-02
  -2.8469943590852871E-02  -2.8640745159684289E-02  -2.8812571210313546E-02
  -2.8985427883699216E-02  -2.9159321357538317E-02  -2.9334257846484576E-02
  -2.9510243602368372E-02  -2.9687284914417723E-02  -2.9865388109480560E-02
  -3.0044559552248495E-02  -3.0224805645481592E-02  -3.0406132830234689E-02
  -3.0588547586085049E-02  -3.0772056431361047E-02  -3.0956665923372612E-02
  -3.1142382658642626E-02  -3.1329213273139880E-02  -3.1517164442513429E-02
  -3.1706242882328019E-02  -3.1896455348301343E-02  -3.2087808636542141E-02
  -3.2280309583790127E-02  -3.2473965067657186E-02  -3.2668782006869651E-02
  -3.2864767361512635E-02  -3.3061928133275034E-02  -3.3260271365696550E-02
  -3.3459804144415885E-02  -3.3660533597420224E-02  -3.3862466895296629E-02
  -3.4065611251484308E-02  -3.4269973922528729E-02  -3.4475562208337245E-02
  -3.4682383452435767E-02  -3.4890445042227540E-02  -3.5099754409252726E-02
  -3.5310319029450081E-02  -3.5522146423419852E-02  -3.5735244156688113E-02
  -3.5949619839972934E-02  -3.6165281129451651E-02  -3.6382235727030164E-02
  -3.6600491380613338E-02  -3.6820055884377173E-02  -3.7040937079042734E-02
  -3.7263142852151057E-02  -3.7486681138340416E-02  -3.7711559919624452E-02
  -3.7937787225672336E-02  -3.8165371134090555E-02  -3.8394319770705919E-02
  -3.8624641309850695E-02  -3.8856343974648926E-02  -3.9089436037304630E-02
  -3.9323925819391745E-02  -3.9559821692145308E-02  -3.9797132076754893E-02
  -4.0035865444659084E-02  -4.0276030317842056E-02  -4.0517635269131901E-02
  -4.0760688922500149E-02  -4.1005199953363616E-02  -4.1251177088887425E-02
  -4.1498629108290150E-02  -4.1747564843150571E-02  -4.1997993177715888E-02
  -4.2249923049212240E-02  -4.2503363448156389E-02  -4.2758323418669579E-02
  -4.3014812058793116E-02  -4.3272838520805372E-02  -4.3532412011541205E-02
  -4.3793541792712526E-02  -4.4056237181231153E-02  -4.4320507549533240E-02
  -4.4586362325905599E-02  -4.4853810994813920E-02  -4.5122863097232610E-02
  -4.5393528230976893E-02  -4.5665816051036222E-02  -4.5939736269910061E-02
  -4.6215298657945367E-02  -4.6492513043675694E-02  -4.6771389314162817E-02
  -4.7051937415339480E-02  -4.7334167352354649E-02  -4.7618089189920630E-02
  -4.7903713052661612E-02  -4.8191049125464992E-02  -4.8480107653833725E-02
  -4.8770898944241317E-02  -4.9063433364488672E-02  -4.9357721344062418E-02
  -4.9653773374496057E-02  -4.9951600009732290E-02  -5.0251211866487795E-02
  -5.0552619624620064E-02  -5.0855834027495876E-02  -5.1160865882362364E-02
  -5.1467726060719435E-02  -5.1776425498694829E-02  -5.2086975197421004E-02
  -5.2399386223413932E-02  -5.2713669708954365E-02  -5.3029836852470646E-02
  -5.3347898918924115E-02  -5.3667867240196419E-02  -5.3989753215478713E-02
  -5.4313568311663452E-02  -5.4639324063737803E-02  -5.4967032075179480E-02
  -5.5296704018354854E-02  -5.5628351634918756E-02  -5.5961986736216995E-02
  -5.6297621203690411E-02  -5.6635266989281896E-02  -5.6974936115844747E-02
  -5.7316640677553911E-02  -5.7660392840319083E-02  -5.8006204842200010E-02
  -5.8354088993824285E-02  -5.8704057678806897E-02  -5.9056123354172520E-02
  -5.9410298550779811E-02  -5.9766595873747802E-02  -6.0125028002885064E-02
  -6.0485607693120454E-02  -6.0848347774936584E-02  -6.1213261154805763E-02
  -6.1580360815627580E-02  -6.1949659817169392E-02  -6.2321171296508854E-02
  -6.2694908468478680E-02  -6.3070884626114154E-02  -6.3449113141102367E-02
  -6.3829607464234384E-02  -6.4212381125859253E-02  -6.4597447736340699E-02
  -6.4984820986516229E-02  -6.5374514648158133E-02  -6.5766542574437731E-02
  -6.6160918700390828E-02  -6.6557657043386675E-02  -6.6956771703598830E-02
  -6.7358276864478123E-02  -6.7762186793228929E-02  -6.8168515841286734E-02
  -6.8577278444799050E-02  -6.8988489125108396E-02  -6.9402162489237543E-02
  -6.9818313230377821E-02  -7.0236956128378797E-02  -7.0658106050241865E-02
  -7.1081777950614849E-02  -7.1507986872290111E-02  -7.1936747946704807E-02
  -7.2368076394443273E-02  -7.2801987525742615E-02  -7.3238496741000095E-02
  -7.3677619531283364E-02  -7.4119371478843468E-02  -7.4563768257629517E-02
  -7.5010825633806955E-02  -7.5460559466277347E-02  -7.5912985707201328E-02
  -7.6368120402524137E-02  -7.6825979692502863E-02  -7.7286579812237452E-02
  -7.7749937092203070E-02  -7.8216067958785801E-02  -7.8684988934820815E-02
  -7.9156716640132380E-02  -7.9631267792077604E-02  -8.0108659206091531E-02
  -8.0588907796235593E-02  -8.1072030575748633E-02  -8.1558044657599596E-02
  -8.2046967255044179E-02  -8.2538815682182742E-02  -8.3033607354521519E-02
  -8.3531359789536533E-02  -8.4032090607239082E-02  -8.4535817530745391E-02
  -8.5042558386847114E-02  -8.5552331106585680E-02  -8.6065153725828875E-02
  -8.6581044385849376E-02  -8.7100021333907096E-02  -8.7622102923832573E-02
  -8.8147307616614379E-02  -8.8675653980988256E-02  -8.9207160694028731E-02
  -8.9741846541744191E-02  -9.0279730419673188E-02  -9.0820831333484758E-02
  -9.1365168399579963E-02  -9.1912760845696814E-02  -9.2463628011517807E-02
  -9.3017789349279206E-02  -9.3575264424383839E-02  -9.4136072916015723E-02
  -9.4700234617757381E-02  -9.5267769438210290E-02  -9.5838697401616532E-02
  -9.6413038648484731E-02  -9.6990813436216530E-02  -9.7572042139737164E-02
  -9.8156745252128114E-02  -9.8744943385261255E-02  -9.9336657270437292E-02
  -9.9931907759024691E-02  -1.0053071582310259E-01  -1.0113310255610562E-01
  -1.0173908917347070E-01  -1.0234869701328721E-01  -1.0296194753694854E-01
  -1.0357886232980680E-01  -1.0419946310182991E-01  -1.0482377168826017E-01
  -1.0545181005027662E-01  -1.0608360027565826E-01  -1.0671916457945053E-01
  -1.0735852530463440E-01  -1.0800170492279608E-01  -1.0864872603480154E-01
  -1.0929961137147065E-01  -1.0995438379425555E-01  -1.1061306629592058E-01
  -1.1127568200122366E-01  -1.1194225416760159E-01  -1.1261280618585522E-01
  -1.1328736158083930E-01  -1.1396594401215210E-01  -1.1464857727482868E-01
  -1.1533528530003599E-01  -1.1602609215576902E-01  -1.1672102204755043E-01
  -1.1742009931913110E-01  -1.1812334845319285E-01  -1.1883079407205382E-01
  -1.1954246093837446E-01  -1.2025837395586680E-01  -1.2097855817000434E-01
  -1.2170303876873448E-01  -1.2243184108319292E-01  -1.2316499058841876E-01
  -1.2390251290407264E-01  -1.2464443379515543E-01  -1.2539077917272917E-01
  -1.2614157509463983E-01  -1.2689684776624055E-01  -1.2765662354111809E-01
  -1.2842092892181875E-01  -1.2918979056057739E-01  -1.2996323526004741E-01
  -1.3074128997403120E-01  -1.3152398180821342E-01  -1.3231133802089387E-01
  -1.3310338602372279E-01  -1.3390015338243730E-01  -1.3470166781759760E-01
  -1.3550795720532635E-01  -1.3631904957804683E-01  -1.3713497312522352E-01
  -1.3795575619410358E-01  -1.3878142729045762E-01  -1.3961201507932366E-01
  -1.4044754838574913E-01  -1.4128805619553594E-01  -1.4213356765598428E-01
  -1.4298411207663794E-01  -1.4383971893003009E-01  -1.4470041785242835E-01
  -1.4556623864458210E-01  -1.4643721127246787E-01  -1.4731336586803606E-01
  -1.4819473272995845E-01  -1.4908134232437342E-01  -1.4997322528563400E-01
  -1.5087041241705287E-01  -1.5177293469164926E-01  -1.5268082325289511E-01
  -1.5359410941545926E-01  -1.5451282466595367E-01  -1.5543700066367666E-01
  -1.5636666924135695E-01  -1.5730186240589678E-01  -1.5824261233911274E-01
  -1.5918895139847811E-01  -1.6014091211786116E-01  -1.6109852720826487E-01
  -1.6206182955856402E-01  -1.6303085223624034E-01  -1.6400562848811792E-01
  -1.6498619174109513E-01  -1.6597257560287557E-01  -1.6696481386269782E-01
  -1.6796294049206154E-01  -1.6896698964545315E-01  -1.6997699566106786E-01
  -1.7099299306153004E-01  -1.7201501655461163E-01  -1.7304310103394582E-01
  -1.7407728157974084E-01  -1.7511759345948774E-01  -1.7616407212866783E-01
  -1.7721675323145494E-01  -1.7827567260141480E-01  -1.7934086626220194E-01
  -1.8041237042825070E-01  -1.8149022150546498E-01  -1.8257445609190134E-01
  -1.8366511097844990E-01  -1.8476222314951013E-01  -1.8586582978366131E-01
  -1.8697596825433027E-01  -1.8809267613045147E-01  -1.8921599117712426E-01
  -1.9034595135626414E-01  -1.9148259482724764E-01  -1.9262595994755302E-01
  -1.9377608527339368E-01  -1.9493300956034623E-01  -1.9609677176397222E-01
  -1.9726741104043277E-01  -1.9844496674709761E-01  -1.9962947844314527E-01
  -2.0082098589015762E-01  -2.0201952905270701E-01  -2.0322514809893394E-01
  -2.0443788340111949E-01  -2.0565777553624665E-01  -2.0688486528655523E-01
  -2.0811919364008832E-01  -2.0936080179122699E-01  -2.1060973114122003E-01
  -2.1186602329869975E-01  -2.1312972008019107E-01  -2.1440086351060988E-01
  -2.1567949582374973E-01  -2.1696565946275986E-01  -2.1825939708060985E-01
  -2.1956075154054602E-01  -2.2086976591653279E-01  -2.2218648349368497E-01
  -2.2351094776868674E-01  -2.2484320245019707E-01  -2.2618329145924435E-01
  -2.2753125892960557E-01  -2.2888714920817294E-01  -2.3025100685530722E-01
  -2.3162287664517481E-01  -2.3300280356607214E-01  -2.3439083282073303E-01
  -2.3578700982662204E-01  -2.3719138021621197E-01  -2.3860398983724260E-01
  -2.4002488475296699E-01  -2.4145411124237620E-01  -2.4289171580040897E-01
  -2.4433774513814380E-01  -2.4579224618297016E-01  -2.4725526607874360E-01
  -2.4872685218591917E-01  -2.5020705208166616E-01  -2.5169591355996329E-01
  -2.5319348463167030E-01  -2.5469981352458221E-01  -2.5621494868345790E-01
  -2.5773893877002868E-01  -2.5927183266298409E-01  -2.6081367945793210E-01
  -2.6236452846733910E-01  -2.6392442922044035E-01  -2.6549343146313048E-01
  -2.6707158515782570E-01  -2.6865894048329891E-01  -2.7025554783449085E-01
  -2.7186145782229060E-01  -2.7347672127329148E-01  -2.7510138922951455E-01
  -2.7673551294810533E-01  -2.7837914390100083E-01  -2.8003233377456266E-01
  -2.8169513446918409E-01  -2.8336759809885892E-01  -2.8504977699072265E-01
  -2.8674172368455864E-01  -2.8844349093226773E-01  -2.9015513169730756E-01
  -2.9187669915409142E-01  -2.9360824668735375E-01  -2.9534982789147840E-01
  -2.9710149656978602E-01  -2.9886330673378680E-01  -3.0063531260238913E-01
  -3.0241756860107105E-01  -3.0421012936101005E-01  -3.0601304971816767E-01
  -3.0782638471233514E-01  -3.0965018958613172E-01  -3.1148451978395891E-01
  -3.1332943095091137E-01  -3.1518497893163611E-01  -3.1705121976914863E-01
  -3.1892820970359653E-01  -3.2081600517097658E-01  -3.2271466280179850E-01
  -3.2462423941969759E-01  -3.2654479203999587E-01  -3.2847637786820638E-01
  -3.3041905429848512E-01  -3.3237287891202588E-01  -3.3433790947539643E-01
  -3.3631420393881928E-01  -3.3830182043438917E-01  -3.4030081727423173E-01
  -3.4231125294860160E-01  -3.4433318612391312E-01  -3.4636667564071105E-01
  -3.4841178051157140E-01  -3.5046855991893916E-01  -3.5253707321289374E-01
  -3.5461737990884734E-01  -3.5670953968517222E-01  -3.5881361238075238E-01
  -3.6092965799246624E-01  -3.6305773667258923E-01  -3.6519790872612184E-01
  -3.6735023460804134E-01  -3.6951477492046819E-01  -3.7169159040975774E-01
  -3.7388074196350352E-01  -3.7608229060745885E-01  -3.7829629750237359E-01
  -3.8052282394073889E-01  -3.8276193134344760E-01  -3.8501368125635943E-01
  -3.8727813534677558E-01  -3.8955535539981972E-01  -3.9184540331471907E-01
  -3.9414834110099251E-01  -3.9646423087453325E-01  -3.9879313485359358E-01
  -4.0113511535466584E-01  -4.0349023478825463E-01  -4.0585855565454632E-01
  -4.0824014053896324E-01  -4.1063505210761125E-01  -4.1304335310261270E-01
  -4.1546510633732031E-01  -4.1790037469141883E-01  -4.2034922110590167E-01
  -4.2281170857792760E-01  -4.2528790015555584E-01  -4.2777785893234749E-01
  -4.3028164804184665E-01  -4.3279933065192344E-01  -4.3533096995898818E-01
  -4.3787662918206549E-01  -4.4043637155673449E-01  -4.4301026032892549E-01
  -4.4559835874857262E-01  -4.4820073006312422E-01  -4.5081743751090031E-01
  -4.5344854431430159E-01  -4.5609411367286690E-01  -4.5875420875616740E-01
  -4.6142889269655041E-01  -4.6411822858171370E-01  -4.6682227944711940E-01
  -4.6954110826824025E-01  -4.7227477795263256E-01  -4.7502335133183898E-01
  -4.7778689115311213E-01  -4.8056546007096085E-01  -4.8335912063851361E-01
  -4.8616793529869412E-01  -4.8899196637521214E-01  -4.9183127606335786E-01
  -4.9468592642060366E-01  -4.9755597935700857E-01  -5.0044149662541582E-01
  -5.0334253981145194E-01  -5.0625917032331069E-01  -5.0919144938132799E-01
  -5.1213943800734318E-01  -5.1510319701383478E-01  -5.1808278699284049E-01
  -5.2107826830464454E-01  -5.2408970106623753E-01  -5.2711714513954400E-01
  -5.3016066011940632E-01  -5.3322030532133402E-01  -5.3629613976899959E-01
  -5.3938822218149274E-01  -5.4249661096031265E-01  -5.4562136417610840E-01
  -5.4876253955515619E-01  -5.5192019446556684E-01  -5.5509438590322924E-01
  -5.5828517047747150E-01  -5.6149260439644910E-01  -5.6471674345224887E-01
  -5.6795764300570029E-01  -5.7121535797090150E-01  -5.7448994279944166E-01
  -5.7778145146432625E-01  -5.8108993744359594E-01  -5.8441545370363113E-01
  -5.8775805268214498E-01  -5.9111778627085310E-01  -5.9449470579781860E-01
  -5.9788886200946945E-01  -6.0130030505227461E-01  -6.0472908445408835E-01
  -6.0817524910513932E-01  -6.1163884723867801E-01  -6.1511992641126434E-01
  -6.1861853348269347E-01  -6.2213471459555847E-01  -6.2566851515443866E-01
  -6.2921997980471178E-01  -6.3278915241098754E-01  -6.3637607603514534E-01
  -6.3998079291398779E-01  -6.4360334443648748E-01  -6.4724377112063380E-01
  -6.5090211258986941E-01  -6.5457840754910745E-01  -6.5827269376033137E-01
  -6.6198500801776183E-01  -6.6571538612259717E-01  -6.6946386285730675E-01
  -6.7323047195948504E-01  -6.7701524609525354E-01  -6.8081821683219967E-01
  -6.8463941461186273E-01  -6.8847886872173936E-01  -6.9233660726682078E-01
  -6.9621265714064784E-01  -7.0010704399587187E-01  -7.0401979221433186E-01
  -7.0795092487661992E-01  -7.1190046373114790E-01  -7.1586842916269966E-01
  -7.1985484016045975E-01  -7.2385971428552376E-01  -7.2788306763786936E-01
  -7.3192491482279243E-01  -7.3598526891680149E-01  -7.4006414143295252E-01
  -7.4416154228563669E-01  -7.4827747975479486E-01  -7.5241196044956671E-01
  -7.5656498927136517E-01  -7.6073656937635892E-01  -7.6492670213737735E-01
  -7.6913538710520835E-01  -7.7336262196930139E-01  -7.7760840251786034E-01
  -7.8187272259731777E-01  -7.8615557407119496E-01  -7.9045694677832656E-01
  -7.9477682849045794E-01  -7.9911520486920173E-01  -8.0347205942234423E-01
  -8.0784737345950797E-01  -8.1224112604714593E-01  -8.1665329396288422E-01
  -8.2108385164918440E-01  -8.2553277116633583E-01  -8.3000002214476998E-01
  -8.3448557173667870E-01  -8.3898938456695293E-01  -8.4351142268341173E-01
  -8.4805164550633794E-01  -8.5261000977730383E-01  -8.5718646950727873E-01
  -8.6178097592402969E-01  -8.6639347741878903E-01  -8.7102391949220015E-01
  -8.7567224469953664E-01  -8.8033839259517643E-01  -8.8502229967634649E-01
  -8.8972389932611529E-01  -8.9444312175564622E-01  -8.9917989394570008E-01
  -9.0393413958737745E-01  -9.0870577902211569E-01  -9.1349472918091701E-01
  -9.1830090352282401E-01  -9.2312421197263006E-01  -9.2796456085781853E-01
  -9.3282185284474728E-01  -9.3769598687405498E-01  -9.4258685809530662E-01
  -9.4749435780086899E-01  -9.5241837335901391E-01  -9.5735878814625974E-01
  -9.6231548147894153E-01  -9.6728832854401092E-01  -9.7227720032908416E-01
  -9.7728196355171748E-01  -9.8230248058791847E-01  -9.8733860939991847E-01
  -9.9239020346317519E-01  -9.9745711169263007E-01  -1.0025391783682307E+00
  -1.0076362430597039E+00  -1.0127481405506009E+00  -1.0178747007616114E+00
  -1.0230157486731706E+00  -1.0281711042473460E+00  -1.0333405823490147E+00
  -1.0385239926663705E+00  -1.0437211396307275E+00  -1.0489318223356576E+00
  -1.0541558344554778E+00  -1.0593929641630779E+00  -1.0646429940471249E+00
  -1.0699057010286344E+00  -1.0751808562769618E+00  -1.0804682251251863E+00
  -1.0857675669849285E+00  -1.0910786352606310E+00  -1.0964011772632931E+00
  -1.1017349341237035E+00  -1.1070796407051753E+00  -1.1124350255158344E+00
  -1.1178008106204504E+00  -1.1231767115518556E+00  -1.1285624372219865E+00
  -1.1339576898325587E+00  -1.1393621647854062E+00  -1.1447755505925437E+00
  -1.1501975287859425E+00  -1.1556277738270910E+00  -1.1610659530163481E+00
  -1.1665117264021623E+00  -1.1719647466901515E+00  -1.1774246591521169E+00
  -1.1828911015350325E+00  -1.1883637039700412E+00  -1.1938420888815018E+00
  -1.1993258708961683E+00  -1.2048146567525115E+00  -1.2103080452102621E+00
  -1.2158056269602164E+00  -1.2213069845343836E+00  -1.2268116922165069E+00
  -1.2323193159530352E+00  -1.2378294132646204E+00  -1.2433415331581874E+00
  -1.2488552160396509E+00  -1.2543699936273776E+00  -1.2598853888664252E+00
  -1.2654009158436754E+00  -1.2709160797039147E+00  -1.2764303765669724E+00
  -1.2819432934459816E+00  -1.2874543081668532E+00  -1.2929628892890823E+00
  -1.2984684960279524E+00  -1.3039705781782558E+00  -1.3094685760396205E+00
  -1.3149619203435765E+00  -1.3204500321824388E+00  -1.3259323229401367E+00
  -1.3314081942251232E+00  -1.3368770378054564E+00  -1.3423382355461957E+00
  -1.3477911593492520E+00  -1.3532351710958022E+00  -1.3586696225914263E+00
  -1.3640938555140980E+00  -1.3695072013651879E+00  -1.3749089814236211E+00
  -1.3802985067033378E+00  -1.3856750779142493E+00  -1.3910379854268182E+00
  -1.3963865092404479E+00  -1.4017199189558751E+00  -1.4070374737517117E+00
  -1.4123384223653499E+00  -1.4176220030784030E+00  -1.4228874437069023E+00
  -1.4281339615964159E+00  -1.4333607636223284E+00  -1.4385670461954863E+00
  -1.4437519952734150E+00  -1.4489147863773428E+00  -1.4540545846152679E+00
  -1.4591705447112855E+00  -1.4642618110414380E+00  -1.4693275176763119E+00
  -1.4743667884306690E+00  -1.4793787369203402E+00  -1.4843624666266519E+00
  -1.4893170709686927E+00  -1.4942416333836483E+00  -1.4991352274155199E+00
  -1.5039969168125247E+00  -1.5088257556334448E+00  -1.5136207883632653E+00
  -1.5183810500383725E+00  -1.5231055663816788E+00  -1.5277933539479474E+00
  -1.5324434202796733E+00  -1.5370547640738630E+00  -1.5416263753600308E+00
  -1.5461572356897810E+00  -1.5506463183383157E+00  -1.5550925885182456E+00
  -1.5594950036060524E+00  -1.5638525133815777E+00  -1.5681640602809357E+00
  -1.5724285796632043E+00  -1.5766450000912957E+00  -1.5808122436274143E+00
  -1.5849292261434673E+00  -1.5889948576468644E+00  -1.5930080426220845E+00
  -1.5969676803884489E+00  -1.6008726654744891E+00  -1.6047218880093375E+00
  -1.6085142341315739E+00  -1.6122485864159231E+00  -1.6159238243182519E+00
  -1.6195388246392832E+00  -1.6230924620074498E+00  -1.6265836093813204E+00
  -1.6300111385720151E+00  -1.6333739207860545E+00  -1.6366708271890420E+00
  -1.6399007294906072E+00  -1.6430625005510398E+00  -1.6461550150100048E+00
  -1.6491771499377561E+00  -1.6521277855092462E+00  -1.6550058057015220E+00
  -1.6578100990147870E+00  -1.6605395592174950E+00  -1.6631930861158546E+00
  -1.6657695863480615E+00  -1.6682679742036073E+00  -1.6706871724679753E+00
  -1.6730261132930142E+00  -1.6752837390932629E+00  -1.6774590034684784E+00
  -1.6795508721526002E+00  -1.6815583239893386E+00  -1.6834803519345569E+00
  -1.6853159640856021E+00  -1.6870641847376604E+00  -1.6887240554672174E+00
  -1.6902946362426450E+00  -1.6917750065618899E+00  -1.6931642666171909E+00
  -1.6944615384867123E+00  -1.6956659673529133E+00  -1.6967767227474164E+00
  -1.6977929998220738E+00  -1.6987140206458728E+00  -1.6995390355272246E+00
  -1.7002673243611299E+00  -1.7008981980006135E+00  -1.7014309996517285E+00
  -1.7018651062913568E+00  -1.7021999301068975E+00  -1.7024349199568651E+00
  -1.7025695628512634E+00  -1.7026033854505187E+00  -1.7025359555815864E+00
  -1.7023668837697412E+00  -1.7020958247843891E+00  -1.7017224791970895E+00
  -1.7012465949498230E+00  -1.7006679689313369E+00  -1.6999864485592431E+00
  -1.6992019333653274E+00  -1.6983143765813156E+00  -1.6973237867221453E+00
  -1.6962302291635203E+00  -1.6950338277103114E+00  -1.6937347661520765E+00
  -1.6923332898017185E+00  -1.6908297070129787E+00  -1.6892243906721833E+00
  -1.6875177796593088E+00  -1.6857103802730911E+00  -1.6838027676145491E+00
  -1.6817955869228953E+00  -1.6796895548573929E+00  -1.6774854607183147E+00
  -1.6751841675996764E+00  -1.6727866134659612E+00  -1.6702938121445323E+00
  -1.6677068542249112E+00  -1.6650269078555469E+00  -1.6622552194280771E+00
  -1.6593931141385170E+00  -1.6564419964141051E+00  -1.6534033501938827E+00
  -1.6502787390503464E+00  -1.6470698061387543E+00  -1.6437782739598659E+00
  -1.6404059439210414E+00  -1.6369546956797669E+00  -1.6334264862527135E+00
  -1.6298233488724596E+00  -1.6261473915729978E+00  -1.6224007954840451E+00
  -1.6185858128130257E+00  -1.6147047644924406E+00  -1.6107600374690318E+00
  -1.6067540816098751E+00  -1.6026894061990917E+00  -1.5985685759974892E+00
  -1.5943942068358357E+00  -1.5901689607109073E+00  -1.5858955403517694E+00
  -1.5815766832219396E+00  -1.5772151549212869E+00  -1.5728137419494890E+00
  -1.5683752437909111E+00  -1.5639024642785706E+00  -1.5593982021925796E+00
  -1.5548652410461770E+00  -1.5503063380099003E+00  -1.5457242119218715E+00
  -1.5411215303294830E+00  -1.5365008955048620E+00  -1.5318648293735231E+00
  -1.5272157572924523E+00  -1.5225559906106108E+00  -1.5178877079413555E+00
  -1.5132129350726591E+00  -1.5085335234372530E+00  -1.5038511270607955E+00
  -1.4991671779020246E+00  -1.4944828594944959E+00  -1.4897990787949145E+00
  -1.4851164361382985E+00  -1.4804352092412616E+00  -1.4757555003918388E+00
  -1.4710774021232955E+00  -1.4664010129534566E+00  -1.4617264376869763E+00
  -1.4570537877179646E+00  -1.4523831813262336E+00  -1.4477147439808540E+00
  -1.4430486086358079E+00  -1.4383849160288500E+00  -1.4337238149695024E+00
  -1.4290654626281734E+00  -1.4244100248183267E+00  -1.4197576762673931E+00
  -1.4151086008849751E+00  -1.4104629920162386E+00  -1.4058210526885713E+00
  -1.4011829958410322E+00  -1.3965490445423376E+00  -1.3919194322058317E+00
  -1.3872944027166205E+00  -1.3826742107112846E+00  -1.3780591216038236E+00
  -1.3734494117729561E+00  -1.3688453686454789E+00  -1.3642472907700840E+00
  -1.3596554878622964E+00  -1.3550702808212716E+00  -1.3504920017148923E+00
  -1.3459209937313181E+00  -1.3413576110981740E+00  -1.3368022189640649E+00
  -1.3322551932414470E+00  -1.3277169204133363E+00  -1.3231877972955679E+00
  -1.3186682307601125E+00  -1.3141586374107059E+00  -1.3096594432190281E+00
  -1.3051710831115209E+00  -1.3006940005077121E+00  -1.2962286468171726E+00
  -1.2917754808833586E+00  -1.2873349683774582E+00  -1.2829075811512578E+00
  -1.2784937965315557E+00  -1.2740940965747745E+00  -1.2697089672650106E+00
  -1.2653388976744311E+00  -1.2609843790703297E+00  -1.2566459039775109E+00
  -1.2523239652053859E+00  -1.2480190548232784E+00  -1.2437316631069755E+00
  -1.2394622774397657E+00  -1.2352113811910879E+00  -1.2309794525589992E+00
  -1.2267669633850904E+00  -1.2225743779577507E+00  -1.2184021517917556E+00
  -1.2142507303927397E+00  -1.2101205480299055E+00  -1.2060120264914436E+00
  -1.2019255738612609E+00  -1.1978615832940065E+00  -1.1938204318251224E+00
  -1.1898024791982629E+00  -1.1858080667245314E+00  -1.1818375161988124E+00
  -1.1778911288543141E+00  -1.1739691843777798E+00  -1.1700719400046533E+00
  -1.1661996296764880E+00  -1.1623524632993045E+00  -1.1585306260806663E+00
  -1.1547342779936811E+00  -1.1509635533357110E+00  -1.1472185604152099E+00
  -1.1434993813789631E+00  -1.1398060721693140E+00  -1.1361386626270464E+00
  -1.1324971567650375E+00  -1.1288815331860698E+00  -1.1252917456816485E+00
  -1.1217277239935930E+00  -1.1181893747658906E+00  -1.1146765826655838E+00
  -1.1111892116840900E+00  -1.1077271066333974E+00  -1.1042900948034120E+00
  -1.1008779878059709E+00  -1.0974905835758859E+00  -1.0941276685425914E+00
  -1.0907890199343893E+00  -1.0874744082131522E+00  -1.0841835996263909E+00
  -1.0809163588346502E+00  -1.0776724515862655E+00  -1.0744516474326689E+00
  -1.0712537223939658E+00  -1.0680784615750110E+00  -1.0649256616315832E+00
  -1.0617951330642283E+00  -1.0586867022233906E+00  -1.0556002129594464E+00
  -1.0525355278228885E+00  -1.0494925286807570E+00  -1.0464711166241776E+00
  -1.0434712110366944E+00  -1.0404927476176931E+00  -1.0375356752021456E+00
  -1.0345999511301136E+00  -1.0316855349494325E+00  -1.0287923801433412E+00
  -1.0259204235914572E+00  -1.0230695724201817E+00  -1.0202396878403968E+00
  -1.0174305655502187E+00  -1.0146419122516965E+00  -1.0118733177303627E+00
  -1.0091242219765608E+00  -1.0063938767146228E+00  -1.0036813007406522E+00
  -1.0009852283655261E+00  -9.9830405029603853E-01  -9.9563574627720985E-01
  -9.9297780880204645E-01  -9.9032715729745269E-01  -9.8768004223407235E-01
  -9.8503193880198237E-01  -9.8237742993106503E-01  -9.7971007875834060E-01
  -9.7702229102260463E-01  -9.7430516828916547E-01  -9.7154835358202130E-01
  -9.6873987174048759E-01  -9.6586596770743116E-01  -9.6291094713296776E-01
  -9.5985702491557601E-01  -9.5668418888717977E-01  -9.5337008749434482E-01
  -9.4988995228964779E-01  -9.4621656811327792E-01  -9.4232030600110228E-01
  -9.3816923612736380E-01  -9.3372934027286192E-01  -9.2896484525464551E-01
  -9.2383870043415328E-01  -9.1831322338513721E-01  -9.1235093798535882E-01
  -9.0591562801198111E-01  -8.9897362651709589E-01  -8.9149535611660458E-01
  -8.8345712719058855E-01  -8.7484318908834713E-01  -8.6564801271527503E-01
  -8.5587876035015908E-01  -8.4555786925682719E-01  -8.3472563887398843E-01
  -8.2344266717299830E-01  -8.1179193154313600E-01  -7.9988025685865571E-01
  -7.8783886491415023E-01  -7.7582266602968097E-01  -7.6400795024029000E-01
  -7.5258818069748623E-01  -7.4176770407646353E-01  -7.3175338524802236E-01
  -7.2274444520902348E-01  -7.1492110919073992E-01  -7.0843300496901795E-01
  -7.0338851319197770E-01  -6.9984637636613278E-01  -6.9781075210790755E-01
  -6.9723052767210547E-01  -6.9800314440420375E-01  -6.9998252499757774E-01
  -7.0299010280225138E-01  -7.0682755663877639E-01  -7.1128973617006674E-01
  -7.1617642076608978E-01  -7.2130191700634150E-01  -7.2650195670355211E-01
  -7.3163779976910737E-01  -7.3659779537502446E-01  -7.4129687516440823E-01
  -7.4567454470810091E-01  -7.4969193057875805E-01  -7.5332836563358030E-01
  -7.5657788860785047E-01  -7.5944592230219243E-01  -7.6194629380654033E-01
  -7.6409867890890182E-01  -7.6592649308858940E-01  -7.6745521132043826E-01
  -7.6871107518969894E-01  -7.6972013409844919E-01  -7.7050756430710565E-01
  -7.7109721175767820E-01  -7.7151130994794515E-01  -7.7177033093699388E-01
  -7.7189293450928809E-01  -7.7189598731197306E-01  -7.7179462969251467E-01
  -7.7160237316475788E-01  -7.7133121566072960E-01  -7.7099176513660805E-01
  -7.7059336489861774E-01  -7.7014421604293282E-01  -7.6965149401798527E-01
  -7.6912145753969519E-01  -7.6855954888356959E-01  -7.6797048525793488E-01
  -7.6735834130593439E-01  -7.6672662313557682E-01  -7.6607833439011652E-01
  -7.6541603496787902E-01  -7.6474189307971441E-01  -7.6405773129196108E-01
  -7.6336506717977748E-01  -7.6266514922288353E-01  -7.6195898846468613E-01
  -7.6124738646783463E-01  -7.6053095998438536E-01  -7.5981016277366309E-01
  -7.5908530491113935E-01  -7.5835656988010591E-01  -7.5762402974942855E-01
  -7.5688765865818353E-01  -7.5614734479454115E-01  -7.5540290108014663E-01
  -7.5465407467734336E-01  -7.5390055548110779E-01  -7.5314198367347507E-01
  -7.5237795646796879E-01  -7.5160803412415733E-01  -7.5083174526908469E-01
  -7.5004859164704540E-01  -7.4925805229520315E-01  -7.4845958724246953E-01
  -7.4765264072277160E-01  -7.4683664399044059E-01  -7.4601101774446910E-01
  -7.4517517418447599E-01  -7.4432851874738271E-01  -7.4347045155485947E-01
  -7.4260036855094502E-01  -7.4171766241618498E-01  -7.4082172322695050E-01
  -7.3991193891848916E-01  -7.3898769553466459E-01  -7.3804837731641448E-01
  -7.3709336664366265E-01  -7.3612204381074731E-01  -7.3513378670888563E-01
  -7.3412797040389144E-01  -7.3310396660729893E-01  -7.3206114310858961E-01
  -7.3099886313387075E-01  -7.2991648469197112E-01  -7.2881335987759321E-01
  -7.2768883419314112E-01  -7.2654224588957605E-01  -7.2537292531611874E-01
  -7.2418019433673553E-01  -7.2296336582002396E-01  -7.2172174317708560E-01
  -7.2045462002990435E-01  -7.1916127996588186E-01  -7.1784099644831312E-01
  -7.1649303283203303E-01  -7.1511664256259566E-01  -7.1371106955301200E-01
  -7.1227554870887422E-01  -7.1080930668528131E-01  -7.0931156284746233E-01
  -7.0778153042514369E-01  -7.0621841793085305E-01  -7.0462143078671391E-01
  -7.0298977322077350E-01  -7.0132265038273001E-01  -6.9961927072866026E-01
  -6.9787884866646033E-01  -6.9610060741726076E-01  -6.9428378215602837E-01
  -6.9242762336456143E-01  -6.9053140043803896E-01  -6.8859440547130990E-01
  -6.8661595726777536E-01  -6.8459540553009901E-01  -6.8253213517929612E-01
  -6.8042557082515487E-01  -6.7827518134372566E-01  -6.7608048449248470E-01
  -6.7384105159473484E-01  -6.7155651219405643E-01  -6.6922655869688508E-01
  -6.6685095089681667E-01  -6.6442952040304515E-01  -6.6196217490427967E-01
  -6.5944890219517416E-01  -6.5688977398163750E-01  -6.5428494938708914E-01
  -6.5163467810832232E-01  -6.4893930322538840E-01  -6.4619926358751867E-01
  -6.4341509578290024E-01  -6.4058743561400500E-01  -6.3771701911137602E-01
  -6.3480468303313886E-01  -6.3185136482771853E-01  -6.2885810208251636E-01
  -6.2582603143817128E-01  -6.2275638695087210E-01  -6.1965049795218319E-01
  -6.1650978637542153E-01  -6.1333576360333408E-01  -6.1013002681978945E-01
  -6.0689425492703875E-01  -6.0363020404738688E-01  -6.0033970261735614E-01
  -5.9702464615857487E-01  -5.9368699171621664E-01  -5.9032875204518565E-01
  -5.8695198954715155E-01  -5.8355881003483201E-01  -5.8015135635011728E-01
  -5.7673180186691142E-01  -5.7330234394243029E-01  -5.6986519734375540E-01
  -5.6642258767926901E-01  -5.6297674489002580E-01  -5.5952989681568321E-01
  -5.5608426288078394E-01  -5.5264204791158389E-01  -5.4920543612787287E-01
  -5.4577658531912010E-01  -5.4235762122360731E-01  -5.3895063213573324E-01
  -5.3555766374766600E-01  -5.3218071423306013E-01  -5.2882172963113827E-01
  -5.2548259927385632E-01  -5.2216515201670699E-01  -5.1887115197770628E-01
  -5.1560229515929035E-01  -5.1236020605323096E-01  -5.0914643456418562E-01
  -5.0596245318516486E-01  -5.0280965442072889E-01  -4.9968934845487606E-01
  -4.9660276105115669E-01  -4.9355103168281023E-01  -4.9053521187894700E-01
  -4.8755626378588135E-01  -4.8461505892880696E-01  -4.8171237716706550E-01
  -4.7884890584144429E-01  -4.7602523909562011E-01  -4.7324187737434642E-01
  -4.7049922708355035E-01  -4.6779760041533663E-01  -4.6513721532432478E-01
  -4.6251819565208063E-01  -4.5994057140392852E-01  -4.5740427916229609E-01
  -4.5490916263986081E-01  -4.5245497337747648E-01  -4.5004137156987201E-01
  -4.4766792703582159E-01  -4.4533412031599096E-01  -4.4303934391851979E-01
  -4.4078290369489337E-01  -4.3856402035645237E-01  -4.3638183114079715E-01
  -4.3423539161554925E-01  -4.3212367763222614E-01  -4.3004558743632038E-01
  -4.2799994392457807E-01  -4.2598549706754146E-01  -4.2400092648525217E-01
  -4.2204484419609684E-01  -4.2011579752613476E-01  -4.1821227218647244E-01
  -4.1633269552876162E-01  -4.1447543996488712E-01  -4.1263882655924766E-01
  -4.1082112879813176E-01  -4.0902057652018020E-01  -4.0723536001858285E-01
  -4.0546363430161458E-01  -4.0370352351234112E-01  -4.0195312549696022E-01
  -4.0021051650939321E-01  -3.9847375605429958E-01  -3.9674089184334654E-01
  -3.9500996485580658E-01  -3.9327901450562197E-01  -3.9154608382003114E-01
  -3.8980922491446401E-01  -3.8806650360917605E-01  -3.8631600741041777E-01
  -3.8455584195758941E-01  -3.8278416517118014E-01  -3.8099904479937724E-01
  -3.7919904306809632E-01  -3.7738191616848499E-01  -3.7554633593814890E-01
  -3.7369056452040167E-01  -3.7181303786688136E-01  -3.6991224987086041E-01
  -3.6798676331194624E-01  -3.6603521373576570E-01  -3.6405631316056686E-01
  -3.6204885349960936E-01  -3.6001170967703594E-01  -3.5794384243066307E-01
  -3.5584430077921403E-01  -3.5371222415193609E-01  -3.5154684416322757E-01
  -3.4934748602865801E-01  -3.4711356962215817E-01  -3.4484461016572138E-01
  -3.4254021855715466E-01  -3.4020010133993517E-01  -3.3782406031691081E-01
  -3.3541199182076370E-01  -3.3296388564702661E-01  -3.3047982366770146E-01
  -3.2795997813388061E-01  -3.2540460968707147E-01  -3.2281406509749333E-01
  -3.2018877474458529E-01  -3.1752924986377545E-01  -3.1483607957699405E-01
  -3.1210992773190543E-01  -3.0935152956858392E-01  -3.0656168823712493E-01
  -3.0374127119008310E-01  -3.0089120646867834E-01  -2.9801247890631821E-01
  -2.9510612627151961E-01  -2.9217323536792417E-01  -2.8921493811433946E-01
  -2.8623240762081764E-01  -2.8322685428129946E-01  -2.8019952189717134E-01
  -2.7715168384848099E-01  -2.7408463932780752E-01  -2.7099970964848924E-01
  -2.6789823463992601E-01  -2.6478156914124218E-01  -2.6165107960128847E-01
  -2.5850814079456580E-01  -2.5535413265905837E-01  -2.5219043726293061E-01
  -2.4901843590368641E-01  -2.4583950634427376E-01  -2.4265502018889393E-01
  -2.3946634039985565E-01  -2.3627481895649677E-01  -2.3308179465697074E-01
  -2.2988859106113155E-01  -2.2669651457435380E-01  -2.2350685266946124E-01
  -2.2032087224524702E-01  -2.1713981811781358E-01  -2.1396491164191617E-01
  -2.1079734945864947E-01  -2.0763830236514969E-01  -2.0448891430237046E-01
  -2.0135030145632563E-01  -1.9822355146833381E-01  -1.9510972274936755E-01
  -1.9200984389376671E-01  -1.8892491318762747E-01  -1.8585589820673054E-01
  -1.8280373549931445E-01  -1.7976933034898709E-01  -1.7675355661277567E-01
  -1.7375725662992461E-01  -1.7078124119666616E-01  -1.6782628960273466E-01
  -1.6489314972510100E-01  -1.6198253817488503E-01  -1.5909514049341034E-01
  -1.5623161139345448E-01  -1.5339257504200032E-01  -1.5057862538101000E-01
  -1.4779032648266704E-01  -1.4502821293600382E-01  -1.4229279026172359E-01
  -1.3958453535241300E-01  -1.3690389693529262E-01  -1.3425129605496641E-01
  -1.3162712657374684E-01  -1.2903175568720374E-01  -1.2646552445282985E-01
  -1.2392874832983285E-01  -1.2142171772813320E-01  -1.1894469856487513E-01
  -1.1649793282680752E-01  -1.1408163913706773E-01  -1.1169601332495592E-01
  -1.0934122899745359E-01  -1.0701743811132061E-01  -1.0472477154468114E-01
  -1.0246333966714612E-01  -1.0023323290756564E-01  -9.8034522318626846E-02
  -9.5867260137543570E-02  -9.3731480342202078E-02  -9.1627199202173992E-02
  -8.9554415824058847E-02  -8.7513112690710354E-02  -8.5503256193923072E-02
  -8.3524797160228384E-02  -8.1577671369485918E-02  -7.9661800066003235E-02
  -7.7777090461957660E-02  -7.5923436232927272E-02  -7.4100718005376168E-02
  -7.2308803835969188E-02  -7.0547549682614535E-02  -6.8816799867166836E-02
  -6.7116387529735866E-02  -6.5446135074578679E-02  -6.3805854607561885E-02
  -6.2195348365200916E-02  -6.0614409135299391E-02  -5.9062820669225698E-02
  -5.7540358085866238E-02  -5.6046788267324829E-02  -5.4581870246417558E-02
  -5.3145355586051019E-02  -5.1736988750555081E-02  -5.0356507469056497E-02
  -4.9003643090983186E-02  -4.7678120933792811E-02  -4.6379660623019549E-02
  -4.5107976424737233E-02  -4.3862777570536304E-02  -4.2643768575121144E-02
  -4.1450649546614919E-02  -4.0283116489689332E-02  -3.9140861601600727E-02
  -3.8023573561247900E-02  -3.6930937811338785E-02  -3.5862636833766857E-02
  -3.4818350418292107E-02  -3.3797755924618637E-02  -3.2800528537965806E-02
  -3.1826341518212127E-02  -3.0874866442710820E-02  -2.9945773442859251E-02
  -2.9038731434501419E-02  -2.8153408342252609E-02  -2.7289471317820484E-02
  -2.6446586952403511E-02  -2.5624421483242583E-02  -2.4822640994396124E-02
  -2.4040911611817734E-02  -2.3278899692797252E-02  -2.2536272009846835E-02
  -2.1812695929086637E-02  -2.1107839583202184E-02  -2.0421372039041201E-02
  -1.9752963459903163E-02  -1.9102285262597874E-02  -1.8469010269316865E-02
  -1.7852812854396154E-02  -1.7253369086013784E-02  -1.6670356862893768E-02
  -1.6103456046063488E-02  -1.5552348585732456E-02  -1.5016718643343849E-02
  -1.4496252708851484E-02  -1.3990639713294267E-02  -1.3499571136707985E-02
  -1.3022741111438698E-02  -1.2559846520920660E-02  -1.2110587093961548E-02
  -1.1674665494604932E-02  -1.1251787407622843E-02  -1.0841661619695650E-02
  -1.0444000096336727E-02  -1.0058518054623928E-02  -9.6849340317975395E-03
  -9.3229699497809609E-03  -8.9723511756863317E-03  -8.6328065783670294E-03
  -8.3040685810787645E-03  -7.9858732103134482E-03  -7.6779601408644748E-03
  -7.3800727371927813E-03  -7.0919580911517370E-03  -6.8133670561501113E-03
  -6.5440542778003354E-03  -6.2837782211320305E-03  -6.0323011944398075E-03
  -5.7893893698243498E-03  -5.5548128005021942E-03  -5.3283454349554076E-03
  -5.1097651279868586E-03  -4.8988536487564530E-03  -4.6953966858679988E-03
  -4.4991838495806865E-03  -4.3100086712141456E-03  -4.1276685998290034E-03
  -3.9519649962448597E-03  -3.7827031244824865E-03  -3.6196921406949929E-03
  -3.4627450796678423E-03  -3.3116788389641054E-03  -3.1663141607869471E-03
  -3.0264756116350319E-03  -2.8919915598324833E-03  -2.7626941510008047E-03
  -2.6384192815556394E-03  -2.5190065702995566E-03  -2.4042993281901933E-03
  -2.2941445263563870E-03  -2.1883927624388871E-03  -2.0868982253301025E-03
  -1.9895186583905903E-03  -1.8961153212089968E-03  -1.8065529499902754E-03
  -1.7206997166342131E-03  -1.6384271865862476E-03  -1.5596102755245970E-03
  -1.4841272049630470E-03  -1.4118594568337636E-03  -1.3426917271214752E-03
  -1.2765118786219045E-03  -1.2132108928851408E-03  -1.1526828214197371E-03
  -1.0948247362140785E-03  -1.0395366796495775E-03  -9.8672161386106536E-04
  -9.3628536961485231E-04  -8.8813659475925279E-04  -8.4218670231079565E-04
  -7.9834981823812034E-04  -7.5654272899357191E-04  -7.1668482885873066E-04
  -6.7869806714909015E-04  -6.4250689533789024E-04  -6.0803821414990254E-04
  -5.7522132067500033E-04  -5.4398785554754861E-04  -5.1427175024824879E-04
  -4.8600917456234209E-04  -4.5913848425108112E-04  -4.3360016896672545E-04
  -4.0933680046654179E-04  -3.8629298115055657E-04  -3.6441529297528416E-04
  -3.4365224676660499E-04  -3.2395423198032568E-04  -3.0527346693163247E-04
  -2.8756394953268768E-04  -2.7078140856593921E-04  -2.5488325552121955E-04
  -2.3982853702377664E-04  -2.2557788788080707E-04  -2.1209348476534820E-04
  -1.9933900056514253E-04  -1.8727955941230776E-04  -1.7588169241883962E-04
  -1.6511329412497244E-04  -1.5494357969323579E-04  -1.4534304292929655E-04
  -1.3628341462864265E-04  -1.2773762260580749E-04  -1.1967975158112247E-04
  -1.1208500433592871E-04  -1.0492966357587087E-04  -9.8191054597406615E-05
  -9.1847508774446106E-05  -8.5878327876738516E-05  -8.0263749133532904E-05
  -7.4984911864596200E-05  -7.0023820988728461E-05   1.5983931546860949E-11
   1.5984009042101600E-11   1.5984056684453456E-11   1.5984077380724201E-11
   1.5984074093284976E-11   1.5984049840750075E-11   1.5984007698663482E-11
   1.5984511975307560E-11   1.5984446878994240E-11   1.5984373488512691E-11
   1.5984295114252907E-11   1.5984215127073576E-11   1.5984136959031263E-11
   1.5984064104116739E-11   1.5984585291985185E-11   1.5984537307800334E-11
   1.5984505518863023E-11   1.5984493674540446E-11   1.5984505589928940E-11
   1.5984545146635709E-11   0.0000000000000000E+00   0.0000000000000000E+00
   0.0000000000000000E+00   0.0000000000000000E+00
     </PP_GIPAW_VLOCAL_PS>
   </PP_GIPAW_VLOCAL>
 </PP_GIPAW>
</UPF>
